324
Lattice="33.96 0.0 0.0 0.0 17.3 0.0 0.0 0.0 20.0" Properties=species:S:1:pos:R:3 pbc="T T T"
C        3.34260456       2.00000000       2.34260456
F        4.69260456       2.00000000       2.34260456
F        2.54909447       2.00000000       3.43477750
C        3.34260456       3.30000000       2.34260456
F        2.02210530       3.30000000       2.06192378
F        4.34585007       3.30000000       1.43927824
C        3.34260456       4.60000000       2.34260456
F        4.57589093       4.60000000       2.89169903
F        2.17347026       4.60000000       3.01760456
C        3.34260456       5.90000000       2.34260456
F        2.25043162       5.90000000       1.54909447
F        4.62653086       5.90000000       1.92543162
C        3.34260456       7.20000000       2.34260456
F        4.24593088       7.20000000       3.34585007
F        2.00000000       7.20000000       2.48371798
C        3.34260456       8.50000000       2.34260456
F        2.66760456       8.50000000       1.17347026
F        4.68520912       8.50000000       2.48371798
C        3.34260456       9.80000000       2.34260456
F        3.75977750       9.80000000       3.62653086
F        2.05867826       9.80000000       1.92543162
C        3.34260456      11.10000000       2.34260456
F        3.20149113      11.10000000       1.00000000
F        4.51173885      11.10000000       3.01760456
C        3.34260456      12.40000000       2.34260456
F        3.20149113      12.40000000       3.68520912
F        2.33935904      12.40000000       1.43927824
C        3.34260456      13.70000000       2.34260456
F        3.75977750      13.70000000       1.05867826
F        4.13611465      13.70000000       3.43477750
C        3.34260456      15.00000000       2.34260456
F        2.66760456      15.00000000       3.51173885
F        2.79351009      15.00000000       1.10931819
C        3.34260456      16.30000000       2.34260456
F        4.24593088      16.30000000       1.33935904
F        3.62328534      16.30000000       3.66310382
C        9.00260456       2.00000000       2.34260456
F       10.35260456       2.00000000       2.34260456
F        8.20909447       2.00000000       3.43477750
C        9.00260456       3.30000000       2.34260456
F        7.68210530       3.30000000       2.06192378
F       10.00585007       3.30000000       1.43927824
C        9.00260456       4.60000000       2.34260456
F       10.23589093       4.60000000       2.89169903
F        7.83347026       4.60000000       3.01760456
C        9.00260456       5.90000000       2.34260456
F        7.91043162       5.90000000       1.54909447
F       10.28653086       5.90000000       1.92543162
C        9.00260456       7.20000000       2.34260456
F        9.90593088       7.20000000       3.34585007
F        7.66000000       7.20000000       2.48371798
C        9.00260456       8.50000000       2.34260456
F        8.32760456       8.50000000       1.17347026
F       10.34520912       8.50000000       2.48371798
C        9.00260456       9.80000000       2.34260456
F        9.41977750       9.80000000       3.62653086
F        7.71867826       9.80000000       1.92543162
C        9.00260456      11.10000000       2.34260456
F        8.86149113      11.10000000       1.00000000
F       10.17173885      11.10000000       3.01760456
C        9.00260456      12.40000000       2.34260456
F        8.86149113      12.40000000       3.68520912
F        7.99935904      12.40000000       1.43927824
C        9.00260456      13.70000000       2.34260456
F        9.41977750      13.70000000       1.05867826
F        9.79611465      13.70000000       3.43477750
C        9.00260456      15.00000000       2.34260456
F        8.32760456      15.00000000       3.51173885
F        8.45351009      15.00000000       1.10931819
C        9.00260456      16.30000000       2.34260456
F        9.90593088      16.30000000       1.33935904
F        9.28328534      16.30000000       3.66310382
C       14.66260456       2.00000000       2.34260456
F       16.01260456       2.00000000       2.34260456
F       13.86909447       2.00000000       3.43477750
C       14.66260456       3.30000000       2.34260456
F       13.34210530       3.30000000       2.06192378
F       15.66585007       3.30000000       1.43927824
C       14.66260456       4.60000000       2.34260456
F       15.89589093       4.60000000       2.89169903
F       13.49347026       4.60000000       3.01760456
C       14.66260456       5.90000000       2.34260456
F       13.57043162       5.90000000       1.54909447
F       15.94653086       5.90000000       1.92543162
C       14.66260456       7.20000000       2.34260456
F       15.56593088       7.20000000       3.34585007
F       13.32000000       7.20000000       2.48371798
C       14.66260456       8.50000000       2.34260456
F       13.98760456       8.50000000       1.17347026
F       16.00520912       8.50000000       2.48371798
C       14.66260456       9.80000000       2.34260456
F       15.07977750       9.80000000       3.62653086
F       13.37867826       9.80000000       1.92543162
C       14.66260456      11.10000000       2.34260456
F       14.52149113      11.10000000       1.00000000
F       15.83173885      11.10000000       3.01760456
C       14.66260456      12.40000000       2.34260456
F       14.52149113      12.40000000       3.68520912
F       13.65935904      12.40000000       1.43927824
C       14.66260456      13.70000000       2.34260456
F       15.07977750      13.70000000       1.05867826
F       15.45611465      13.70000000       3.43477750
C       14.66260456      15.00000000       2.34260456
F       13.98760456      15.00000000       3.51173885
F       14.11351009      15.00000000       1.10931819
C       14.66260456      16.30000000       2.34260456
F       15.56593088      16.30000000       1.33935904
F       14.94328534      16.30000000       3.66310382
C        6.17260456       2.00000000       7.24430834
F        7.52260456       2.00000000       7.24430834
F        5.37909447       2.00000000       8.33648129
C        6.17260456       3.30000000       7.24430834
F        4.85210530       3.30000000       6.96362756
F        7.17585007       3.30000000       6.34098203
C        6.17260456       4.60000000       7.24430834
F        7.40589093       4.60000000       7.79340281
F        5.00347026       4.60000000       7.91930834
C        6.17260456       5.90000000       7.24430834
F        5.08043162       5.90000000       6.45079825
F        7.45653086       5.90000000       6.82713540
C        6.17260456       7.20000000       7.24430834
F        7.07593088       7.20000000       8.24755386
F        4.83000000       7.20000000       7.38542177
C        6.17260456       8.50000000       7.24430834
F        5.49760456       8.50000000       6.07517405
F        7.51520912       8.50000000       7.38542177
C        6.17260456       9.80000000       7.24430834
F        6.58977750       9.80000000       8.52823464
F        4.88867826       9.80000000       6.82713540
C        6.17260456      11.10000000       7.24430834
F        6.03149113      11.10000000       5.90170379
F        7.34173885      11.10000000       7.91930834
C        6.17260456      12.40000000       7.24430834
F        6.03149113      12.40000000       8.58691290
F        5.16935904      12.40000000       6.34098203
C        6.17260456      13.70000000       7.24430834
F        6.58977750      13.70000000       5.96038205
F        6.96611465      13.70000000       8.33648129
C        6.17260456      15.00000000       7.24430834
F        5.49760456      15.00000000       8.41344264
F        5.62351009      15.00000000       6.01102198
C        6.17260456      16.30000000       7.24430834
F        7.07593088      16.30000000       6.24106283
F        6.45328534      16.30000000       8.56480761
C       11.83260456       2.00000000       7.24430834
F       13.18260456       2.00000000       7.24430834
F       11.03909447       2.00000000       8.33648129
C       11.83260456       3.30000000       7.24430834
F       10.51210530       3.30000000       6.96362756
F       12.83585007       3.30000000       6.34098203
C       11.83260456       4.60000000       7.24430834
F       13.06589093       4.60000000       7.79340281
F       10.66347026       4.60000000       7.91930834
C       11.83260456       5.90000000       7.24430834
F       10.74043162       5.90000000       6.45079825
F       13.11653086       5.90000000       6.82713540
C       11.83260456       7.20000000       7.24430834
F       12.73593088       7.20000000       8.24755386
F       10.49000000       7.20000000       7.38542177
C       11.83260456       8.50000000       7.24430834
F       11.15760456       8.50000000       6.07517405
F       13.17520912       8.50000000       7.38542177
C       11.83260456       9.80000000       7.24430834
F       12.24977750       9.80000000       8.52823464
F       10.54867826       9.80000000       6.82713540
C       11.83260456      11.10000000       7.24430834
F       11.69149113      11.10000000       5.90170379
F       13.00173885      11.10000000       7.91930834
C       11.83260456      12.40000000       7.24430834
F       11.69149113      12.40000000       8.58691290
F       10.82935904      12.40000000       6.34098203
C       11.83260456      13.70000000       7.24430834
F       12.24977750      13.70000000       5.96038205
F       12.62611465      13.70000000       8.33648129
C       11.83260456      15.00000000       7.24430834
F       11.15760456      15.00000000       8.41344264
F       11.28351009      15.00000000       6.01102198
C       11.83260456      16.30000000       7.24430834
F       12.73593088      16.30000000       6.24106283
F       12.11328534      16.30000000       8.56480761
C       17.49260456       2.00000000       7.24430834
F       18.84260456       2.00000000       7.24430834
F       16.69909447       2.00000000       8.33648129
C       17.49260456       3.30000000       7.24430834
F       16.17210530       3.30000000       6.96362756
F       18.49585007       3.30000000       6.34098203
C       17.49260456       4.60000000       7.24430834
F       18.72589093       4.60000000       7.79340281
F       16.32347026       4.60000000       7.91930834
C       17.49260456       5.90000000       7.24430834
F       16.40043162       5.90000000       6.45079825
F       18.77653086       5.90000000       6.82713540
C       17.49260456       7.20000000       7.24430834
F       18.39593088       7.20000000       8.24755386
F       16.15000000       7.20000000       7.38542177
C       17.49260456       8.50000000       7.24430834
F       16.81760456       8.50000000       6.07517405
F       18.83520912       8.50000000       7.38542177
C       17.49260456       9.80000000       7.24430834
F       17.90977750       9.80000000       8.52823464
F       16.20867826       9.80000000       6.82713540
C       17.49260456      11.10000000       7.24430834
F       17.35149113      11.10000000       5.90170379
F       18.66173885      11.10000000       7.91930834
C       17.49260456      12.40000000       7.24430834
F       17.35149113      12.40000000       8.58691290
F       16.48935904      12.40000000       6.34098203
C       17.49260456      13.70000000       7.24430834
F       17.90977750      13.70000000       5.96038205
F       18.28611465      13.70000000       8.33648129
C       17.49260456      15.00000000       7.24430834
F       16.81760456      15.00000000       8.41344264
F       16.94351009      15.00000000       6.01102198
C       17.49260456      16.30000000       7.24430834
F       18.39593088      16.30000000       6.24106283
F       17.77328534      16.30000000       8.56480761
C        3.34260456       2.00000000      12.14601213
F        4.69260456       2.00000000      12.14601213
F        2.54909447       2.00000000      13.23818507
C        3.34260456       3.30000000      12.14601213
F        2.02210530       3.30000000      11.86533135
F        4.34585007       3.30000000      11.24268581
C        3.34260456       4.60000000      12.14601213
F        4.57589093       4.60000000      12.69510660
F        2.17347026       4.60000000      12.82101213
C        3.34260456       5.90000000      12.14601213
F        2.25043162       5.90000000      11.35250204
F        4.62653086       5.90000000      11.72883919
C        3.34260456       7.20000000      12.14601213
F        4.24593088       7.20000000      13.14925764
F        2.00000000       7.20000000      12.28712555
C        3.34260456       8.50000000      12.14601213
F        2.66760456       8.50000000      10.97687783
F        4.68520912       8.50000000      12.28712555
C        3.34260456       9.80000000      12.14601213
F        3.75977750       9.80000000      13.42993843
F        2.05867826       9.80000000      11.72883919
C        3.34260456      11.10000000      12.14601213
F        3.20149113      11.10000000      10.80340757
F        4.51173885      11.10000000      12.82101213
C        3.34260456      12.40000000      12.14601213
F        3.20149113      12.40000000      13.48861669
F        2.33935904      12.40000000      11.24268581
C        3.34260456      13.70000000      12.14601213
F        3.75977750      13.70000000      10.86208583
F        4.13611465      13.70000000      13.23818507
C        3.34260456      15.00000000      12.14601213
F        2.66760456      15.00000000      13.31514642
F        2.79351009      15.00000000      10.91272576
C        3.34260456      16.30000000      12.14601213
F        4.24593088      16.30000000      11.14276662
F        3.62328534      16.30000000      13.46651139
C        9.00260456       2.00000000      12.14601213
F       10.35260456       2.00000000      12.14601213
F        8.20909447       2.00000000      13.23818507
C        9.00260456       3.30000000      12.14601213
F        7.68210530       3.30000000      11.86533135
F       10.00585007       3.30000000      11.24268581
C        9.00260456       4.60000000      12.14601213
F       10.23589093       4.60000000      12.69510660
F        7.83347026       4.60000000      12.82101213
C        9.00260456       5.90000000      12.14601213
F        7.91043162       5.90000000      11.35250204
F       10.28653086       5.90000000      11.72883919
C        9.00260456       7.20000000      12.14601213
F        9.90593088       7.20000000      13.14925764
F        7.66000000       7.20000000      12.28712555
C        9.00260456       8.50000000      12.14601213
F        8.32760456       8.50000000      10.97687783
F       10.34520912       8.50000000      12.28712555
C        9.00260456       9.80000000      12.14601213
F        9.41977750       9.80000000      13.42993843
F        7.71867826       9.80000000      11.72883919
C        9.00260456      11.10000000      12.14601213
F        8.86149113      11.10000000      10.80340757
F       10.17173885      11.10000000      12.82101213
C        9.00260456      12.40000000      12.14601213
F        8.86149113      12.40000000      13.48861669
F        7.99935904      12.40000000      11.24268581
C        9.00260456      13.70000000      12.14601213
F        9.41977750      13.70000000      10.86208583
F        9.79611465      13.70000000      13.23818507
C        9.00260456      15.00000000      12.14601213
F        8.32760456      15.00000000      13.31514642
F        8.45351009      15.00000000      10.91272576
C        9.00260456      16.30000000      12.14601213
F        9.90593088      16.30000000      11.14276662
F        9.28328534      16.30000000      13.46651139
C       14.66260456       2.00000000      12.14601213
F       16.01260456       2.00000000      12.14601213
F       13.86909447       2.00000000      13.23818507
C       14.66260456       3.30000000      12.14601213
F       13.34210530       3.30000000      11.86533135
F       15.66585007       3.30000000      11.24268581
C       14.66260456       4.60000000      12.14601213
F       15.89589093       4.60000000      12.69510660
F       13.49347026       4.60000000      12.82101213
C       14.66260456       5.90000000      12.14601213
F       13.57043162       5.90000000      11.35250204
F       15.94653086       5.90000000      11.72883919
C       14.66260456       7.20000000      12.14601213
F       15.56593088       7.20000000      13.14925764
F       13.32000000       7.20000000      12.28712555
C       14.66260456       8.50000000      12.14601213
F       13.98760456       8.50000000      10.97687783
F       16.00520912       8.50000000      12.28712555
C       14.66260456       9.80000000      12.14601213
F       15.07977750       9.80000000      13.42993843
F       13.37867826       9.80000000      11.72883919
C       14.66260456      11.10000000      12.14601213
F       14.52149113      11.10000000      10.80340757
F       15.83173885      11.10000000      12.82101213
C       14.66260456      12.40000000      12.14601213
F       14.52149113      12.40000000      13.48861669
F       13.65935904      12.40000000      11.24268581
C       14.66260456      13.70000000      12.14601213
F       15.07977750      13.70000000      10.86208583
F       15.45611465      13.70000000      13.23818507
C       14.66260456      15.00000000      12.14601213
F       13.98760456      15.00000000      13.31514642
F       14.11351009      15.00000000      10.91272576
C       14.66260456      16.30000000      12.14601213
F       15.56593088      16.30000000      11.14276662
F       14.94328534      16.30000000      13.46651139
