523
 Atoms. Timestep: 88312
Si 18.9375 5.86765 1.98105
O 19.2523 4.56021 3.05467
C 3.04523 4.81612 18.7631
H 3.30982 5.05256 17.7094
H 4.01062 5.22995 1.02582
H 2.28699 5.52756 18.9346
C 19.7084 7.35668 1.93207
H 19.1673 8.48353 1.44958
H 1.13741 12.6012 15.7113
H 20.4081 7.38726 2.83785
Si 19.2976 3.65159 4.35285
O 20.7153 2.86005 4.47885
C 18.0114 5.16407 18.9088
H 17.463 4.23185 19.1041
H 17.5091 6.04907 18.5404
H 18.7141 5.07679 18.0519
C 17.7555 3.67953 5.21028
H 18.5879 17.39 5.52708
H 1.74309 10.6731 1.13078
H 16.9191 3.51094 4.63345
Si 1.89556 2.48595 3.65911
O 1.6373 2.90205 2.13295
C 2.09515 18.233 4.01156
H 2.18564 18.0657 5.11524
H 1.33506 17.6417 3.77957
H 2.96735 17.6742 3.56374
C 3.19991 3.52206 4.38244
H 3.07687 4.53696 4.02631
H 3.34212 3.49081 5.54693
H 4.16599 3.31794 3.97911
Si 2.20958 3.14904 18.9881
O 0.999783 2.92248 17.9348
C 18.1218 14.9883 17.8945
H 18.1479 16.2543 18.5605
H 18.5197 13.9338 18.0635
H 20.1 17.5971 19.0009
C 3.19417 1.44915 18.7843
H 3.52894 18.2267 17.8759
H 4.69284 1.11286 19.0266
H 2.26279 0.85276 1.00315
Si 20.5791 2.14722 16.6837
O 20.8176 18.0202 17.0516
C 18.8407 2.39005 16.3879
H 18.2077 2.44876 17.2845
H 6.72822 12.5778 16.3107
H 18.459 1.56677 15.7783
C 1.37489 2.34416 15.2073
H 1.49967 3.49575 14.8475
H 2.44774 2.10558 15.4452
H 1.10283 1.68964 14.3942
Si 20.5092 16.9223 18.1514
C 16.8277 15.0109 17.4971
H 16.6356 12.9641 2.52608
H 16.1544 14.2249 17.4533
H 16.2384 15.915 17.4884
C 1.68331 15.5881 18.2453
H 1.01476 14.6533 17.9907
H 2.63243 15.5428 17.8284
H 1.67497 15.4009 1.21198
Si 8.44189 15.0173 4.77975
O 8.24367 14.6403 3.17758
C 8.04346 16.8157 4.94484
H 8.64315 17.4263 4.26511
H 7.00059 17.0196 4.70339
H 8.22948 17.1683 5.96259
C 7.26981 13.9345 5.75284
H 7.57638 12.8996 5.56319
H 7.33418 14.1033 6.83307
H 6.22155 14.0183 5.46031
Si 7.48451 13.8332 1.9847
O 8.10296 12.2934 1.86716
C 7.72975 14.7167 18.7666
H 7.3856 15.7559 18.8628
H 8.77716 14.7445 18.4666
H 7.17218 14.2564 17.939
C 5.69114 13.6651 2.41714
H 5.56174 13.1097 3.34828
H 5.23599 14.6496 2.55754
H 5.11888 13.1294 1.65688
Si 8.22032 10.9642 0.913182
O 9.08713 9.84135 1.7522
C 9.14301 11.2991 17.714
H 8.89854 12.2421 17.2192
H 10.2085 11.3544 17.9689
H 9.03345 10.4759 17.0007
C 6.5569 10.2949 18.8781
H 6.05697 9.95316 1.40706
H 5.8693 11.0094 18.4205
H 6.60785 9.42505 18.2011
Si 9.42785 9.1348 3.16363
O 8.5782 7.67115 3.1103
C 8.70434 10.0971 4.56703
H 9.19546 11.0667 4.6635
H 7.62905 10.2525 4.44129
H 8.83087 9.53787 5.49809
C 11.1925 8.67926 3.38865
H 10.8849 8.13314 5.51124
H 11.6975 9.62925 3.60538
Si 7.53913 6.57457 3.48219
O 7.58526 5.17722 2.7696
C 6.30425 6.78419 4.82854
H 6.82868 6.68996 5.78326
H 5.90839 7.80048 4.79405
H 5.52735 6.02614 4.76824
C 9.34794 6.30407 7.04206
H 9.94766 5.84131 6.25637
H 8.94629 7.25407 6.67625
H 8.48632 5.66224 7.2508
Si 7.79794 4.69667 1.0951
C 7.37055 6.24631 18.5413
H 8.59704 14.5452 15.2697
H 6.38476 6.5517 18.9023
H 8.02032 7.09286 18.8219
C 6.55819 3.38584 19.1848
H 5.52483 3.61659 0.85233
H 6.65649 2.79045 18.3256
H 6.60231 2.62431 1.62963
Si 13.6482 14.9259 3.57911
O 13.6293 13.352 4.21948
C 15.2893 15.8014 3.83804
H 16.1047 15.0659 3.77838
H 15.4527 16.4859 2.98673
H 15.4142 16.3918 4.74714
C 13.2842 14.2525 1.91638
H 17.2099 13.3956 2.285
H 13.0505 15.2074 17.6572
H 13.2672 1.47516 11.9356
Si 13.242 12.6561 2.71019
O 14.2721 11.3826 2.52104
C 20.2163 13.0892 1.94159
H 19.6287 12.8821 1.04211
H 20.1035 12.2717 2.65621
H 1.05505 13.0828 1.63565
C 19.5588 10.3637 17.1705
H 18.9862 9.47651 17.4063
H 19.2231 11.1906 17.7687
H 19.4112 10.6228 16.1209
Si 14.6229 9.81095 2.20358
O 13.3053 9.05612 1.50676
C 15.0041 8.89561 3.83979
H 15.9016 9.31215 4.30091
H 14.1628 9.05977 4.52369
H 15.0546 7.8093 3.72297
C 16.056 9.73838 1.04576
H 15.738 10.0342 18.5445
H 16.8621 10.4626 1.25377
H 16.5633 8.91128 1.48191
Si 12.1241 7.99397 1.91635
O 12.8132 6.53723 2.30175
C 11.3698 7.75876 4.60817
H 10.9612 6.76332 4.41405
H 12.4229 7.60114 4.85477
C 11.0558 7.6636 18.8301
H 10.5689 8.58022 18.4656
H 11.6121 7.23265 17.9872
H 10.2892 6.94401 19.1214
Si 12.61 4.92162 2.17187
O 11.0941 4.60689 1.6312
C 12.8389 4.15095 3.88004
H 12.6735 3.07624 3.90637
H 13.8364 4.4179 4.2511
H 12.1102 4.64363 4.52619
C 13.7973 4.20358 0.931081
H 13.6896 4.74788 18.4079
H 14.8288 4.37132 1.31101
H 13.5557 3.13268 19.1196
Si 9.89089 3.644 1.04388
C 10.2468 3.10231 17.6861
H 9.43438 2.52437 17.2409
H 10.3968 3.95859 17.0172
H 11.1741 2.51895 17.5784
C 9.7227 2.14906 2.19354
H 8.97433 1.42564 1.86115
H 10.6924 1.64529 2.25451
H 9.4699 2.4368 3.21529
Si 7.54609 17.8719 12.0243
O 7.03256 16.6919 11.0323
C 7.00006 18.0882 13.6024
H 7.38173 1.35447 14.0884
H 6.32156 17.4954 14.1638
H 15.6175 17.516 15.8136
C 8.79014 1.43127 11.2421
H 9.75938 0.938087 11.1449
H 8.48752 1.80716 10.2779
H 8.95109 2.28432 11.9075
Si 7.26719 16.068 9.52904
O 6.86753 14.4846 9.59919
C 9.05777 16.2837 9.0518
H 9.34261 15.6146 8.23875
H 9.27826 17.3044 8.71705
H 9.70137 16.0637 9.9062
C 6.08757 16.8832 8.36601
H 6.23254 17.9677 8.30979
H 6.16107 16.4954 7.35323
H 5.06126 16.7227 8.69487
Si 7.49252 13.1162 10.2914
O 6.58347 11.8321 9.8164
C 7.26849 13.3014 12.1231
H 7.54379 14.2962 12.4758
H 6.20747 13.1235 12.3289
H 7.83211 12.5427 12.6687
C 9.22796 12.8975 9.68854
H 9.63561 11.9174 9.94981
H 9.24163 12.9208 8.59421
H 9.9032 13.6802 10.0411
Si 6.47475 10.4921 8.87304
O 5.71314 9.35635 9.78857
C 5.56096 10.8493 7.30295
H 5.32572 9.92944 6.7604
H 4.60262 11.3288 7.5117
H 6.16478 11.5034 6.67085
C 8.16728 9.88907 8.39796
H 8.07082 8.97741 7.80197
H 8.69516 10.614 7.77245
H 8.82274 9.66456 9.24003
Si 5.18535 7.81403 9.9495
O 6.03966 7.0624 11.1195
C 3.39257 7.7968 10.5114
H 3.05451 6.75002 10.5862
H 3.25287 8.23763 11.5022
H 2.70372 8.32944 9.84728
C 5.39259 6.98807 8.31326
H 4.73882 7.40002 7.53434
H 6.46496 7.03443 8.07283
H 5.20083 5.91099 8.38203
Si 7.11957 5.9093 11.6981
C 6.13744 4.37502 12.0777
H 5.35539 4.57118 12.8174
H 5.67126 3.98597 11.1684
H 6.74152 3.56432 12.4919
C 8.3616 5.579 10.3446
H 7.78411 5.26469 9.46557
H 8.98506 4.72569 10.6311
Si 11.4452 13.9852 1.51979
O 12.4558 15.8738 4.18291
C 15.3574 17.3409 14.7555
H 16.2465 17.0196 14.2117
H 18.7691 17.5472 6.2595
H 15.0952 0.793525 14.3488
C 11.4662 12.479 2.41952
H 11.031 14.9219 13.4025
H 10.6237 11.9643 2.88681
H 20.6203 10.2104 17.3527
Si 11.5416 15.8683 5.54864
O 12.4808 15.3447 6.78534
C 11.0906 17.6046 5.93721
H 12.0364 18.1275 6.24359
H 10.6498 18.1089 5.11096
H 10.3925 17.6376 6.76804
C 10.1634 14.6245 5.37948
H 13.55 14.6131 17.8883
H 10.5635 13.8626 4.69688
H 10.1029 14.1338 6.35881
Si 13.3972 14.5111 7.84002
O 12.8433 12.9568 8.06172
C 13.2666 15.324 9.48878
H 13.8363 14.6957 10.2176
H 13.7888 16.2793 9.49904
H 12.2719 15.4843 9.87547
C 15.1544 14.5425 7.25585
H 15.2431 14.1836 6.23674
H 15.4593 15.6069 7.2627
H 15.8618 14.0083 7.88897
Si 12.9028 11.46 7.41328
O 12.5314 10.3793 8.60396
C 14.6523 11.1128 6.85648
H 14.8591 11.7253 5.96913
H 15.3417 11.4052 7.6531
H 14.8226 10.0713 6.58518
C 11.6051 11.214 6.11136
H 11.4129 10.1525 5.94909
H 10.6898 11.6603 6.51444
H 11.8433 11.6864 5.15638
Si 12.4867 8.78097 8.93644
O 11.1653 8.03787 8.25509
C 12.3243 8.59424 10.7742
H 12.191 7.54359 11.0438
H 13.2206 8.9433 11.2873
H 11.4695 9.13989 11.1829
C 14.0419 7.96333 8.26338
H 13.9734 7.8488 7.17796
H 14.9085 8.58666 8.48974
H 14.2187 6.99468 8.73328
Si 10.3608 6.62032 8.58487
C 9.21462 6.81829 10.04
H 8.57362 7.68333 9.85196
H 9.83038 7.02938 10.9213
C 11.5499 5.19767 8.8563
H 12.1344 5.30078 9.77271
H 11.0163 4.24548 8.92733
H 12.2511 5.12838 8.01963
Si 2.1622 12.8672 9.39823
O 0.915728 13.1332 8.41155
C 2.41946 11.0396 9.46328
H 3.29097 10.7281 10.0391
H 1.53377 10.5428 9.8683
H 2.49226 10.6237 8.45141
C 3.57417 13.9122 8.93581
H 3.97541 13.5943 7.97164
H 3.3828 14.9777 8.88927
H 4.39649 13.7395 9.63428
Si 20.4492 12.5846 7.00299
O 20.2667 11.0251 7.01866
C 18.7715 13.2767 6.65379
H 2.25357 10.2372 19.1092
H 17.8531 12.7016 6.7404
H 18.6302 14.363 6.7099
C 1.47536 13.0985 5.76402
H 1.62981 14.1499 5.50741
H 2.41058 12.6497 6.13424
H 1.25332 12.5657 4.83106
Si 20.2208 9.60038 6.23828
O 20.1076 8.31514 7.36504
C 18.6612 9.65154 5.29897
H 17.8472 9.22795 5.89306
H 18.4235 10.6693 4.92696
H 18.7526 8.91691 4.47283
C 1.49931 9.48145 5.23648
H 2.3628 9.43984 5.91856
H 1.53218 8.75892 4.43748
H 1.57667 10.349 4.56471
Si 20.2522 6.70501 7.5961
O 19.2726 5.80927 6.48404
C 1.72813 6.14394 7.27951
H 2.40278 6.33164 8.19578
H 2.05988 6.59629 6.18683
H 17.7479 2.78689 5.84545
C 19.6347 6.40024 9.31123
H 19.6631 5.37539 9.67242
H 20.2783 6.88008 10.045
H 18.6281 6.80908 9.46349
Si 17.7553 5.22093 6.31749
O 17.345 4.7434 7.82333
C 17.952 2.52735 9.50589
H 18.8002 3.0995 9.86959
H 17.6209 1.89201 10.3268
H 18.3769 1.8256 8.77672
C 16.6833 6.44431 5.53696
H 16.6609 7.52897 5.70096
H 16.862 6.30544 4.45698
H 15.6016 6.18228 5.63425
Si 16.5993 3.63448 8.79785
C 15.7173 4.40014 10.2308
H 14.6348 4.48205 10.1328
H 15.8181 3.68279 11.0699
H 16.0453 5.39698 10.507
C 15.4784 2.47855 7.86214
H 12.6927 17.2471 16.2222
H 1.71821 4.9977 7.23431
H 14.2615 1.62646 9.69974
Si 1.15363 16.8536 10.9975
O 1.81512 15.37 11.7818
C 2.6822 17.8941 10.8961
H 2.98515 18.0837 11.91
H 3.54211 17.473 10.3332
H 2.35646 1.26538 10.3149
C 20.2017 17.5444 12.2103
H 19.4384 16.8211 12.5325
H 20.668 17.9269 13.1093
H 19.6676 0.867664 11.7672
Si 2.83152 15.0696 13.1612
O 2.36151 13.4032 12.9515
C 2.06351 15.7455 14.6406
H 1.16214 15.2245 14.9405
H 2.76554 15.7004 15.4675
H 1.85768 16.8015 14.5004
C 4.58938 15.378 12.8257
H 4.92737 14.9842 11.8673
H 4.6894 16.4661 12.8022
H 5.26329 15.0204 13.6133
Si 2.53095 11.9454 13.87
O 4.09189 11.5228 13.6436
C 1.36401 10.7216 13.1297
H 1.34692 9.8099 13.7653
H 20.557 11.1558 13.2272
H 1.52813 10.4231 12.102
C 2.20009 12.3762 15.6159
H 2.40078 11.5154 16.2317
H 19.9569 14.0725 2.34676
H 2.79137 13.2398 15.976
Si 5.27961 10.5759 14.2201
O 4.69514 9.53299 15.295
C 6.21463 11.942 15.5779
H 6.48157 12.4745 14.6592
H 5.16981 12.0182 15.9243
H 6.73857 11.0017 15.8024
C 6.50248 10.034 12.962
H 7.53636 10.1886 13.2901
H 6.38207 8.96964 12.7418
H 6.35547 10.5995 12.038
Si 4.66931 7.96929 15.9849
O 6.21271 7.5255 16.2342
C 3.84731 8.15142 17.6054
H 2.79258 8.45852 17.4995
H 3.91429 7.25498 18.211
H 4.39302 8.94757 18.1413
C 3.84621 6.83829 14.7117
H 3.57723 5.87653 15.1497
H 2.95465 7.30751 14.2571
H 4.63194 6.70612 13.9566
Si 7.24645 6.27737 16.6851
C 6.44615 4.72521 16.0182
H 5.49636 4.48947 16.5225
H 6.25512 4.75837 14.9416
H 7.09392 3.86771 16.2165
C 8.95246 6.61674 15.9614
H 9.69933 6.22853 16.6644
H 9.08695 7.70673 15.9549
Si 13.9476 16.2044 14.5126
O 14.2586 14.8409 15.4389
C 13.9348 15.8054 12.7643
H 14.6313 16.4351 12.0542
H 15.5306 2.92048 15.5396
H 13.4583 15.1248 12.3383
C 12.3315 16.9397 15.2626
H 11.4782 16.3355 15.3892
H 14.56 3.01096 7.56927
H 12.0462 17.8362 14.66
Si 13.9996 13.3065 15.3889
O 12.6578 12.9378 14.525
C 14.1705 12.357 16.9807
H 13.6525 11.4056 16.9118
H 15.2178 12.1581 17.2441
H 13.7 12.7871 17.8852
C 10.4007 15.4269 12.6781
H 9.5032 15.7815 13.1592
H 10.957 16.2607 12.2353
H 10.0885 14.717 11.9178
Si 12.2447 11.7671 13.4203
O 13.1074 10.4053 13.7728
C 10.4087 11.4604 13.6125
H 10.1185 11.276 14.6482
H 9.86447 12.3512 13.2937
H 10.0851 10.5986 13.0205
C 12.7483 12.347 11.7509
H 12.3013 13.3145 11.5485
H 13.8357 12.4611 11.6842
H 12.4455 11.6864 10.9374
Si 13.0722 9.10744 14.8069
O 13.1036 7.74762 13.919
C 11.4283 9.15036 15.7043
H 11.2758 10.0517 16.3045
H 10.6595 9.15721 14.9275
H 11.2533 8.27582 16.3226
C 14.5628 9.16436 15.9567
H 15.0539 10.1318 15.9353
H 14.1539 9.08637 16.9753
Si 12.3202 6.27978 13.981
O 10.7321 6.55834 13.7024
C 12.5216 5.50848 15.6745
H 11.8886 5.98084 16.4334
H 12.215 4.46024 15.6041
H 13.5573 5.54467 16.0058
C 13.058 5.20343 12.6861
H 13.0795 5.66364 11.6982
H 14.0879 4.9579 12.9503
H 12.4746 4.28533 12.5735
Si 9.27432 5.88784 14.2146
C 7.8841 6.68197 13.1999
H 7.08734 6.92388 13.916
H 8.27975 7.65625 12.8783
C 9.46724 4.11822 14.1751
H 13.4049 18.3012 12.1519
H 8.67136 3.45011 14.4851
H 10.4298 3.67434 13.9588
Si 1.28309 13.6838 11.5069
O 19.9544 13.681 11.8392
C 20.6046 16.3439 9.45494
H 19.7302 15.6889 9.65774
H 1.07805 15.8193 8.78692
H 20.2114 17.2064 8.88316
C 14.9473 1.37034 8.77242
H 14.2788 0.782545 8.40246
H 15.6396 0.82016 9.36441
H 16.0391 2.14349 7.02987
Si 18.344 13.3058 11.6454
O 17.9995 12.1719 12.7932
C 17.4321 14.881 12.0474
H 17.6138 15.1436 13.0978
H 17.7296 15.6966 11.3888
H 16.354 14.7357 11.9167
C 18.0252 12.7197 9.91185
H 18.2057 13.5586 9.22795
H 18.6621 11.8929 9.58839
H 16.9835 12.4262 9.76073
Si 16.6961 11.2337 13.1667
O 17.0404 9.98438 14.1531
C 15.556 12.4281 14.1918
H 14.8845 11.6272 14.539
H 16.2673 12.8228 14.9245
H 15.2056 13.1548 13.4443
C 15.751 10.5652 11.7008
H 15.3735 11.351 11.0483
H 16.3649 9.85892 11.1351
H 14.8908 10.0155 12.0975
Si 16.9721 8.36191 14.5175
O 18.4354 7.8258 14.9692
C 15.6993 8.10588 15.8181
H 15.3365 7.10704 15.6728
H 16.1945 8.11906 16.8079
C 16.3686 7.50526 12.9552
H 17.0445 7.75859 12.1365
H 16.4379 6.4209 13.0496
H 15.3605 7.79797 12.6803
Si 19.4375 6.56651 15.0706
O 18.5849 5.20752 15.5046
C 20.3058 6.47364 13.4442
H 0.932387 5.69439 13.5358
H 19.6125 6.0967 12.7255
H 20.6643 7.42514 13.0536
C 20.655 6.98516 16.4479
H 1.22625 7.79186 16.1416
H 20.0654 7.19989 17.2186
H 21.0954 6.03523 16.834
Si 18.0407 3.60464 15.3682
C 18.1611 3.03017 13.6497
H 19.2219 3.04295 13.449
H 17.9006 1.9576 13.5616
H 17.7314 3.47001 12.7565
C 16.1788 3.75051 15.9088
H 9.03793 13.9527 15.2618
H 16.0794 4.12507 16.933
H 15.9146 4.72566 15.3236
