300
Lattice="20.211713 0.0 0.0 0.0 17.529033 0.0 0.0 0.0 8.443627" Properties=species:S:1:pos:R:3 info="Water box: 100 H2O, density=1.0000 g/cm^3"
O       12.33141086       5.94311768       6.61220629
H       12.71909663       6.55996689       7.23303529
H       11.50348960       6.34926827       6.35565234
O        3.67890535      10.80755327       1.92243536
H        3.74978474      11.29500580       2.74316551
H        3.63266608      11.48274489       1.24552322
O        3.46629041       3.32589320       4.15699086
H        4.22764767       3.28236424       4.73549946
H        2.72718394       3.48341946       4.74447613
O       12.25404002      10.54224630       6.11816151
H       11.58792161      10.81518569       6.74905151
H       12.25807882       9.58655708       6.17176799
O       18.30696719      13.34595970       2.39361991
H       17.66402432      12.73343051       2.75092134
H       18.56371973      13.88704405       3.14030438
O        3.09700296      16.15263692       2.19102519
H        2.74839661      16.56235426       1.39929470
H        2.43690586      15.50429896       2.43630372
O       12.26734144       8.20386056       6.33987032
H       12.07609007       8.19459130       7.27772363
H       13.19906114       7.99201695       6.28283932
O       12.51802040      13.21517507       4.48769541
H       12.37227189      12.66137295       3.72069318
H       13.40038056      12.98966953       4.78234714
O       15.62314452      13.19854239       4.39096559
H       14.89192885      13.78040683       4.59830409
H       15.41102458      12.37838984       4.83659634
O        6.12525898       8.13258812       6.06005778
H        7.08132132       8.08784158       6.07326357
H        5.85957462       7.84767884       6.93439774
O       15.42889747      13.13738328       2.31751309
H       15.54417185      12.29953113       1.86924148
H       15.93336556      13.76065217       1.79475150
O       18.31063027      16.17833433       6.54098283
H       19.22751148      16.09422935       6.27928257
H       18.20347769      17.10743411       6.74475662
O        6.29568307      13.66222177       2.02441076
H        6.54103199      14.26424214       1.32183891
H        6.32803698      14.19485219       2.81907415
O        6.25450471      13.30091681       6.68874481
H        5.31018113      13.28186714       6.53343249
H        6.51466021      12.37980557       6.69899287
O       12.27343197      13.24484505       6.26535742
H       11.58719183      12.65382633       6.57520120
H       12.12125276      13.31620124       5.32302965
O        9.20592122       8.33037325       6.19502924
H        9.73140232       8.79979773       6.84290431
H        9.35493834       7.40515773       6.38997020
O       12.34882269       8.35477837       1.88980267
H       13.23904241       8.31759600       2.23959998
H       11.84649796       8.81724068       2.56064566
O       15.53531842      11.01746574       4.41995301
H       16.39522249      11.32728118       4.13567986
H       14.92899771      11.35297986       3.75962180
O       15.50368510       8.22464732       6.51729697
H       16.17937622       8.18595995       7.19418443
H       14.69250434       8.00404306       6.97506477
O        9.41961006      13.31869241       6.60273733
H       10.14256081      13.92129490       6.42825443
H        8.70442425      13.63581239       6.05121578
O        9.43202071      10.69137036       6.20847365
H       10.11539275      10.88387867       5.56646504
H        9.78010238       9.95907202       6.71720751
O       12.55007048      10.54448349       2.39565680
H       13.39845907      10.44719053       2.82809492
H       11.91070690      10.29348652       3.06232506
O       12.74232925      15.79539535       4.21256110
H       12.19628105      16.56687731       4.36381846
H       13.54774839      16.14282998       3.82938879
O        9.40437207       8.55861031       1.92264342
H        8.88026530       7.81511219       2.22056033
H       10.17639937       8.16173561       1.51928731
O       15.84760661       3.38878288       6.40562407
H       15.45070774       2.52600907       6.52530903
H       16.07734660       3.42052161       5.47694542
O       15.85494701       8.29691622       4.24900244
H       15.20232116       8.37146769       3.55276008
H       16.50065253       7.67833940       3.90744872
O       12.51947941       8.47317493       4.00107586
H       13.46744450       8.54098702       3.88707783
H       12.18848196       8.25016696       3.13105288
O        3.47302343       8.35879583       6.19906431
H        3.29696663       8.21837699       7.12939672
H        4.18335302       9.00021439       6.18338158
O        6.50797643       5.73464818       2.02188936
H        6.33818901       4.83362779       1.74699604
H        5.66528873       6.04823719       2.35017463
O        9.29179293       3.20885691       4.05343240
H        9.19386005       3.57893852       4.93074682
H        8.51682688       3.50898810       3.57847902
O       12.39919417      13.58453189       1.79850054
H       12.14078748      12.87037491       2.38111331
H       12.56868360      14.32254281       2.38403027
O        6.17209695      15.82557936       1.92264172
H        7.10475911      16.01134211       2.03156980
H        5.93283867      15.33070715       2.70627991
O        3.32771448      10.61353243       4.43686622
H        3.88206036       9.83649559       4.50860339
H        2.44466696      10.29672743       4.62684914
O       12.61685932       2.75241056       6.57401911
H       11.75114331       3.15357846       6.49765199
H       13.14447253       3.40580489       7.03329245
O       12.28199357       2.82174757       3.96860207
H       11.79204386       3.28521711       3.28935462
H       11.78647274       2.01586226       4.11434094
O       18.72843482      10.64307677       4.30831136
H       18.05335202      11.16183893       3.87084036
H       19.30072181      11.29125200       4.71890642
O        9.70537359      15.74770436       4.17256850
H        9.71930765      15.06513546       3.50164573
H        9.66819704      16.56761999       3.68003615
O        3.50013710       8.09250825       2.22937800
H        3.18546331       7.18936306       2.19012225
H        2.71595746       8.62574268       2.09916594
O        9.20866026       5.90458265       6.62996554
H        8.36449214       6.34134779       6.74331557
H        9.21758047       5.22179260       7.30074867
O       12.29088750       5.41766298       4.09826226
H       13.23577359       5.32427158       3.97701806
H       12.10627492       4.95121489       4.91347770
O        9.73940942      13.23542395       4.06041973
H       10.01218448      14.14861075       3.97145074
H       10.24174307      12.90644446       4.80584930
O       18.52788673      16.08816179       3.99922049
H       19.28408417      16.55916035       4.34930280
H       18.49694680      15.27522046       4.50360223
O       15.75317789       8.49166577       1.76772787
H       16.39977186       7.99045520       1.27080128
H       15.01351443       7.89301158       1.87137622
O       18.78296269       3.30414026       4.42204869
H       18.17554271       3.44707625       5.14788759
H       19.28931831       4.11475322       4.36968032
O       18.82802403       8.47695951       4.04296007
H       18.85319293       7.78713520       4.70608961
H       19.27741342       8.09946384       3.28680000
O        9.67266689       2.89402368       1.76700494
H        9.32987130       3.40042613       1.03060860
H       10.40037650       3.41858619       2.10092818
O        6.74791773       5.51539958       6.46085459
H        6.92110032       6.30190475       6.97820288
H        6.31727148       4.91674878       7.07109461
O        9.76538529       5.40986377       2.37704641
H        9.62570649       4.95057321       3.20516105
H       10.09816715       6.27011366       2.63289440
O        9.23002649       5.61555852       4.36907933
H        9.69791194       6.44755363       4.44048776
H        8.31614618       5.83815706       4.54657444
O        6.37309603       3.11890146       1.91589014
H        7.10100169       3.22804853       1.30394887
H        5.62053126       2.91666875       1.36003042
O       15.57770522      10.97546011       6.52559264
H       15.86770354      10.07582700       6.67656643
H       14.74832447      10.88471605       6.05641792
O        3.51761499       5.54831043       6.24978323
H        3.44683382       5.24087532       7.15350083
H        4.19638774       4.99658730       5.86106613
O        6.32418197       8.18686721       2.01104826
H        6.77435532       9.00881209       1.81615753
H        5.65300634       8.11409152       1.33247710
O        3.69554027       8.36015246       4.48136629
H        2.88061161       8.60344749       4.04212759
H        3.70647203       7.40340262       4.45412522
O        6.12515204      15.87310717       4.17663596
H        5.32588301      16.27673966       4.51498736
H        5.94793267      14.93276722       4.20084170
O       15.51565812      15.82593188       2.05665999
H       15.79351311      16.07711635       2.93753161
H       16.00587678      15.02536942       1.86953101
O        9.21481501      10.84402430       4.30747555
H        8.73388687      11.64442591       4.09700647
H        9.23494595      10.82068894       5.26417929
O        3.52312944       2.89211970       6.17581960
H        4.19475770       2.23938588       5.97811811
H        3.84736033       3.69889857       5.77555216
O        9.70771519      15.73515847       2.01880679
H        9.50684414      15.88701005       1.09532221
H        9.27268135      14.90813429       2.22619145
O        3.40816321      15.84544514       4.32237138
H        4.28797516      15.97125613       3.96693591
H        3.54120581      15.75493540       5.26594941
O        9.22885681       3.02131798       6.16084251
H        9.97376011       3.56530602       6.41663133
H        9.61435847       2.17164112       5.94713820
O        6.28546454       5.88217813       4.19375905
H        7.18254395       5.58006750       4.33591931
H        5.73886955       5.13740708       4.44432208
O       15.61443410       3.35953971       4.47403368
H       14.71487996       3.58557914       4.71055086
H       15.71387944       2.44881739       4.75139142
O        9.69536371      10.86491450       2.32988389
H        9.62686224      10.24374432       3.05492664
H        9.71722623      10.31675393       1.54548994
O        3.24891707      13.51094370       2.24521823
H        2.85959414      13.57610012       3.11723551
H        2.51488536      13.29454394       1.67023960
O        9.21010331      13.28417103       1.92683954
H        8.53978819      13.56382194       2.55030153
H        9.38504599      14.06224593       1.39747545
O       15.37976311      16.13538604       6.50269783
H       16.16192783      15.67562338       6.19762655
H       15.65667164      17.04737088       6.59122555
O       18.53394170       8.05699042       6.31823250
H       18.96736561       7.45439598       5.71386879
H       19.05520141       8.00936520       7.11963877
O       15.78279300       3.24069022       1.99685981
H       16.11712199       3.26961943       1.10041178
H       16.56677621       3.25320916       2.54590027
O       15.78067686      16.30258561       4.16963376
H       15.16782005      15.68649654       3.76829521
H       16.37532175      15.75205040       4.67908472
O        6.26699738       2.88875675       4.18046852
H        6.65027366       2.62796072       3.34302207
H        6.97240812       3.35032555       4.63387979
O       15.49127342       5.44189051       4.20080085
H       15.32837246       6.34654168       4.46782404
H       16.44421267       5.35380661       4.22029041
O        9.41406788       8.28738719       3.91709563
H        8.50718493       8.32983608       3.61379175
H        9.82012265       7.61778903       3.36665065
O       18.29843384       2.99165002       6.18389369
H       18.67910438       3.44779938       6.93439322
H       17.45387791       3.42040427       6.04559357
O        6.60945754       3.28343061       6.21006206
H        6.95602361       2.63635006       5.59572455
H        6.54413949       4.08954449       5.69806031
O        3.73390831       2.97287103       2.17068506
H        3.90728335       2.20401378       1.62751707
H        3.77823316       2.64666751       3.06949450
O       18.87792667      13.22851905       3.91276420
H       19.11706408      12.93080285       3.03503406
H       19.08677602      14.16265537       3.91453232
O       18.62943326       5.47599006       2.20246559
H       18.05441100       5.28997396       1.46018582
H       19.29726030       4.79121006       2.16619955
O       12.67739677       5.40934256       2.27968357
H       13.28956900       6.03723579       1.89598176
H       12.77509783       4.62146567       1.74495340
O       18.46704591      10.94834358       6.66491852
H       17.75839604      10.64226010       7.23092215
H       18.33310668      11.89408901       6.60280811
O        9.60518209      16.09240227       6.11316910
H        9.10293208      15.28274765       6.20501774
H       10.22514486      16.07425118       6.84224285
O       18.34403567       5.96949443       6.55180871
H       18.39244409       6.80733669       7.01214426
H       17.63057194       6.08168406       5.92362495
O        6.45091272       8.14359069       4.44706691
H        7.20459682       8.27323276       3.87140637
H        6.01331580       7.36699565       4.09829632
O       12.60500871      16.22221874       6.50327099
H       11.76758172      15.77717468       6.63320813
H       12.49059323      17.07570740       6.92123996
O       18.44006332       3.26814306       2.09853500
H       17.96782484       3.40779785       1.27773101
H       17.75654598       3.24875788       2.76835595
O       15.40369091       5.88435403       6.58279977
H       15.21853555       5.80633796       7.51867520
H       16.23642087       6.35453425       6.54128812
O       12.49490218      10.90516124       4.14383865
H       12.37357437      11.20257825       5.04553401
H       13.43730941      10.75743340       4.06461148
O        6.26157259      11.02597966       6.26680935
H        6.34892844      10.77398933       7.18610346
H        6.95767434      10.54521289       5.81899521
O        6.13143147      11.12278241       1.80692226
H        6.06330507      10.55708613       1.03778095
H        5.98058824      10.53766683       2.54929543
O       18.71103519       8.33990978       2.06802342
H       19.09283968       7.46325798       2.02399159
H       18.51066402       8.56037030       1.15836393
O       18.71179413      15.88553842       2.12648918
H       18.26905250      16.64581075       2.50358024
H       18.00148149      15.32083350       1.82186457
O        3.57025797       5.54869142       4.35252558
H        2.92482214       6.23714064       4.51278189
H        4.08246551       5.86814502       3.60967655
O       12.31955552       2.82440625       2.09704721
H       12.54826590       1.91805371       2.30307748
H       12.16049430       2.82315589       1.15315643
O       15.54274635       5.80243738       2.38104559
H       14.92376392       5.08754255       2.52943012
H       15.11869528       6.35457057       1.72411220
O        3.21468714      10.65846792       6.16313313
H        3.75624605      10.59110443       6.94952231
H        3.83754272      10.82961770       5.45674053
O       12.82326068      16.04479455       2.20114621
H       13.61727903      15.77425498       2.66220482
H       12.58481116      16.87990829       2.60358714
O       18.82838033      10.88179182       2.05421834
H       18.00201315      10.43498764       1.87060153
H       18.80880828      11.66064804       1.49813222
O       15.83713311      13.40788933       6.57724834
H       16.27212241      13.73559525       5.79008573
H       14.90398586      13.43874406       6.36626012
O        3.12414870      13.19619582       4.26230492
H        2.73675243      12.61952835       4.92079607
H        3.45108061      13.94474513       4.76132526
O       18.75861113      13.49074694       6.55703158
H       19.55834485      13.94922174       6.81482739
H       18.13700159      14.18921016       6.35213516
