523
 Atoms. Timestep: 0
Si 4.125 17.0666 3.07771
O 4.125 15.4366 3.07771
C 5.88805 17.69 3.07771
H 5.88805 17.69 4.16771
H 6.20271 16.8 2.53271
H 5.5734 18.58 2.53271
C 2.36195 17.69 3.07771
H 2.36195 17.69 1.98771
H 2.04729 16.8 3.62271
H 2.6766 18.58 3.62271
Si 4.125 13.8066 3.07771
O 4.125 12.1766 3.07771
C 5.37167 14.43 4.32437
H 4.60092 14.43 5.09512
H 5.97954 13.54 4.1615
H 5.53454 15.32 3.71651
C 2.87833 14.43 1.83104
H 3.64908 14.43 1.0603
H 2.27047 13.54 1.99392
H 2.71545 15.32 2.43891
Si 4.125 10.5466 3.07771
O 4.125 8.91665 3.07771
C 4.125 11.17 4.84076
H 3.035 11.17 4.84076
H 4.67 10.28 5.15542
H 4.67 12.06 4.52611
C 4.125 11.17 1.31466
H 5.215 11.17 1.31466
H 3.58 10.28 1
H 3.58 12.06 1.62931
Si 4.125 7.28665 3.07771
O 4.125 5.65665 3.07771
C 2.87833 7.90998 4.32437
H 2.10759 7.90998 3.55363
H 3.04121 7.02 4.93224
H 3.4862 8.79996 4.48725
C 5.37167 7.90998 1.83104
H 6.14241 7.90998 2.60179
H 5.20879 7.02 1.22317
H 4.7638 8.79996 1.66816
Si 4.125 4.02665 3.07771
O 4.125 2.39665 3.07771
C 2.36195 4.64998 3.07771
H 2.36195 4.64998 1.98771
H 2.04729 3.76 3.62271
H 2.6766 5.53996 3.62271
C 5.88805 4.64998 3.07771
H 5.88805 4.64998 4.16771
H 6.20271 3.76 2.53271
H 5.5734 5.53996 2.53271
Si 4.125 0.766648 3.07771
C 2.87833 1.38998 1.83104
H 3.64908 1.38998 1.0603
H 2.27047 0.5 1.99392
H 2.71545 2.27996 2.43891
C 5.37167 1.38998 4.32437
H 4.60092 1.38998 5.09512
H 5.97954 0.5 4.1615
H 5.53454 2.27996 3.71651
Si 9.625 17.0666 3.07771
O 9.625 15.4366 3.07771
C 11.3881 17.69 3.07771
H 11.3881 17.69 4.16771
H 11.7027 16.8 2.53271
H 11.0734 18.58 2.53271
C 7.86195 17.69 3.07771
H 7.86195 17.69 1.98771
H 7.54729 16.8 3.62271
H 8.1766 18.58 3.62271
Si 9.625 13.8066 3.07771
O 9.625 12.1766 3.07771
C 10.8717 14.43 4.32437
H 10.1009 14.43 5.09512
H 11.4795 13.54 4.1615
H 11.0345 15.32 3.71651
C 8.37833 14.43 1.83104
H 9.14908 14.43 1.0603
H 7.77046 13.54 1.99392
H 8.21546 15.32 2.43891
Si 9.625 10.5466 3.07771
O 9.625 8.91665 3.07771
C 9.625 11.17 4.84076
H 8.535 11.17 4.84076
H 10.17 10.28 5.15542
H 10.17 12.06 4.52611
C 9.625 11.17 1.31466
H 10.715 11.17 1.31466
H 9.08 10.28 1
H 9.08 12.06 1.62931
Si 9.625 7.28665 3.07771
O 9.625 5.65665 3.07771
C 8.37833 7.90998 4.32437
H 7.60759 7.90998 3.55363
H 8.54121 7.02 4.93224
H 8.9862 8.79996 4.48725
C 11.7823 7.90998 2.58619
H 11.6194 7.02 1.97832
H 11.1744 8.79996 2.42331
Si 9.625 4.02665 3.07771
O 9.625 2.39665 3.07771
C 7.86195 4.64998 3.07771
H 7.86195 4.64998 1.98771
H 7.54729 3.76 3.62271
H 8.1766 5.53996 3.62271
C 11.3881 4.64998 3.07771
H 11.3881 4.64998 4.16771
H 11.7027 3.76 2.53271
H 11.0734 5.53996 2.53271
Si 9.625 0.766648 3.07771
C 8.37833 1.38998 1.83104
H 9.14908 1.38998 1.0603
H 7.77046 0.5 1.99392
H 8.21546 2.27996 2.43891
C 10.8717 1.38998 4.32437
H 10.1009 1.38998 5.09512
H 11.4795 0.5 4.1615
H 11.0345 2.27996 3.71651
Si 15.125 17.0666 3.07771
O 15.125 15.4366 3.07771
C 16.8881 17.69 3.07771
H 16.8881 17.69 4.16771
H 17.2027 16.8 2.53271
H 16.5734 18.58 2.53271
C 13.3619 17.69 3.07771
H 13.3619 17.69 1.98771
H 13.0473 16.8 3.62271
H 13.6766 18.58 3.62271
Si 15.125 13.8066 3.07771
O 15.125 12.1766 3.07771
C 16.3717 14.43 4.32437
H 15.6009 14.43 5.09512
H 16.9795 13.54 4.1615
H 16.5345 15.32 3.71651
C 13.8783 14.43 1.83104
H 14.6491 14.43 1.0603
H 13.2705 13.54 1.99392
H 13.7155 15.32 2.43891
Si 15.125 10.5466 3.07771
O 15.125 8.91665 3.07771
C 15.125 11.17 4.84076
H 14.035 11.17 4.84076
H 15.67 10.28 5.15542
H 15.67 12.06 4.52611
C 15.125 11.17 1.31466
H 16.215 11.17 1.31466
H 14.58 10.28 1
H 14.58 12.06 1.62931
Si 15.125 7.28665 3.07771
O 15.125 5.65665 3.07771
C 12.9677 7.90998 3.56923
H 13.1306 7.02 4.1771
H 13.5756 8.79996 3.7321
C 16.3717 7.90998 1.83104
H 17.1424 7.90998 2.60179
H 16.2088 7.02 1.22317
H 15.7638 8.79996 1.66816
Si 15.125 4.02665 3.07771
O 15.125 2.39665 3.07771
C 13.3619 4.64998 3.07771
H 13.3619 4.64998 1.98771
H 13.0473 3.76 3.62271
H 13.6766 5.53996 3.62271
C 16.8881 4.64998 3.07771
H 16.8881 4.64998 4.16771
H 17.2027 3.76 2.53271
H 16.5734 5.53996 2.53271
Si 15.125 0.766648 3.07771
C 13.8783 1.38998 1.83104
H 14.6491 1.38998 1.0603
H 13.2705 0.5 1.99392
H 13.7155 2.27996 2.43891
C 16.3717 1.38998 4.32437
H 15.6009 1.38998 5.09512
H 16.9795 0.5 4.1615
H 16.5345 2.27996 3.71651
Si 6.875 17.0666 7.84085
O 6.875 15.4366 7.84085
C 8.63805 17.69 7.84085
H 8.63805 17.69 8.93085
H 8.95271 16.8 7.29585
H 8.3234 18.58 7.29585
C 5.11195 17.69 7.84085
H 5.11195 17.69 6.75085
H 4.79729 16.8 8.38585
H 5.4266 18.58 8.38585
Si 6.875 13.8066 7.84085
O 6.875 12.1766 7.84085
C 8.12167 14.43 9.08751
H 7.35092 14.43 9.85826
H 8.72954 13.54 8.92464
H 8.28454 15.32 8.47965
C 5.62833 14.43 6.59418
H 6.39908 14.43 5.82343
H 5.02046 13.54 6.75706
H 5.46546 15.32 7.20205
Si 6.875 10.5466 7.84085
O 6.875 8.91665 7.84085
C 6.875 11.17 9.6039
H 5.785 11.17 9.6039
H 7.42 10.28 9.91856
H 7.42 12.06 9.28925
C 6.875 11.17 6.0778
H 7.965 11.17 6.0778
H 6.33 10.28 5.76314
H 6.33 12.06 6.39245
Si 6.875 7.28665 7.84085
O 6.875 5.65665 7.84085
C 5.62833 7.90998 9.08751
H 4.85759 7.90998 8.31677
H 5.79121 7.02 9.69538
H 6.2362 8.79996 9.25039
C 8.12167 7.90998 6.59418
H 8.89241 7.90998 7.36493
H 7.95879 7.02 5.98631
H 7.5138 8.79996 6.4313
Si 6.875 4.02665 7.84085
O 6.875 2.39665 7.84085
C 5.11195 4.64998 7.84085
H 5.11195 4.64998 6.75085
H 4.79729 3.76 8.38585
H 5.4266 5.53996 8.38585
C 8.63805 4.64998 7.84085
H 8.63805 4.64998 8.93085
H 8.95271 3.76 7.29585
H 8.3234 5.53996 7.29585
Si 6.875 0.766648 7.84085
C 5.62833 1.38998 6.59418
H 6.39908 1.38998 5.82343
H 5.02046 0.5 6.75706
H 5.46546 2.27996 7.20205
C 9.03229 1.38998 8.33237
H 9.64016 0.5 8.16949
H 9.19516 2.27996 7.7245
Si 12.375 17.0666 7.84085
O 12.375 15.4366 7.84085
C 14.1381 17.69 7.84085
H 14.1381 17.69 8.93085
H 14.4527 16.8 7.29585
H 13.8234 18.58 7.29585
C 10.6119 17.69 7.84085
H 10.6119 17.69 6.75085
H 10.2973 16.8 8.38585
H 10.9266 18.58 8.38585
Si 12.375 13.8066 7.84085
O 12.375 12.1766 7.84085
C 13.6217 14.43 9.08751
H 12.8509 14.43 9.85826
H 14.2295 13.54 8.92464
H 13.7845 15.32 8.47965
C 11.1283 14.43 6.59418
H 11.8991 14.43 5.82343
H 10.5205 13.54 6.75706
H 10.9655 15.32 7.20205
Si 12.375 10.5466 7.84085
O 12.375 8.91665 7.84085
C 12.375 11.17 9.6039
H 11.285 11.17 9.6039
H 12.92 10.28 9.91856
H 12.92 12.06 9.28925
C 12.375 11.17 6.0778
H 13.465 11.17 6.0778
H 11.83 10.28 5.76314
H 11.83 12.06 6.39245
Si 12.375 7.28665 7.84085
O 12.375 5.65665 7.84085
C 11.1283 7.90998 9.08751
H 10.3576 7.90998 8.31677
H 11.2912 7.02 9.69538
H 11.7362 8.79996 9.25039
C 13.6217 7.90998 6.59418
H 14.3924 7.90998 7.36493
H 13.4588 7.02 5.98631
H 13.0138 8.79996 6.4313
Si 12.375 4.02665 7.84085
O 12.375 2.39665 7.84085
C 10.6119 4.64998 7.84085
H 10.6119 4.64998 6.75085
H 10.2973 3.76 8.38585
H 10.9266 5.53996 8.38585
C 14.1381 4.64998 7.84085
H 14.1381 4.64998 8.93085
H 14.4527 3.76 7.29585
H 13.8234 5.53996 7.29585
Si 12.375 0.766648 7.84085
C 10.2177 1.38998 7.34933
H 9.60984 0.5 7.51221
H 10.0548 2.27996 7.9572
C 13.6217 1.38998 9.08751
H 12.8509 1.38998 9.85826
H 14.2295 0.5 8.92464
H 13.7845 2.27996 8.47965
Si 17.875 17.0666 7.84085
O 17.875 15.4366 7.84085
C 19.6381 17.69 7.84085
H 19.6381 17.69 8.93085
H 19.9527 16.8 7.29585
H 19.3234 18.58 7.29585
C 16.1119 17.69 7.84085
H 16.1119 17.69 6.75085
H 15.7973 16.8 8.38585
H 16.4266 18.58 8.38585
Si 17.875 13.8066 7.84085
O 17.875 12.1766 7.84085
C 19.1217 14.43 9.08751
H 18.3509 14.43 9.85826
H 19.7295 13.54 8.92464
H 19.2845 15.32 8.47965
C 16.6283 14.43 6.59418
H 17.3991 14.43 5.82343
H 16.0205 13.54 6.75706
H 16.4655 15.32 7.20205
Si 17.875 10.5466 7.84085
O 17.875 8.91665 7.84085
C 17.875 11.17 9.6039
H 16.785 11.17 9.6039
H 18.42 10.28 9.91856
H 18.42 12.06 9.28925
C 17.875 11.17 6.0778
H 18.965 11.17 6.0778
H 17.33 10.28 5.76314
H 17.33 12.06 6.39245
Si 17.875 7.28665 7.84085
O 17.875 5.65665 7.84085
C 16.6283 7.90998 9.08751
H 15.8576 7.90998 8.31677
H 16.7912 7.02 9.69538
H 17.2362 8.79996 9.25039
C 19.1217 7.90998 6.59418
H 19.8924 7.90998 7.36493
H 18.9588 7.02 5.98631
H 18.5138 8.79996 6.4313
Si 17.875 4.02665 7.84085
O 17.875 2.39665 7.84085
C 16.1119 4.64998 7.84085
H 16.1119 4.64998 6.75085
H 15.7973 3.76 8.38585
H 16.4266 5.53996 8.38585
C 19.6381 4.64998 7.84085
H 19.6381 4.64998 8.93085
H 19.9527 3.76 7.29585
H 19.3234 5.53996 7.29585
Si 17.875 0.766648 7.84085
C 16.6283 1.38998 6.59418
H 17.3991 1.38998 5.82343
H 16.0205 0.5 6.75706
H 16.4655 2.27996 7.20205
C 19.1217 1.38998 9.08751
H 18.3509 1.38998 9.85826
H 19.7295 0.5 8.92464
H 19.2845 2.27996 8.47965
Si 4.125 17.0666 12.604
O 4.125 15.4366 12.604
C 5.88805 17.69 12.604
H 5.88805 17.69 13.694
H 6.20271 16.8 12.059
H 5.5734 18.58 12.059
C 2.36195 17.69 12.604
H 2.36195 17.69 11.514
H 2.04729 16.8 13.149
H 2.6766 18.58 13.149
Si 4.125 13.8066 12.604
O 4.125 12.1766 12.604
C 5.37167 14.43 13.8507
H 4.60092 14.43 14.6214
H 5.97954 13.54 13.6878
H 5.53454 15.32 13.2428
C 2.87833 14.43 11.3573
H 3.64908 14.43 10.5866
H 2.27047 13.54 11.5202
H 2.71545 15.32 11.9652
Si 4.125 10.5466 12.604
O 4.125 8.91665 12.604
C 4.125 11.17 14.367
H 3.035 11.17 14.367
H 4.67 10.28 14.6817
H 4.67 12.06 14.0524
C 4.125 11.17 10.8409
H 5.215 11.17 10.8409
H 3.58 10.28 10.5263
H 3.58 12.06 11.1556
Si 4.125 7.28665 12.604
O 4.125 5.65665 12.604
C 2.87833 7.90998 13.8507
H 2.10759 7.90998 13.0799
H 3.04121 7.02 14.4585
H 3.4862 8.79996 14.0135
C 5.37167 7.90998 11.3573
H 6.14241 7.90998 12.1281
H 5.20879 7.02 10.7495
H 4.7638 8.79996 11.1944
Si 4.125 4.02665 12.604
O 4.125 2.39665 12.604
C 2.36195 4.64998 12.604
H 2.36195 4.64998 11.514
H 2.04729 3.76 13.149
H 2.6766 5.53996 13.149
C 5.88805 4.64998 12.604
H 5.88805 4.64998 13.694
H 6.20271 3.76 12.059
H 5.5734 5.53996 12.059
Si 4.125 0.766648 12.604
C 2.87833 1.38998 11.3573
H 3.64908 1.38998 10.5866
H 2.27047 0.5 11.5202
H 2.71545 2.27996 11.9652
C 6.28229 1.38998 13.0955
H 6.89016 0.5 12.9326
H 6.44516 2.27996 12.4876
Si 9.625 17.0666 12.604
O 9.625 15.4366 12.604
C 11.3881 17.69 12.604
H 11.3881 17.69 13.694
H 11.7027 16.8 12.059
H 11.0734 18.58 12.059
C 7.86195 17.69 12.604
H 7.86195 17.69 11.514
H 7.54729 16.8 13.149
H 8.1766 18.58 13.149
Si 9.625 13.8066 12.604
O 9.625 12.1766 12.604
C 10.8717 14.43 13.8507
H 10.1009 14.43 14.6214
H 11.4795 13.54 13.6878
H 11.0345 15.32 13.2428
C 8.37833 14.43 11.3573
H 9.14908 14.43 10.5866
H 7.77046 13.54 11.5202
H 8.21546 15.32 11.9652
Si 9.625 10.5466 12.604
O 9.625 8.91665 12.604
C 9.625 11.17 14.367
H 8.535 11.17 14.367
H 10.17 10.28 14.6817
H 10.17 12.06 14.0524
C 9.625 11.17 10.8409
H 10.715 11.17 10.8409
H 9.08 10.28 10.5263
H 9.08 12.06 11.1556
Si 9.625 7.28665 12.604
O 9.625 5.65665 12.604
C 8.37833 7.90998 13.8507
H 7.60759 7.90998 13.0799
H 8.54121 7.02 14.4585
H 8.9862 8.79996 14.0135
C 11.7823 7.90998 12.1125
H 11.6194 7.02 11.5046
H 11.1744 8.79996 11.9496
Si 9.625 4.02665 12.604
O 9.625 2.39665 12.604
C 7.86195 4.64998 12.604
H 7.86195 4.64998 11.514
H 7.54729 3.76 13.149
H 8.1766 5.53996 13.149
C 11.3881 4.64998 12.604
H 11.3881 4.64998 13.694
H 11.7027 3.76 12.059
H 11.0734 5.53996 12.059
Si 9.625 0.766648 12.604
C 7.46771 1.38998 12.1125
H 6.85984 0.5 12.2753
H 7.30484 2.27996 12.7203
C 10.8717 1.38998 13.8507
H 10.1009 1.38998 14.6214
H 11.4795 0.5 13.6878
H 11.0345 2.27996 13.2428
Si 15.125 17.0666 12.604
O 15.125 15.4366 12.604
C 16.8881 17.69 12.604
H 16.8881 17.69 13.694
H 17.2027 16.8 12.059
H 16.5734 18.58 12.059
C 13.3619 17.69 12.604
H 13.3619 17.69 11.514
H 13.0473 16.8 13.149
H 13.6766 18.58 13.149
Si 15.125 13.8066 12.604
O 15.125 12.1766 12.604
C 16.3717 14.43 13.8507
H 15.6009 14.43 14.6214
H 16.9795 13.54 13.6878
H 16.5345 15.32 13.2428
C 13.8783 14.43 11.3573
H 14.6491 14.43 10.5866
H 13.2705 13.54 11.5202
H 13.7155 15.32 11.9652
Si 15.125 10.5466 12.604
O 15.125 8.91665 12.604
C 15.125 11.17 14.367
H 14.035 11.17 14.367
H 15.67 10.28 14.6817
H 15.67 12.06 14.0524
C 15.125 11.17 10.8409
H 16.215 11.17 10.8409
H 14.58 10.28 10.5263
H 14.58 12.06 11.1556
Si 15.125 7.28665 12.604
O 15.125 5.65665 12.604
C 12.9677 7.90998 13.0955
H 13.1306 7.02 13.7034
H 13.5756 8.79996 13.2584
C 16.3717 7.90998 11.3573
H 17.1424 7.90998 12.1281
H 16.2088 7.02 10.7495
H 15.7638 8.79996 11.1944
Si 15.125 4.02665 12.604
O 15.125 2.39665 12.604
C 13.3619 4.64998 12.604
H 13.3619 4.64998 11.514
H 13.0473 3.76 13.149
H 13.6766 5.53996 13.149
C 16.8881 4.64998 12.604
H 16.8881 4.64998 13.694
H 17.2027 3.76 12.059
H 16.5734 5.53996 12.059
Si 15.125 0.766648 12.604
C 13.8783 1.38998 11.3573
H 14.6491 1.38998 10.5866
H 13.2705 0.5 11.5202
H 13.7155 2.27996 11.9652
C 16.3717 1.38998 13.8507
H 15.6009 1.38998 14.6214
H 16.9795 0.5 13.6878
H 16.5345 2.27996 13.2428
523
 Atoms. Timestep: 72
Si 3.05207 16.5062 3.89023
O 2.73389 14.9072 3.69343
C 4.48848 17.1331 2.79753
H 5.36348 17.4381 3.38846
H 4.81363 16.3926 2.04711
H 4.15156 18.0293 2.24352
C 1.50097 17.4985 3.52107
H 1.30513 17.4792 2.43207
H 0.641344 17.1019 4.04893
H 1.63195 18.5569 3.81606
Si 3.34218 13.7797 2.59377
O 2.67684 12.271 2.85077
C 5.19377 13.7746 2.9316
H 5.36288 13.5508 3.9902
H 5.76965 13.0493 2.34605
H 5.63727 14.7619 2.75431
C 2.85349 14.3358 0.869532
H 3.71318 14.5209 0.214108
H 2.22046 13.567 0.40506
H 2.27025 15.2643 0.941059
Si 3.60103 10.8741 2.73604
O 2.7764 9.433 2.50126
C 4.38075 10.7806 4.44265
H 3.5557 10.6434 5.15571
H 5.1008 9.96708 4.58222
H 4.88348 11.715 4.70725
C 4.66689 11.0903 1.19038
H 5.74664 11.0417 1.38129
H 4.40119 10.3093 0.469188
H 4.44649 12.0544 0.715733
Si 3.49288 7.96062 2.84411
O 2.85274 6.61325 2.07791
C 3.17557 7.68478 4.67812
H 2.08688 7.63888 4.82693
H 3.61171 6.75467 5.05763
H 3.55245 8.50152 5.30139
C 5.2855 8.00526 2.23327
H 6.03146 8.23299 3.00923
H 5.54473 7.03309 1.79229
H 5.40269 8.75072 1.43986
Si 3.10787 5.08871 2.70166
O 3.29803 3.90272 1.51302
C 1.58391 4.59451 3.67413
H 0.753469 4.51382 2.95534
H 1.70565 3.61916 4.16675
H 1.30534 5.32777 4.44402
C 4.7404 5.02929 3.62547
H 4.63509 4.72691 4.67272
H 5.3929 4.29844 3.14306
H 5.27563 5.98352 3.61417
Si 3.91203 2.37515 1.64375
C 2.59528 1.17392 0.923122
H 2.5386 1.21473 19.9144
H 2.86766 0.115135 1.26362
H 1.60613 1.43294 1.42661
C 4.50486 1.80804 3.32778
H 3.70169 1.9437 4.06915
H 4.721 0.727225 3.29324
H 5.38758 2.3518 3.67615
Si 9.37238 16.3884 3.57862
O 8.54546 15.0153 3.08588
C 10.7429 17.135 2.45956
H 11.4524 17.7024 3.07758
H 11.3116 16.3929 1.87706
H 10.2961 17.8546 1.75719
C 8.03729 17.7082 3.78697
H 7.56823 17.8179 2.79427
H 7.25332 17.3975 4.50486
H 8.43136 18.6894 4.0836
Si 9.05946 13.6953 2.16463
O 8.49934 12.1194 2.482
C 10.8666 13.7316 2.68574
H 10.8508 13.7191 3.78529
H 11.4772 12.8886 2.35625
H 11.377 14.6448 2.38755
C 8.31933 14.0285 0.447529
H 8.82819 14.5677 19.6554
H 7.84689 13.0818 0.168632
H 7.5101 14.7101 0.658941
Si 9.60206 10.8415 2.28566
O 9.1943 9.23698 2.01786
C 10.3242 10.774 4.00255
H 9.48852 10.4626 4.64927
H 11.1224 10.0416 4.14913
H 10.6636 11.7438 4.37253
C 10.5738 11.2342 0.721146
H 11.653 11.3388 0.8638
H 10.4134 10.4164 0.0101749
H 10.1998 12.156 0.253183
Si 10.1324 7.89909 2.467
O 9.67951 6.50211 1.64194
C 9.50714 7.59486 4.21258
H 8.41555 7.48834 4.09627
H 9.89964 6.69541 4.6921
H 9.67881 8.43281 4.89319
C 12.0199 8.0709 1.9807
H 12.1566 7.1779 1.35089
H 12.0044 8.91359 1.2708
Si 9.71379 4.98555 2.32609
O 9.9586 3.74646 1.2142
C 8.07147 4.57136 3.12455
H 7.33757 4.32159 2.35018
H 8.17552 3.71132 3.79987
H 7.65881 5.39173 3.72238
C 11.145 4.88948 3.50254
H 10.8548 4.60692 4.51907
H 11.8517 4.14125 3.14638
H 11.6897 5.83631 3.5766
Si 9.91474 2.12626 1.56262
C 8.25535 1.42812 1.08309
H 8.14999 1.32011 0.00334096
H 8.11469 0.447621 1.56223
H 7.45087 2.09552 1.4201
C 10.3715 1.73174 3.35208
H 9.6201 2.11562 4.0598
H 10.346 0.638403 3.49163
H 11.3558 2.1042 3.6727
Si 16.3073 16.1822 2.60809
O 16.4613 15.1998 1.26237
C 17.7756 17.306 2.69291
H 18.0119 17.6534 3.71676
H 18.6587 16.8109 2.25908
H 17.5553 18.203 2.0824
C 14.6575 17.0301 2.92046
H 14.1691 17.3946 1.99891
H 13.9543 16.3671 3.43961
H 14.8018 17.9036 3.57686
Si 15.8316 13.87 2.03852
O 16.5162 12.3797 1.81893
C 16.3299 14.6353 3.90381
H 15.4465 14.5916 4.54959
H 16.9226 13.7068 4.00207
H 17.064 15.2778 4.4485
C 14.0001 13.941 1.79157
H 13.8059 13.8883 0.716319
H 13.454 13.1376 2.28571
H 13.5976 14.8857 2.15941
Si 15.5214 11.0489 2.24931
O 16.0338 9.46978 2.50021
C 15.0682 11.5588 3.96945
H 14.1931 12.1986 4.07083
H 14.8852 10.6283 4.50944
H 15.9187 12.0181 4.48342
C 14.36 10.8347 0.798665
H 15.0145 10.625 19.9414
H 13.7071 9.96449 0.936842
H 13.747 11.7039 0.556092
Si 15.1465 8.04307 2.36572
O 15.8686 6.86773 3.32044
C 13.2684 8.1987 2.92197
H 13.1889 7.42904 3.70636
H 13.2018 9.16056 3.45999
C 15.6492 7.40196 0.690542
H 16.7386 7.2908 0.827691
H 15.2277 6.42782 0.418773
H 15.4854 8.11639 19.8809
Si 16.0906 5.20724 2.96415
O 16.1757 3.82864 1.64546
C 14.4003 4.53693 3.388
H 13.9237 4.39585 2.39709
H 14.3883 3.58135 3.92084
H 13.7629 5.23682 3.93734
C 17.9145 4.97823 3.31056
H 18.2574 5.11404 4.3397
H 18.1565 3.96773 2.94901
H 18.4695 5.7056 2.69423
Si 15.6179 2.33216 2.07949
C 14.0309 1.56815 1.482
H 14.0356 1.29474 0.43323
H 13.8947 0.644108 2.07751
H 13.1645 2.20674 1.65268
C 16.1052 1.63494 3.75453
H 15.3463 1.89706 4.51569
H 16.1424 0.524759 3.67844
H 17.0844 1.99707 4.1114
Si 5.66511 16.7667 8.99661
O 5.36955 15.0897 9.19618
C 7.2158 17.161 7.92671
H 8.12737 17.2091 8.52709
H 7.37903 16.4255 7.13066
H 7.0895 18.1467 7.47414
C 4.09838 17.4991 8.21869
H 4.21786 17.6196 7.13123
H 3.25918 16.8217 8.40243
H 3.85514 18.4775 8.63818
Si 5.97391 13.8849 8.19079
O 5.45604 12.3216 8.55702
C 7.77844 13.9144 8.62827
H 7.84396 13.7909 9.71204
H 8.37126 13.1187 8.17747
H 8.22896 14.8783 8.38375
C 5.44758 14.4108 6.45291
H 6.28613 14.6929 5.79558
H 4.86753 13.6263 5.94651
H 4.78593 15.2892 6.51211
Si 6.52902 11.0076 8.43639
O 5.90934 9.45298 8.63678
C 7.57723 10.9531 9.97086
H 6.91551 10.5482 10.747
H 8.39022 10.2267 9.86088
H 7.9829 11.8963 10.3363
C 7.29743 11.2795 6.7156
H 8.38227 11.4426 6.74066
H 7.11702 10.4519 6.02452
H 6.84806 12.1614 6.23459
Si 5.78845 7.84324 8.19139
O 6.34596 6.39292 8.98299
C 3.94068 7.69437 8.57468
H 3.20984 7.81892 7.77198
H 3.76392 6.74717 9.09237
H 3.76539 8.49066 9.3125
C 7.10539 7.85703 6.85524
H 8.0015 8.03219 7.48877
H 7.31238 6.93445 6.31947
H 7.06931 8.6722 6.13431
Si 6.19446 4.93281 8.17325
O 6.48868 3.61925 9.23604
C 4.44799 4.64327 7.53644
H 4.41996 4.59358 6.43982
H 4.08254 3.68479 7.91304
H 3.72581 5.41191 7.82155
C 7.44388 4.5321 6.82142
H 8.45832 4.45077 7.24045
H 7.1691 3.57256 6.3678
H 7.49989 5.22264 5.97214
Si 6.8491 2.09408 8.69389
C 5.91133 1.49747 7.18273
H 6.63607 1.35413 6.3668
H 5.45319 0.517047 7.33484
H 5.13984 2.18939 6.83665
C 8.5048 1.56586 8.91601
H 8.75857 0.520571 8.85727
H 9.21667 2.213 9.45096
Si 12.6398 16.5136 6.74866
O 12.9071 14.848 6.64041
C 14.1752 17.5031 6.96463
H 14.329 17.5836 8.05945
H 15.0597 17.0153 6.5547
H 14.0931 18.5341 6.56938
C 11.3567 17.1782 7.99211
H 10.3895 17.4688 7.56506
H 11.1984 16.4739 8.81435
H 11.8051 18.1093 8.38471
Si 11.8479 13.8991 7.6555
O 11.5363 12.2743 7.59961
C 12.8043 14.1712 9.27556
H 12.2751 14.4627 10.1909
H 13.3287 13.2273 9.48731
H 13.6152 14.8943 9.09081
C 10.2524 14.5405 6.90406
H 10.4945 14.7623 5.85209
H 9.52845 13.7225 6.87764
H 9.79733 15.4164 7.35539
Si 12.1344 10.6993 7.37109
O 11.2135 9.33036 7.16128
C 13.2476 10.4147 8.84902
H 12.6129 10.2245 9.72038
H 13.952 9.57852 8.75086
H 13.8454 11.3072 9.08474
C 13.0198 11.0441 5.80731
H 14.0334 11.3983 6.04689
H 13.0749 10.168 5.14713
H 12.5268 11.8546 5.25228
Si 11.965 7.80054 7.47185
O 11.4602 6.34573 6.78654
C 11.573 7.52324 9.28277
H 10.5185 7.20128 9.34153
H 12.1832 6.73738 9.75871
H 11.6662 8.4274 9.89613
C 13.7326 7.93324 6.85111
H 14.4751 7.9326 7.65589
H 13.9671 7.09197 6.18961
H 13.9115 8.84239 6.27137
Si 12.0485 4.90607 7.50014
O 12.0856 3.66424 6.37139
C 10.8895 4.32209 8.84681
H 10.0515 3.75685 8.43023
H 11.4111 3.6382 9.53137
H 10.4753 5.11714 9.47873
C 13.7903 5.00613 8.18418
H 13.7831 4.86761 9.2693
H 14.382 4.19167 7.76244
H 14.3363 5.92515 7.97998
Si 11.9731 2.0657 6.89401
C 10.2993 1.50574 6.86315
H 10.1079 0.430576 6.90959
H 9.54803 2.06697 6.34018
C 13.0345 1.66905 8.41311
H 12.3556 1.63223 9.27956
H 13.5335 0.695406 8.32638
H 13.802 2.42871 8.60119
Si 19.1006 16.6233 7.0219
O 19.519 15.0303 7.12136
C 20.6156 17.6568 7.43362
H 20.8334 17.584 8.51325
H 21.4964 17.3055 6.8786
H 20.4215 18.7281 7.27135
C 17.6479 17.1222 8.13599
H 16.793 17.4997 7.56125
H 17.2818 16.3016 8.75894
H 17.9581 17.9547 8.79029
Si 18.896 13.8186 8.11673
O 19.6396 12.3549 7.8257
C 19.2327 14.3368 9.89388
H 18.3183 14.4342 10.4991
H 19.89 13.5963 10.3707
H 19.7693 15.2991 9.90699
C 17.0706 13.785 7.63224
H 16.9907 13.6899 6.5403
H 16.4991 12.9727 8.09513
H 16.5759 14.7253 7.90173
Si 18.7935 10.9083 7.97453
O 19.6039 9.45086 8.14013
C 17.8638 11.1039 9.60523
H 16.8228 11.4359 9.51532
H 17.8736 10.161 10.1648
H 18.3902 11.8407 10.2259
C 17.9369 10.8276 6.29291
H 18.736 10.7097 5.54651
H 17.2229 10.0078 6.16079
H 17.4139 11.7589 6.05718
Si 18.822 8.00476 7.75909
O 19.2803 6.63515 8.60254
C 17.0103 8.18792 8.17986
H 16.4176 8.47535 7.30791
H 16.612 7.24648 8.57344
H 16.8514 8.93862 8.95513
C 19.1841 7.65213 5.95129
H 20.268 7.56095 5.79834
H 18.699 6.72908 5.61198
H 18.8196 8.4593 5.30835
Si 19.0241 5.06795 8.06536
O 18.8117 3.99066 9.32835
C 17.3949 4.98099 7.099
H 17.4891 4.47179 6.12849
H 16.6654 4.42164 7.69689
H 16.9556 5.96845 6.91915
C 20.5394 4.54847 7.11317
H 21.354 4.47225 7.8489
H 20.4425 3.55172 6.65393
H 20.8303 5.27296 6.34109
Si 18.0253 2.49087 9.40225
C 17.4901 1.80743 7.66663
H 18.2667 1.90462 6.90187
H 17.2547 0.742228 7.70288
H 16.5775 2.28446 7.28766
C 19.3288 1.25122 10.0347
H 19.4495 1.30165 11.1221
H 19.0489 0.222626 9.87282
H 20.3045 1.4328 9.57662
Si 2.7545 16.3795 13.0265
O 2.38256 15.0197 13.8743
C 4.47438 17.016 12.6847
H 5.0677 17.2076 13.6042
H 5.04352 16.3455 12.0203
H 4.37505 17.9766 12.146
C 1.34605 17.541 12.7491
H 1.15956 17.7548 11.6818
H 0.450718 17.1166 13.214
H 1.58162 18.5029 13.2346
Si 3.12038 13.7462 13.0007
O 2.51557 12.2152 13.2108
C 4.85608 13.8722 13.6491
H 4.85354 13.778 14.7404
H 5.49964 13.0933 13.2355
H 5.29918 14.8346 13.3897
C 2.90742 14.3714 11.2156
H 3.86177 14.5158 10.6857
H 2.31382 13.6316 10.6599
H 2.31791 15.3192 11.1123
Si 3.48335 10.8348 12.9249
O 2.7516 9.324 12.9177
C 4.65047 10.7815 14.4037
H 4.01784 10.814 15.3017
H 5.25538 9.87196 14.4369
H 5.33145 11.6312 14.453
C 4.11356 11.1032 11.1889
H 4.88858 11.8748 11.0963
H 4.50848 10.1853 10.7357
H 3.26999 11.4286 10.5656
Si 3.498 7.93239 13.4983
O 2.86999 6.50677 12.9004
C 3.08588 7.84306 15.3059
H 1.99041 7.75482 15.3512
H 3.51947 6.9673 15.8
H 3.37553 8.7477 15.8505
C 5.29029 7.94681 12.9024
H 6.03502 7.94508 13.7083
H 5.48732 7.07657 12.2691
H 5.48946 8.82776 12.2767
Si 3.02534 4.92878 12.5022
O 3.46297 3.82523 13.729
C 1.3715 4.41139 11.8373
H 1.24017 4.58284 10.7648
H 1.1738 3.36037 12.0797
H 0.634553 5.03417 12.3634
C 4.662 4.65245 11.5322
H 5.52498 4.98767 12.1257
H 4.93782 3.79162 10.8976
H 4.62088 5.39792 10.7134
Si 4.41438 2.85887 12.7524
C 3.53964 1.67621 11.6275
H 4.19949 1.35724 10.8125
H 3.30388 0.745995 12.1703
H 2.63025 2.098 11.1801
C 6.07844 2.12975 13.3138
H 5.80727 1.12362 13.6852
H 6.47766 2.67163 14.184
Si 9.88501 16.6157 11.8163
O 10.3535 15.0319 12.1366
C 11.3486 17.7746 11.9664
H 11.6401 17.894 13.0198
H 12.195 17.3931 11.4002
H 11.0469 18.7518 11.5571
C 8.50979 17.3886 12.9566
H 7.68957 17.763 12.3071
H 8.00828 16.6886 13.6617
H 8.96749 18.2072 13.5637
Si 9.42043 13.9493 13.0782
O 9.30154 12.3144 12.7666
C 10.2991 14.1667 14.7447
H 9.68817 14.1841 15.6589
H 11.0024 13.3231 14.849
H 10.9259 15.0758 14.7014
C 7.71231 14.3599 12.4801
H 7.85389 14.5501 11.4007
H 7.09375 13.4614 12.5515
H 7.18655 15.2205 12.8923
Si 10.0648 10.8303 12.6685
O 9.33792 9.30619 12.4242
C 10.6284 10.6182 14.4501
H 9.66335 10.4907 14.9634
H 11.2187 9.72284 14.6597
H 11.1039 11.4826 14.9076
C 10.8872 11.0937 11.025
H 11.8351 11.6296 11.0068
H 10.9522 10.1471 10.4771
H 10.1794 11.7111 10.4588
Si 10.0934 7.86803 12.958
O 9.59638 6.50577 12.0839
C 9.37887 7.56356 14.6639
H 8.29566 7.48871 14.4901
H 9.71717 6.6299 15.1184
H 9.54045 8.37564 15.3712
C 11.9872 7.98557 12.6325
H 12.1512 7.14 11.9495
H 12.0892 8.88097 11.9976
Si 9.54509 4.98558 12.8089
O 9.44392 3.71421 11.6769
C 7.99694 4.70477 13.8231
H 7.2159 4.34961 13.146
H 8.16266 3.92501 14.5748
H 7.61335 5.57906 14.3549
C 11.1509 4.72373 13.7601
H 10.9823 4.50027 14.8219
H 11.7109 3.89029 13.3178
H 11.8054 5.60463 13.7069
Si 8.95653 2.21291 12.2114
C 7.04369 1.98442 12.1214
H 6.89493 0.997487 11.6709
H 6.83296 2.688 11.3037
C 9.83684 1.61644 13.7807
H 9.16209 1.61721 14.6376
H 10.2179 0.597548 13.6598
H 10.6951 2.24278 14.0231
Si 16.2401 16.3276 11.906
O 16.6357 14.7124 12.2332
C 17.7644 17.3945 12.1985
H 18.003 17.3602 13.2749
H 18.6483 17.014 11.6663
H 17.5607 18.4269 11.8975
C 14.8357 17.0268 12.9536
H 13.9667 17.306 12.3425
H 14.4964 16.3624 13.7545
H 15.2031 17.9234 13.4637
Si 15.8761 13.7224 13.3521
O 16.3759 12.12 13.2789
C 16.3702 14.3971 15.0321
H 15.5294 14.5553 15.7187
H 17.0797 13.6987 15.4995
H 16.8849 15.362 14.9006
C 14.0616 13.8417 12.8578
H 14.0079 13.7443 11.7641
H 13.4305 13.0696 13.309
H 13.6102 14.8073 13.0934
Si 15.2653 10.8748 13.4911
O 15.775 9.30472 13.7856
C 14.2396 11.3153 15.0081
H 13.1557 11.2678 14.8419
H 14.4902 10.603 15.8065
H 14.4814 12.3239 15.3714
C 14.472 10.7988 11.803
H 15.285 10.6107 11.0864
H 13.7169 10.0171 11.6827
H 14.0164 11.7463 11.5112
Si 15.0118 7.9231 13.2198
O 15.5416 6.50988 13.9616
C 13.1302 8.00093 13.6883
H 12.9992 7.16041 14.3902
H 13.0492 8.90253 14.3175
C 15.6788 7.75727 11.4786
H 16.7721 7.74469 11.599
H 15.3832 6.85474 10.9392
H 15.4324 8.61002 10.8481
Si 15.654 5.03089 13.2078
O 15.3784 3.79803 14.3128
C 14.2845 4.84416 11.9303
H 14.68 4.48687 10.9715
H 13.5458 4.11857 12.2795
H 13.744 5.78101 11.7505
C 17.3781 4.76539 12.5173
H 18.1019 4.75697 13.3424
H 17.4585 3.79765 12.0001
H 17.6801 5.53401 11.7925
Si 15.0992 2.18299 14.1117
C 14.6202 1.65585 12.341
H 15.412 1.87055 11.5945
H 14.4599 0.567449 12.3134
H 13.6834 2.1209 11.9913
C 16.6214 1.24043 14.6479
H 16.6924 1.20996 15.7373
H 16.5883 0.208136 14.3051
H 17.5365 1.70662 14.2503
523
 Atoms. Timestep: 500
Si 2.52452 15.3044 1.79734
O 2.93944 14.4678 0.427266
C 0.950333 16.3099 1.5192
H 0.174163 15.7304 0.973494
H 0.485912 16.5028 2.47288
H 1.02823 17.2566 0.948566
C 2.42836 14.3046 3.36985
H 1.71936 13.4924 3.35304
H 3.38718 13.8844 3.59586
H 2.13005 15.0109 4.2167
Si 2.58392 12.8685 0.00677878
O 3.71901 11.6655 0.0626668
C 2.77602 13.2455 18.1663
H 2.57038 14.4146 18.0973
H 3.89099 13.1509 17.71
H 2.14664 12.6955 17.5107
C 0.835071 12.2566 0.597077
H 1.01198 11.167 0.962656
H 0.695651 12.9569 1.30997
H 0.0912865 12.294 19.8559
Si 4.22686 10.4507 0.987108
O 2.91293 9.42495 1.19564
C 4.68364 11.0883 2.68267
H 3.81492 11.6287 3.1094
H 4.90262 10.21 3.29689
H 5.46644 11.8322 2.6058
C 5.59894 9.4574 0.102994
H 5.73289 9.73403 19.027
H 6.46916 9.81632 0.704946
H 5.49083 8.41833 -0.012358
Si 2.70409 8.3634 2.41114
O 1.74101 7.15149 1.78842
C 1.60453 9.01544 3.7983
H 0.643106 9.38152 3.3827
H 1.46364 8.22489 4.53867
H 1.96873 9.87396 4.36202
C 4.18247 7.46647 3.0912
H 4.62387 7.92942 3.96266
H 3.77963 6.49798 3.36366
H 4.98321 7.24704 2.34479
Si 0.94061 5.78134 1.90603
O 1.54774 4.66421 0.64076
C 21.2832 6.16063 1.41186
H 20.5634 5.44289 1.75739
H 20.8183 7.10225 1.87079
H 21.1226 6.32575 0.373633
C 1.28381 4.70907 3.45263
H 0.83582 3.74329 3.27244
H 2.38255 4.55162 3.71225
H 0.962205 5.26737 4.35366
Si 2.5596 3.60788 0.0628646
C 2.5491 3.44143 18.3087
H 2.84625 4.48205 17.7913
H 3.11478 2.75547 17.8157
H 1.52428 3.39828 17.9322
C 2.65818 1.9575 0.935159
H 3.45695 1.44935 0.364078
H 2.96761 2.07136 1.96299
H 1.7329 1.36152 0.953124
Si 7.31098 14.896 2.78919
O 7.37683 13.6562 1.63792
C 6.71598 16.5508 1.90859
H 7.40864 17.3647 2.12706
H 6.62489 16.4424 0.815737
H 5.74586 16.7821 2.30143
C 6.00439 14.2815 4.03787
H 6.30471 13.4788 4.72891
H 5.58631 15.1029 4.54515
H 5.23352 13.9302 3.34786
Si 8.57267 13.4101 0.361975
O 9.09989 11.8368 0.864868
C 9.94678 14.7194 0.7334
H 10.3205 14.3758 1.6913
H 10.7653 14.8582 -0.0116732
H 9.50252 15.7667 0.824403
C 7.95496 13.7336 18.7834
H 7.06428 14.3504 18.8698
H 8.56595 14.5968 18.3247
H 7.65765 13.1353 17.9349
Si 10.4622 11.1328 0.369826
O 10.1793 9.53908 0.620098
C 11.9212 11.4584 1.39091
H 11.8468 11.2078 2.48449
H 12.6966 10.7413 1.13158
H 12.1989 12.532 1.33251
C 10.5382 11.5913 18.6399
H 11.5448 11.5742 18.0746
H 9.7557 11.247 17.9534
H 10.4601 12.7366 18.5373
Si 10.6377 8.01683 1.09278
O 9.58887 6.7737 0.763064
C 10.8876 8.19555 2.9812
H 10.021 7.86888 3.58927
H 11.7614 7.52657 3.30761
H 11.1762 9.19986 3.24721
C 12.1356 7.86943 0.00495454
H 11.9358 7.75653 18.9596
H 12.4618 8.90815 19.9937
Si 9.2315 5.28016 1.50276
O 9.3838 4.04444 0.348303
C 7.38771 5.3083 1.74174
H 6.86896 5.712 0.87778
H 7.08348 4.28906 1.97917
H 7.15221 5.97701 2.64167
C 10.4245 5.10232 2.88705
H 9.94709 5.79422 3.62528
H 10.3278 4.0669 3.25493
H 11.5037 5.33666 2.69635
Si 9.79504 3.32021 19.0476
C 8.49954 3.30692 17.5696
H 7.9474 2.32197 17.603
H 7.82194 4.16019 17.3192
H 9.13462 3.25466 16.6512
C 10.2583 1.35512 19.2386
H 9.82408 1.16678 0.213443
H 9.67573 0.721393 18.5243
H 11.2342 1.17232 19.0624
Si 18.4973 13.8262 2.23941
O 18.2532 12.6985 1.06701
C 20.3354 14.1023 2.21238
H 20.7169 14.8836 2.89075
H 20.8251 13.1617 2.51739
H 20.7318 14.3379 1.19965
C 17.6333 15.3987 2.3015
H 16.6017 15.3912 2.65728
H 18.2667 16.1993 2.81689
H 17.5577 15.8881 1.30949
Si 18.3782 12.669 19.5415
O 17.2694 11.5446 19.0931
C 18.0197 12.8489 3.81034
H 17.9469 13.562 4.6609
H 17.0111 12.4951 3.54696
H 18.623 11.9526 4.08843
C 18.0517 14.4922 18.5772
H 17.8856 15.2495 19.3535
H 18.7878 14.6145 17.882
H 17.1423 14.2196 18.1296
Si 16.4037 10.3999 0.166983
O 15.2109 9.28924 19.4318
C 17.7345 9.56972 1.1986
H 17.801 10.0809 2.16794
H 17.6326 8.50238 1.45285
H 18.6838 9.57226 0.663377
C 15.7233 11.4944 1.41469
H 16.5615 11.4695 2.02947
H 15.3854 12.5697 1.18143
H 14.8392 11.185 1.98698
Si 14.9484 7.64482 19.4828
O 16.3069 6.97774 0.156943
C 13.4879 7.19867 0.342154
H 13.4084 6.08417 0.246134
H 13.7631 7.36817 1.42007
C 14.8622 6.98795 17.7977
H 15.6166 6.29926 17.4067
H 14.0208 6.22948 17.8462
H 14.5547 7.61024 16.918
Si 16.4494 5.9861 1.51048
O 15.6919 4.54685 1.14961
C 16.1873 6.94315 3.13453
H 15.1644 7.25466 3.36802
H 16.4895 6.15078 3.85725
H 16.911 7.74993 3.15705
C 18.2289 5.53809 1.35692
H 18.7939 5.36053 2.24451
H 18.4222 4.6788 0.671853
H 18.7592 6.40674 0.909121
Si 15.2273 3.44921 -0.0185761
C 13.796 3.55196 19.0172
H 13.5197 4.33317 18.3299
H 13.5207 2.4816 18.7637
H 13.0454 3.69566 19.9026
C 16.2145 1.90469 19.8964
H 16.1208 1.23749 0.699851
H 15.636 1.55776 19.0211
H 17.2558 1.62275 19.544
Si 3.50088 14.0947 9.62049
O 4.91619 13.4058 9.86354
C 3.12935 15.5163 10.9216
H 3.75728 15.4742 11.8058
H 3.29819 16.3867 10.3425
H 2.05506 15.503 11.205
C 2.78263 14.6441 7.95082
H 3.22342 15.5694 7.63088
H 2.9799 13.9474 7.13249
H 1.70363 14.8532 8.10147
Si 6.10178 12.5434 9.02302
O 5.94936 11.1454 9.86744
C 7.7553 13.4515 9.03395
H 8.06689 13.7825 10.0536
H 8.59532 12.9054 8.59729
H 7.71636 14.3594 8.39009
C 5.64171 12.5799 7.17426
H 5.57704 13.644 6.98678
H 6.51187 12.1749 6.65749
H 4.70858 12.0369 6.90102
Si 6.76599 9.76199 10.2167
O 5.58749 8.54981 10.2732
C 7.40229 9.76507 11.9662
H 8.41154 9.29726 11.9898
H 7.47085 10.7927 12.3461
H 6.77729 9.1922 12.6443
C 8.02521 9.65003 8.77438
H 7.94835 8.76671 8.0252
H 8.03755 10.5883 8.24033
H 9.07909 9.60692 9.1793
Si 4.45852 8.12485 9.1177
O 4.96239 6.77595 8.36609
C 2.76294 7.93689 9.8888
H 2.4326 6.85942 9.75145
H 2.71239 8.14063 10.9977
H 2.02411 8.53495 9.34051
C 4.30388 9.42616 7.7545
H 5.24043 9.52497 7.18338
H 3.45181 9.09536 7.13948
H 4.04073 10.3638 8.23721
Si 5.59611 5.53152 7.46134
O 5.95883 4.2583 8.51995
C 4.38732 4.70176 6.25252
H 3.49939 4.23961 6.684
H 4.01484 5.32274 5.38923
H 4.88539 3.86376 5.81733
C 7.08869 6.22707 6.54527
H 7.16173 5.77329 5.53805
H 6.98659 7.3459 6.38782
H 8.023 6.02113 7.13778
Si 6.86191 2.88526 8.34844
C 5.60252 1.47706 8.56021
H 5.41203 1.45414 9.6483
H 4.70032 1.76653 8.00395
H 6.00225 0.485948 8.22587
C 8.67598 2.65121 8.0148
H 8.95639 1.58204 8.24663
H 9.18726 3.29791 8.82743
Si 13.3792 14.8635 4.57002
O 11.8219 15.0768 5.08763
C 14.3624 15.3197 6.03896
H 14.0414 14.6995 6.852
H 15.4778 15.3015 5.83496
H 14.0875 16.3537 6.35177
C 13.822 15.5513 2.87591
H 13.8223 14.7977 2.05523
H 13.0785 16.3515 2.56483
H 14.868 16.0162 3.02231
Si 11.14 14.2866 6.34353
O 11.7013 12.7186 6.6129
C 11.3379 15.1871 7.99653
H 10.9487 14.6065 8.86372
H 12.3919 15.5187 8.0846
H 10.6747 16.0139 8.08426
C 9.44226 14.2287 5.68355
H 9.4055 14.2092 4.55361
H 8.82018 13.3684 6.02603
H 8.82307 15.1132 5.86441
Si 12.7922 11.6695 7.12377
O 12.084 10.125 7.56258
C 13.5061 12.474 8.69305
H 12.8375 12.2313 9.56351
H 14.5375 12.1945 8.90036
H 13.4768 13.5526 8.5586
C 14.0012 11.3469 5.75082
H 14.1354 10.2598 5.74177
H 13.6105 11.7611 4.76974
H 14.9612 11.8299 5.99307
Si 12.6511 8.79598 8.46048
O 11.4693 7.57586 8.40606
C 13.2582 9.11711 10.2453
H 12.4999 9.44965 11.0588
H 13.8703 8.26309 10.5079
H 13.9956 9.96771 10.2608
C 14.2073 8.26763 7.62558
H 14.5419 7.26259 7.97602
H 14.0954 8.19791 6.52547
H 15.0186 8.96472 7.9453
Si 10.9454 6.23264 9.18531
O 10.8792 5.0646 8.04827
C 9.26838 6.26409 10.0543
H 9.37342 6.45776 11.1311
H 8.60032 7.04605 9.67919
H 8.78364 5.28117 9.95334
C 12.3132 5.64571 10.3854
H 12.0055 4.82006 11.0859
H 13.1655 5.28956 9.78789
H 12.6971 6.45458 11.0245
Si 10.3284 4.68228 6.56852
C 9.04979 3.3622 6.48906
H 9.31961 2.61958 5.65498
H 8.16797 3.87664 6.02449
C 11.8164 3.86171 5.73697
H 11.7235 2.80977 5.9578
H 11.743 3.94482 4.60485
H 12.6946 4.35841 6.14644
Si 20.0367 15.0885 8.07197
O 20.6913 14.0921 9.22259
C 19.2327 14.1182 6.7476
H 19.6051 14.5417 5.71545
H 19.4788 13.085 6.88104
H 18.1515 14.163 6.754
C 21.0903 16.5319 7.56112
H 22.0959 16.1074 7.22518
H 20.675 17.147 6.76076
H 21.3105 17.1342 8.42386
Si 20.4635 12.5824 9.87636
O 19.8666 11.4777 8.72468
C 0.0417926 12.107 10.4517
H 0.482901 12.8721 11.0972
H 22.0643 11.2492 11.0381
H 0.835081 11.9644 9.63032
C 19.1542 12.791 11.1449
H 18.2698 13.3859 10.8129
H 18.6536 11.8331 11.4397
H 19.476 13.303 12.0466
Si 18.8444 10.1975 8.33995
O 19.7468 8.96569 7.75334
C 17.9858 9.42327 9.82888
H 18.6827 8.88209 10.4292
H 17.4832 10.1545 10.4932
H 17.207 8.69541 9.47828
C 17.7586 10.6984 6.93487
H 18.312 11.0477 6.07319
H 17.1796 9.80609 6.60021
H 17.0218 11.4979 7.16225
Si 19.4729 7.60221 6.88843
O 20.8942 6.72915 6.98543
C 18.0524 6.77183 7.81201
H 17.9817 5.72622 7.44655
H 18.1877 6.77846 8.90581
H 17.0492 7.20636 7.67556
C 19.2126 7.80712 5.06514
H 20.1625 7.68741 4.52158
H 18.5098 7.09455 4.60087
H 18.8305 8.76054 4.73237
Si 21.4852 5.23797 7.36152
O 20.6919 4.45685 8.5332
C 21.1544 4.03885 5.81873
H 20.0715 3.85833 5.77757
H 21.4626 4.55076 4.89298
H 21.8079 3.12345 5.71729
C 1.16579 5.32836 7.88501
H 1.33768 4.57572 8.72914
H 1.81619 5.08283 7.04839
H 1.56261 6.37134 8.08081
Si 19.9043 4.31696 9.97912
C 18.102 3.80619 9.59221
H 17.7375 4.06517 8.60658
H 18.0236 2.74085 9.78698
H 17.4752 4.24195 10.3403
C 20.7785 2.93724 10.9693
H 21.5851 3.36469 11.589
H 19.9797 2.56178 11.6357
H 21.198 2.06063 10.4177
Si 21.6764 15.6161 14.4054
O 21.98 14.0361 14.8363
C 21.4003 16.7157 15.9556
H 20.6355 17.4267 15.6513
H 21.1831 16.0307 16.8838
H 0.185218 17.443 16.1456
C 0.45496 16.4873 12.8276
H 0.380964 17.5395 13.1914
H 1.50778 16.091 12.7115
H 21.8156 16.3021 11.9563
Si 0.966544 12.9336 15.616
O 1.73151 11.672 14.7693
C 0.134902 12.2841 17.0947
H 0.798511 11.9355 17.9103
H 21.6949 13.1178 17.4621
H 21.5293 11.3759 17.0957
C 2.45055 14.075 15.3822
H 2.45928 14.2462 14.2562
H 2.26928 15.0401 15.8649
H 3.42883 13.7036 15.7067
Si 2.94477 10.6874 14.2807
O 2.63102 9.09622 14.6852
C 4.72164 11.0594 14.9008
H 4.74941 11.1063 15.9708
H 5.31518 10.2377 14.5591
H 5.24838 11.9294 14.5586
C 3.05197 10.9033 12.456
H 2.05747 10.9952 11.958
H 3.65485 11.8094 12.216
H 3.55375 10.0125 12.044
Si 3.5316 7.70099 14.9835
O 2.90091 6.55765 13.851
C 3.28051 7.09919 16.6791
H 2.23835 6.58038 16.8588
H 4.02429 6.34634 16.9538
H 3.34781 7.85693 17.4343
C 5.30837 7.8658 14.4631
H 5.7526 6.86204 14.5058
H 5.46919 8.22681 13.46
H 5.90843 8.47668 15.1645
Si 1.50012 5.8053 13.7522
O 1.77569 4.22681 13.4886
C 0.0677232 6.59184 12.8949
H 21.8974 7.43843 13.4963
H 0.317895 6.81852 11.876
H 21.2889 5.87949 12.7243
C 3.08573 4.14247 10.9085
H 3.64757 3.38061 10.2789
H 2.03533 4.15678 10.4885
H 3.5641 5.13404 10.6803
Si 3.13316 3.51172 12.7037
C 3.06041 1.67274 12.571
H 3.28672 1.1384 13.4872
H 2.14701 1.36701 12.107
H 3.91672 1.34853 11.8525
C 4.69198 3.94427 13.7133
H 5.25373 3.03524 13.9675
H 4.42288 4.44562 14.6465
Si 9.88817 15.3731 12.1786
O 9.08385 15.0947 13.5937
C 11.5857 16.2639 12.5358
H 11.5516 17.2759 12.1636
H 11.7199 16.1997 13.6089
H 12.3106 15.6962 11.9457
C 8.91638 16.4413 10.93
H 9.73281 17.0279 10.3524
H 8.30451 15.834 10.2591
H 8.31886 17.1622 11.5349
Si 7.96702 13.8312 13.9611
O 8.89193 12.5086 14.1316
C 7.00721 14.2787 15.5215
H 6.34733 15.158 15.3182
H 6.4205 13.4181 15.8407
H 7.76203 14.5588 16.2546
C 6.69461 13.652 12.5696
H 7.07194 13.3297 11.5963
H 5.91939 12.9139 12.7764
H 6.23743 14.617 12.4714
Si 10.4333 12.0697 14.3774
O 10.6634 10.4867 14.7173
C 11.1437 13.1555 15.7781
H 10.4024 13.2641 16.5732
H 12.1358 12.7927 16.1269
H 11.1597 14.1892 15.3357
C 11.5723 12.2976 12.869
H 11.5611 13.2409 12.2767
H 12.5959 12.2788 13.3287
H 11.5276 11.4332 12.1771
Si 11.1988 8.92206 15.0924
O 9.92194 7.86237 14.8866
C 11.7182 8.83039 16.9043
H 11.0449 8.21078 17.5227
H 12.7525 8.47823 17.0412
H 11.7838 9.82537 17.3058
C 12.7352 8.53316 14.0775
H 12.3118 8.16689 13.0927
H 13.2108 9.51737 13.8043
Si 9.34714 6.53057 15.6905
O 8.1917 5.66416 14.8183
C 8.332 7.26785 17.0436
H 7.6083 6.54462 17.394
H 8.88954 7.56516 17.9184
H 7.7581 8.15 16.6505
C 10.923 5.44898 15.9194
H 10.9867 4.64907 15.1822
H 11.8245 6.09518 15.7537
H 10.8935 4.97311 16.9245
Si 7.53767 4.98511 13.3967
C 5.69369 4.82245 12.9083
H 5.82126 4.32216 11.9477
H 5.37903 5.82657 12.5752
C 7.9976 3.13749 13.4532
H 7.05912 2.58612 13.5441
H 8.48953 2.79788 12.5108
H 8.70755 2.86002 14.2838
Si 19.2245 15.452 14.0389
O 19.0671 13.745 14.0927
C 18.2974 16.9728 15.0297
H 18.0845 17.7053 14.2516
H 17.566 16.6942 15.7744
H 18.9758 17.5461 15.6611
C 19.032 15.9316 12.1994
H 19.4406 16.9612 12.0379
H 19.6749 15.2776 11.5894
H 18.0147 16.0618 11.7805
Si 18.1251 12.9363 15.1162
O 17.4121 11.5002 14.6649
C 19.0161 12.3189 16.6039
H 18.3406 11.678 17.204
H 19.771 11.6725 16.1725
H 19.4136 13.1377 17.1018
C 16.5843 14.2208 15.4893
H 16.0699 14.3222 14.4958
H 15.795 13.7786 16.1349
H 16.8631 15.1488 15.9647
Si 15.8512 10.9886 15.1203
O 15.8918 9.32512 15.0797
C 15.1314 11.3783 16.8189
H 15.1744 12.4127 17.1543
H 14.0233 11.0578 16.8139
H 15.6109 10.7829 17.557
C 14.7785 11.4631 13.7164
H 15.3627 11.758 12.8156
H 14.1507 10.6487 13.4073
H 14.2539 12.2907 14.0334
Si 15.5965 7.96768 14.2398
O 16.5885 6.74683 14.7694
C 13.7656 7.52257 14.6597
H 13.4966 6.5164 14.2752
H 13.649 7.40863 15.7313
C 15.8939 8.12296 12.3759
H 15.7543 7.14762 11.8743
H 15.1268 8.77548 11.9342
H 16.809 8.55509 12.0768
Si 17.4221 5.45462 14.2211
O 17.0861 4.16897 15.2105
C 16.7174 4.98403 12.5443
H 17.3136 4.12064 12.22
H 15.6268 4.70911 12.5962
H 16.9009 5.78385 11.8388
C 19.2875 5.72209 14.1834
H 19.4084 6.68064 13.6672
H 19.6067 5.83081 15.2435
H 19.7755 4.92809 13.6976
Si 16.1364 3.17553 16.0701
C 14.4356 3.08504 15.2071
H 13.9706 4.08148 15.4023
H 14.5242 2.91096 14.1124
H 13.7781 2.29289 15.6627
C 17.0662 1.62448 16.452
H 17.9477 1.78545 17.0493
H 16.4815 0.867612 17.0162
H 17.4184 1.14596 15.5784
523
 Atoms. Timestep: 1000
Si 2.45619 15.5052 3.08912
O 2.53514 13.8059 3.03591
C 0.945545 16.2656 2.297
H 0.112519 15.5697 2.18111
H 0.638551 17.2209 2.74765
H 1.19631 16.4976 1.21117
C 2.74583 15.3878 5.02107
H 2.23184 14.5794 5.54714
H 3.80864 15.0387 5.08955
H 2.71722 16.2371 5.64504
Si 2.65831 12.691 1.856
O 3.32822 11.2299 2.62019
C 3.72661 13.4011 0.494722
H 3.63329 14.155 19.9293
H 4.70838 13.8077 1.21071
H 4.31952 12.602 20.0054
C 1.00137 12.0909 1.01494
H 0.327086 13.1021 0.965504
H 1.4785 11.6217 0.121193
H 0.597081 11.2203 1.69431
Si 3.98538 9.71951 2.2415
O 2.65886 8.60498 2.19912
C 5.23635 9.15072 3.53901
H 5.38189 9.97712 4.20539
H 4.95962 8.26903 4.09589
H 6.18711 8.9904 3.03245
C 5.02499 9.99109 0.729923
H 5.96797 9.50369 1.30691
H 4.87683 9.96323 19.7021
H 5.52626 11.1256 0.999584
Si 2.09679 7.00058 2.31009
O 1.56141 6.39541 0.865995
C 0.686556 6.98907 3.69073
H 0.261634 7.95681 3.95728
H 21.899 6.42752 3.39256
H 1.14425 6.58053 4.6283
C 3.66579 6.11974 2.96743
H 4.54493 6.63163 2.55515
H 3.69668 6.22265 4.05406
H 3.85519 5.10982 2.6609
Si 0.823925 5.37867 19.7391
O 2.20332 4.4123 19.2216
C 21.6652 5.42365 18.3846
H 21.9205 5.49518 17.1535
H 21.3142 4.47016 18.1663
H 21.1167 6.33692 18.5307
C 22.0007 4.04644 0.628402
H 21.4969 4.59574 1.49018
H 21.0373 3.555 0.328562
H 0.27492 2.96955 1.02028
Si 2.91412 3.85121 17.7497
C 4.65122 4.31903 17.5266
H 5.21228 3.34896 17.24
H 4.60527 5.004 16.709
H 5.3131 4.70852 18.2816
C 2.93344 2.00403 17.1353
H 2.63436 2.01832 16.107
H 4.11385 1.82804 17.1604
H 2.4871 1.21136 17.82
Si 8.06786 16.3594 2.53959
O 8.7667 14.8858 1.83162
C 3.85585 16.6278 2.33383
H 4.00589 16.6365 1.28116
H 4.87081 16.3783 2.68315
H 3.62979 17.6457 2.73018
C 7.01389 15.3559 3.78229
H 7.60098 14.5738 4.19028
H 6.59906 16.0864 4.57015
H 6.19323 14.9624 3.18862
Si 9.20396 13.8939 0.49812
O 9.62952 12.3843 1.17245
C 10.8029 14.4668 19.7151
H 11.6065 15.0492 0.249611
H 11.1331 13.5798 19.302
H 10.9071 15.0045 18.7123
C 7.89376 13.8888 19.0831
H 8.0505 14.735 18.3333
H 8.25443 13.0327 18.4757
H 6.8197 13.7299 19.4028
Si 10.7826 11.2306 1.75919
O 10.168 9.67306 1.6772
C 10.9946 11.6249 3.60379
H 11.5235 12.5585 3.79716
H 10.1118 11.6777 4.34597
H 11.4848 10.7207 4.04866
C 12.3848 11.7331 1.15493
H 12.147 12.5435 0.160424
H 12.5615 12.4756 2.04373
H 13.1647 11.0802 0.823128
Si 10.6005 8.04493 2.02469
O 9.40416 7.12478 1.49017
C 10.377 7.58386 3.98463
H 10.088 8.34051 4.73581
H 9.33833 7.21454 3.90489
H 11.0793 6.83677 4.45212
C 12.2919 7.54587 1.97258
H 12.5593 6.51371 2.26109
H 12.8591 7.47529 0.420662
Si 8.5985 5.59494 0.903162
O 8.81321 5.24977 19.3713
C 6.81611 6.06243 1.00937
H 6.41468 6.01982 2.05366
H 7.14621 7.07249 0.913692
H 6.28105 5.99773 0.102705
C 9.20278 4.33548 2.1519
H 10.1657 4.58084 2.62495
H 8.49258 4.79499 2.89512
H 8.9194 3.26184 2.15768
Si 8.51986 3.94614 18.4156
C 7.99695 2.17534 19.088
H 7.48537 1.44974 18.4536
H 9.06907 1.70672 19.2107
H 7.50618 2.14017 -0.0471404
C 10.0467 3.21663 17.4173
H 10.9411 3.86056 17.2113
H 10.4056 2.32987 17.8606
H 9.81841 2.87612 16.4014
Si 20.9127 13.0442 4.79407
O 19.6047 12.5319 3.84161
C 0.164974 11.906 4.4254
H 0.516646 11.7947 3.3693
H 1.23476 11.9058 4.97927
H 21.7986 10.9531 4.79383
C 21.2431 14.8525 4.69273
H 20.5959 15.5312 4.10655
H 21.0404 15.2985 5.70723
H 0.188422 14.9412 4.39091
Si 18.8877 12.5079 2.27769
O 17.8207 11.3268 2.6815
C 20.3249 13.0779 6.64529
H 21.063 13.6643 7.22622
H 19.3413 13.3267 6.36359
H 20.4322 11.987 6.85166
C 18.7372 14.3169 1.90994
H 19.5889 14.9787 2.18218
H 18.4131 14.459 0.912757
H 17.9061 14.6568 2.54608
Si 17.9181 9.64068 2.43124
O 16.2504 8.9929 2.15518
C 18.9859 8.93056 1.16967
H 18.8861 8.93955 0.0553096
H 19.9842 9.36911 1.44339
H 19.2435 7.97333 1.59884
C 18.5982 9.07002 4.00161
H 18.4034 8.03827 4.16597
H 19.5659 9.57791 4.28347
H 17.9519 9.37406 4.75481
Si 15.1743 8.38252 1.16147
O 15.5069 6.82011 0.665412
C 13.5418 8.52722 2.38361
H 13.9031 8.01659 3.19091
H 13.0491 9.51751 2.66416
C 15.3277 9.84902 20.0393
H 15.2865 10.6454 0.58623
H 16.4414 9.71839 19.7792
H 14.7516 9.46642 19.2654
Si 15.2375 5.33824 0.254091
O 15.098 5.16723 18.666
C 13.5459 4.52237 0.770672
H 13.596 3.66475 1.4672
H 12.7239 5.12785 1.16153
H 13.0449 4.32592 19.9171
C 16.6413 4.25749 1.04102
H 16.7772 4.61737 2.09848
H 16.3961 3.24409 0.873457
H 17.6269 4.53267 0.405209
Si 15.2973 3.83138 17.6073
C 14.4219 2.64737 18.6792
H 13.9337 3.30233 19.3547
H 13.5497 2.15425 18.1737
H 14.8405 1.68731 19.2924
C 17.1462 3.17392 17.5932
H 18.2163 3.60044 18.1026
H 17.086 1.89365 17.991
H 17.5371 3.20972 16.4897
Si 4.00728 14.8727 8.73126
O 5.19129 13.9065 8.06962
C 2.45247 14.0659 9.30494
H 2.04944 13.4376 8.54408
H 2.55477 13.3274 10.0946
H 1.71386 14.8837 9.49259
C 4.84099 15.8494 9.99775
H 4.592 16.923 9.83169
H 4.45723 15.5208 10.9916
H 5.96279 15.765 9.9642
Si 5.98763 12.4721 7.86205
O 5.26061 11.0445 8.39017
C 7.59674 13.1717 8.66551
H 7.42056 13.6896 9.58784
H 8.31853 12.3911 8.94991
H 8.07809 13.8579 7.9303
C 6.31887 12.4496 6.0155
H 5.35904 12.3871 5.47464
H 6.80806 13.4265 5.82506
H 6.9261 11.6109 5.71233
Si 6.20844 9.67462 8.9242
O 5.30475 8.29264 8.98038
C 6.52342 9.99923 10.6928
H 5.63361 9.71766 11.2714
H 7.37652 9.38042 11.0224
H 6.77982 11.0487 10.9234
C 7.62571 9.56069 7.7407
H 8.40867 10.2425 7.96812
H 8.11201 8.51905 7.72153
H 7.26491 9.70898 6.74638
Si 4.59838 7.50655 7.70018
O 5.80919 6.63741 6.90829
C 3.32567 6.49707 8.64492
H 3.40988 5.38756 8.57328
H 3.40715 6.7895 9.73153
H 2.29533 6.76961 8.27407
C 3.71785 8.73356 6.62199
H 4.14384 8.86653 5.64109
H 2.67486 8.40361 6.54802
H 3.79403 9.67475 7.18861
Si 6.32152 5.13955 6.42218
O 7.48802 4.70712 7.58544
C 5.26573 3.50131 6.55677
H 5.25777 3.25639 7.62665
H 4.2844 3.57282 6.11085
H 5.86765 2.8487 5.96296
C 7.13409 5.05936 4.74562
H 7.27392 6.02978 4.26728
H 8.14702 4.61694 5.00015
H 6.61961 4.36794 4.02332
Si 7.92932 4.40252 9.10389
C 6.95264 3.16582 10.183
H 6.6905 2.14568 9.81656
H 7.58504 3.03882 11.0948
H 5.98647 3.63014 10.3228
C 9.75801 3.61014 9.37058
H 9.58161 2.67808 9.98576
H 10.3665 4.21953 10.02
Si 14.5611 14.6836 3.47316
O 12.9894 14.7805 3.90516
C 15.7967 15.0101 4.78701
H 15.7572 16.0854 5.02824
H 15.5137 14.4751 5.70115
H 16.7777 14.7721 4.395
C 14.7994 15.6578 1.93913
H 15.8637 15.997 1.95998
H 14.5854 15.0866 1.04614
H 14.1185 16.5367 1.91213
Si 12.3025 14.5028 5.45976
O 12.7995 12.9636 5.70603
C 12.8027 15.9955 6.40966
H 11.9979 16.3684 7.06728
H 13.7224 15.9352 6.92403
H 12.847 16.7608 5.60806
C 10.4607 14.5355 5.56985
H 10.1598 14.317 6.60997
H 10.0971 15.568 5.48568
H 9.94468 13.8244 4.86696
Si 13.6365 12.0087 6.79156
O 12.6245 10.6387 6.89408
C 13.8373 13.043 8.37088
H 13.21 12.8741 9.21886
H 14.9082 12.9064 8.65813
H 13.7774 14.1057 8.0846
C 15.0995 11.6943 5.69139
H 15.8794 11.0414 6.0459
H 14.6424 11.2692 4.82382
H 15.4824 12.6814 5.39631
Si 12.9819 9.28964 7.83645
O 11.5351 8.40819 7.98324
C 13.5631 10.1853 9.43314
H 12.937 11.0617 9.60364
H 13.4677 9.61395 10.4078
H 14.6307 10.4101 9.24236
C 13.9478 7.95295 6.82517
H 14.2588 7.12131 7.45776
H 13.2445 7.5082 6.07434
H 14.8721 8.30632 6.32384
Si 11.3802 7.09363 8.97497
O 11.8401 5.78831 7.93754
C 9.73577 7.14824 9.88239
H 8.83429 7.29087 9.25095
H 9.62481 6.34732 10.6252
H 9.8523 8.07206 10.4774
C 12.6414 7.11091 10.3672
H 12.4619 6.31177 11.1321
H 13.6058 6.84296 9.95184
H 12.6154 8.06202 10.8995
Si 11.3402 4.55967 7.0665
C 10.3911 3.24573 8.12555
H 10.9313 2.24834 8.28783
H 9.57936 2.70766 7.48035
C 12.5317 4.0464 5.75849
H 13.5168 3.60179 6.02387
H 12.0382 3.22764 5.18318
H 12.7327 4.77286 4.97354
Si 19.1903 12.6718 8.54812
O 19.446 11.1736 9.28354
C 17.6518 12.7565 7.70031
H 16.9132 13.0173 8.50778
H 17.5896 13.5747 6.91064
H 17.2786 11.8184 7.21446
C 19.4602 14.0044 9.79402
H 18.9153 13.6023 10.7634
H 20.4823 14.2522 10.0953
H 19.0266 15.0427 9.52296
Si 20.2845 9.77065 9.60825
O 19.9317 8.55342 8.53824
C 22.0476 10.5347 9.17318
H 0.687872 9.7534 9.09141
H 21.9932 10.9491 8.12085
H 0.131823 11.3232 9.91384
C 19.8655 9.33377 11.4691
H 18.7851 9.03719 11.6024
H 20.306 8.56005 12.0169
H 20.0889 10.3039 11.9177
Si 18.6764 7.4861 8.63021
O 18.7534 6.60878 7.23597
C 19.188 6.36751 10.0534
H 19.6352 5.43037 9.61587
H 20.0075 6.82659 10.7015
H 18.3365 6.00134 10.6802
C 17.0653 8.48881 8.69816
H 16.1363 7.89285 8.5534
H 17.011 8.90134 9.73817
H 17.05 9.34557 7.98675
Si 18.9573 5.22608 6.30184
O 19.7929 4.10485 7.14867
C 17.2754 4.48681 5.88153
H 17.2601 3.39719 6.03625
H 16.48 4.97106 6.46384
H 17.0744 4.51323 4.77812
C 20.1122 5.95704 4.98857
H 20.9616 6.17933 5.64593
H 20.5429 5.42305 4.1618
H 19.7806 6.87487 4.48567
Si 20.5763 2.66298 7.27954
O 19.841 2.01153 8.6204
C 20.2905 1.51905 5.95945
H 19.4087 0.868021 5.74183
H 20.4369 2.15722 5.06114
H 21.144 0.743916 5.87164
C 0.278242 3.04482 7.33998
H 1.05801 2.31605 7.13142
H 0.631226 4.05762 7.04885
H 0.429258 2.87999 8.39462
Si 19.0865 2.74439 9.87619
C 17.2386 2.95872 9.43116
H 16.9616 4.02388 9.40049
H 17.0123 2.65415 8.38396
H 16.6009 2.40461 10.0937
C 19.3169 2.06039 11.5773
H 19.8573 2.73464 12.388
H 18.3486 1.83735 12.0832
H 19.7847 0.929231 11.5007
Si 21.1188 15.8881 16.0313
O 0.791006 15.7657 16.3645
C 20.2433 15.787 17.8058
H 20.6609 16.6807 18.2633
H 18.9672 16.0229 17.8446
H 20.5592 14.8382 18.0918
C 21.0128 17.6472 15.3248
H 21.3906 18.1709 14.5476
H 19.9396 17.4448 14.6594
H 20.4317 18.5956 15.6934
Si 2.21733 15.0368 15.7471
O 2.07003 13.6251 14.938
C 3.30594 14.8858 17.3404
H 4.403 15.1705 17.3039
H 2.83855 15.6744 18.0357
H 3.02456 13.9332 17.7242
C 3.03135 16.1052 14.292
H 2.43394 16.5105 13.4929
H 3.30669 17.0134 14.8247
H 3.85013 15.4835 13.9053
Si 2.43789 12.2089 14.1452
O 1.65966 10.7781 14.673
C 4.28419 11.8413 14.0586
H 4.31666 10.7711 14.0547
H 4.84605 12.1339 13.1795
H 4.66547 12.1148 15.0382
C 1.59852 12.4734 12.5585
H 2.03146 11.8784 11.7084
H 0.534582 12.2387 12.7509
H 1.66621 13.5681 12.3115
Si 1.10031 9.36876 15.2937
O 2.07712 8.05629 14.7348
C 21.4908 8.99214 14.5304
H 21.3844 9.0122 13.3566
H 21.1878 8.03709 14.7321
H 20.7762 9.58348 14.9699
C 0.913624 9.11719 17.1757
H 1.80734 9.38064 17.7177
H 0.00034852 9.56614 17.5676
H 0.774035 8.02813 17.3873
Si 1.64058 6.50842 14.2249
O 2.91794 5.50039 14.1112
C 0.534542 6.41537 12.7807
H 1.11406 6.32104 11.8827
H 0.196047 5.17429 12.9507
H 22.07 7.21153 12.6367
C 3.12409 4.3979 11.2406
H 2.40023 3.67996 10.7431
H 2.93383 5.44102 10.8908
H 4.12803 4.10272 10.8789
Si 3.13213 4.02613 13.1094
C 1.75876 2.7752 13.7479
H 0.948828 2.66137 12.9636
H 2.07916 1.68558 13.9108
H 1.28914 3.25531 14.617
C 4.87518 3.50645 13.6941
H 5.17865 2.66607 13.0461
H 4.79167 3.07836 14.7163
Si 9.38144 16.772 12.5314
O 8.8625 15.7005 13.6981
C 10.5787 18.0567 13.1363
H 10.6515 18.7506 12.279
H 10.2503 18.591 14.059
H 11.6054 17.6524 13.2942
C 7.82881 17.5769 11.7852
H 8.02979 18.3752 11.0093
H 7.18583 16.7882 11.4457
H 7.248 18.0701 12.5642
Si 7.70649 14.4969 13.8093
O 8.20756 13.0529 13.1248
C 7.39384 14.1166 15.6112
H 7.44304 15.1058 16.071
H 6.34485 13.734 15.675
H 8.10455 13.3936 16.0685
C 6.13252 15.0906 13.1624
H 5.94056 16.1401 13.4081
H 5.99062 14.9434 12.0971
H 5.33918 14.4298 13.5401
Si 9.72871 12.4299 12.9106
O 9.64328 10.728 13.0373
C 10.9382 13.1228 14.2266
H 10.3694 13.4918 15.1215
H 11.5813 12.263 14.4953
H 11.512 13.9161 13.7697
C 10.5181 12.7303 11.2376
H 10.7998 13.7847 11.1078
H 11.4726 12.1637 11.1917
H 9.88736 12.5263 10.3605
Si 10.3185 9.47098 13.9825
O 9.40895 8.09471 13.8637
C 10.2147 10.2609 15.7368
H 9.88562 9.48376 16.4271
H 11.182 10.5518 16.1489
H 9.55841 11.135 15.7534
C 11.9503 9.33359 13.2668
H 12.0077 8.48601 12.5566
H 11.947 10.3145 12.7328
Si 8.7693 7.0355 14.9405
O 8.39395 5.645 14.1597
C 7.35601 7.74547 15.942
H 6.42388 7.12014 15.9706
H 7.61243 7.82592 16.9768
H 7.04236 8.71578 15.5587
C 9.99628 6.30988 16.1644
H 10.6243 7.07889 16.6283
H 9.40592 5.7536 16.8575
H 10.7198 5.56458 15.752
Si 7.4825 4.27729 14.5961
C 5.95549 4.66791 13.5887
H 6.26859 4.85226 12.5198
H 5.61317 5.61857 14.0362
C 8.34377 2.86673 13.789
H 7.51933 2.31971 13.2803
H 8.97513 3.26423 12.9591
H 8.95281 2.13172 14.3645
Si 19.9597 14.7605 14.3988
O 19.5099 13.1292 14.595
C 18.4875 15.5163 13.5109
H 18.8029 16.527 13.1073
H 18.1979 14.7918 12.7588
H 17.5849 15.8975 14.0843
C 21.3035 14.6637 13.1357
H 21.0663 13.5918 12.8562
H 21.0928 15.3456 12.2723
H 0.258356 14.643 13.254
Si 18.1491 12.6993 15.3615
O 16.7787 12.6911 14.3812
C 18.3021 10.7707 15.7942
H 17.3251 10.2337 15.7011
H 18.8468 10.3235 14.9611
H 18.6901 10.484 16.7723
C 17.9338 13.5256 17.0315
H 18.4203 12.805 17.759
H 18.5751 14.4113 17.0733
H 16.9162 13.67 17.4339
Si 16.1426 11.9072 13.0666
O 15.7799 10.3651 13.5557
C 14.6723 13.0001 12.5947
H 15.3017 13.7645 11.9993
H 13.9279 12.703 11.853
H 14.2246 13.6097 13.4378
C 17.3438 11.9705 11.638
H 16.8584 11.5479 10.7115
H 17.5958 13.0291 11.4761
H 18.2519 11.4716 11.7825
Si 14.9981 8.91251 13.6147
O 15.9735 8.04922 14.5692
C 13.216 9.14237 14.2697
H 13.0002 8.29475 14.9398
H 13.2448 10.0111 14.967
C 15.5472 7.98943 12.0973
H 15.3142 6.9549 12.258
H 15.2734 8.25255 11.0609
H 16.641 8.07232 12.2394
Si 16.8467 6.98643 15.429
O 16.0165 5.61196 15.5047
C 18.5915 6.33718 14.825
H 18.7615 5.36676 15.2701
H 18.6622 6.32277 13.6898
H 19.365 7.05603 15.1914
C 16.7162 7.89249 17.1254
H 17.55 8.57437 17.2009
H 15.9113 8.54803 16.8894
H 16.5208 7.23538 17.9645
Si 15.0146 4.37304 15.4175
C 13.3295 5.13252 15.0526
H 13.4913 6.21767 14.7873
H 12.9564 4.66642 14.1126
H 12.6977 5.15583 15.9665
C 15.8061 3.48063 13.872
H 15.7385 2.35209 13.9669
H 15.1128 3.82473 13.0731
H 16.8043 3.78972 13.5845
523
 Atoms. Timestep: 1500
Si 3.47356 15.0045 1.11346
O 2.38247 13.792 0.498318
C 2.43157 16.3393 1.93283
H 1.43648 15.8519 2.0143
H 2.74867 16.4614 2.97789
H 2.4132 17.3269 1.42321
C 5.11773 14.8398 2.01844
H 5.32778 13.96 2.6068
H 5.89724 14.6444 1.21802
H 5.37255 15.7345 2.54848
Si 2.0298 12.3129 19.9592
O 2.72555 11.0296 0.639638
C 2.79991 12.0956 18.2599
H 2.00297 10.9756 17.8032
H 2.5846 12.7843 17.419
H 3.82587 11.597 18.3637
C 0.236517 11.9183 19.6712
H 0.0438717 11.172 18.7443
H 0.414225 12.1136 1.01173
H 20.9483 12.1206 0.298263
Si 3.44756 9.4772 0.82382
O 2.22046 8.40547 1.09116
C 4.64722 9.56776 2.34846
H 4.97482 10.585 2.50094
H 4.09156 9.30243 3.30595
H 5.41687 8.79099 2.30108
C 4.35814 8.3655 19.6361
H 5.05986 8.85821 18.7453
H 4.9173 7.46434 19.7369
H 3.38723 8.15686 19.0527
Si 1.42663 7.04478 1.80361
O 0.697984 6.08457 0.759725
C 0.275379 7.66473 3.26128
H 0.836101 8.39851 3.80016
H 21.7049 8.5851 3.09855
H 21.6438 6.88994 3.84502
C 2.49289 6.20649 3.02938
H 2.95696 6.84534 3.76914
H 1.74572 5.91401 3.76266
H 3.20561 5.45075 2.73143
Si 1.25372 4.69519 20.0276
O 2.8261 4.97872 0.191788
C 0.485902 5.02966 18.0883
H 0.287143 6.09709 17.7736
H 1.12344 4.5568 17.2601
H 21.7373 4.36524 18.1884
C 0.462657 2.64835 0.0913299
H 21.937 1.90733 19.5363
H 1.41915 2.22121 0.481302
H 0.0573868 3.13323 0.828381
Si 4.33097 4.80412 19.6535
C 4.4269 5.17105 17.6954
H 3.54936 4.76117 17.1554
H 4.60842 6.2478 17.4908
H 5.48038 4.91812 17.3837
C 4.49718 2.94792 19.569
H 4.74637 2.59748 0.559566
H 3.51405 2.66255 19.1195
H 5.18567 2.62885 18.9136
Si 7.96401 16.0399 0.970721
O 9.29745 15.102 0.521311
C 4.27123 15.9645 19.756
H 3.58134 16.6713 19.3298
H 4.38329 15.3396 18.8561
H 5.16364 16.5681 0.0195434
C 9.05727 16.8698 2.3285
H 9.84707 17.4513 1.71802
H 8.59666 17.6211 2.93878
H 9.68389 16.0712 2.79531
Si 9.72612 13.6551 19.8495
O 10.2365 12.5089 0.92225
C 11.5694 13.6627 19.2961
H 11.6627 12.5644 18.7367
H 11.8507 14.3804 18.5832
H 12.2348 13.8757 0.126051
C 8.49167 12.954 18.6463
H 7.50309 13.3718 18.8095
H 8.72208 13.7372 17.9689
H 8.57712 12.0277 18.0775
Si 9.98868 11.3112 1.99806
O 10.7442 9.9321 1.51623
C 8.10464 10.7835 1.73806
H 7.3998 10.9542 2.5551
H 7.86979 11.1105 0.693819
H 8.03999 9.68644 1.8088
C 10.4289 11.6268 3.7044
H 9.52906 12.1516 4.12718
H 10.7906 10.9956 4.42969
H 11.1883 12.2702 3.42332
Si 11.3442 8.25857 1.92858
O 10.7397 7.42687 0.534691
C 10.8254 7.75469 3.51485
H 10.8079 6.68119 3.64068
H 11.4952 8.34334 4.16759
H 9.92034 8.34747 3.89248
C 13.2719 8.12331 2.02623
H 13.755 8.96475 1.36766
H 13.8733 8.67544 3.20545
Si 9.39162 6.44381 0.674281
O 9.43286 5.71197 19.0548
C 7.71686 6.93071 1.23302
H 7.15105 7.49822 0.1971
H 6.72082 6.74375 1.33386
H 7.95347 7.6658 2.10143
C 9.67136 5.05862 1.97689
H 10.6409 4.64635 2.30558
H 9.27398 5.53318 2.86409
H 8.99535 4.39817 1.42065
Si 9.60294 4.6268 17.6861
C 8.36942 3.12102 17.9527
H 7.34383 3.2101 17.8044
H 8.8689 2.28127 17.266
H 8.3361 2.91685 19.2468
C 11.4299 4.28896 17.806
H 11.9433 3.30295 17.8556
H 11.9823 4.7727 16.9735
H 11.6517 4.81235 18.772
Si 18.5694 12.5024 3.69222
O 18.2287 11.538 2.22251
C 20.386 13.0584 3.70223
H 20.5734 13.9083 3.27701
H 20.7441 13.5115 4.76624
H 21.0076 12.3581 3.22728
C 17.5594 14.0926 3.7061
H 17.962 14.7737 4.46423
H 17.3925 14.4857 2.68497
H 16.5051 13.9155 3.97663
Si 16.9084 10.6413 1.76624
O 17.5911 9.13466 2.19659
C 19.3553 10.6596 6.30503
H 18.3977 10.4863 5.8159
H 20.1688 10.3996 5.58194
H 19.58 11.8045 6.21942
C 15.4089 11.0014 3.07009
H 14.4389 10.8992 2.71472
H 15.3807 10.3004 3.91753
H 15.4316 12.0035 3.50151
Si 17.877 7.5097 1.74733
O 16.7123 7.19539 0.608393
C 19.6118 7.52213 1.20114
H 19.6849 7.35491 0.0596971
H 20.0098 8.43204 1.61446
H 20.4016 6.84534 1.48457
C 17.5699 6.57576 3.35591
H 17.2609 5.54036 3.11983
H 18.6497 6.56261 3.81176
H 16.8319 6.88649 4.1129
Si 15.3025 6.51515 0.37424
O 15.4252 4.8943 0.425855
C 14.0518 6.81015 1.76538
H 13.4322 6.02755 2.21016
H 14.911 6.72739 2.64284
C 14.6093 7.1334 18.8735
H 14.363 6.4534 18.0885
H 13.6883 7.918 18.9766
H 15.6674 7.48925 18.3893
Si 16.6887 3.64907 0.153148
O 17.1211 3.65052 18.585
C 15.776 2.14758 0.602907
H 14.8025 2.58184 0.787567
H 15.818 1.34185 19.9068
H 16.2324 1.75687 1.56887
C 18.284 3.91506 1.11543
H 19.1161 3.25016 0.729344
H 18.6195 4.8572 1.19913
H 17.9493 3.80883 2.1525
Si 16.8609 3.49375 16.9932
C 15.3675 2.30388 16.7558
H 14.5898 2.79665 16.0011
H 15.7349 1.34376 16.2734
H 14.5687 2.08746 17.47
C 18.6084 3.1275 16.3351
H 19.1261 2.30887 16.5432
H 18.43 3.15036 14.9922
H 19.0757 4.01798 16.437
Si 3.99289 15.6077 7.64723
O 4.98714 14.4694 7.09765
C 2.20257 15.251 8.27616
H 2.17845 14.2218 8.61483
H 1.90267 15.9674 9.07068
H 1.46877 15.1389 7.44777
C 5.03586 16.9657 8.40906
H 5.57014 17.5039 7.65675
H 4.37608 17.6546 8.95524
H 5.7123 16.5677 9.17074
Si 5.25265 12.9807 6.2793
O 5.99998 11.9982 7.3409
C 6.45798 13.3221 4.9079
H 6.64972 14.4317 4.92044
H 7.41273 12.8546 5.13139
H 6.07919 13.1164 3.93185
C 3.52124 12.711 5.68686
H 3.44236 12.2649 4.69039
H 2.92969 12.1434 6.37157
H 3.09346 13.7232 5.52669
Si 6.3281 10.5336 8.02403
O 4.86487 9.83938 7.78873
C 6.75605 10.5272 9.84479
H 6.31064 9.64061 10.342
H 7.8655 10.4595 9.90602
H 6.4292 11.4289 10.3731
C 7.81492 10.1093 6.90348
H 8.24881 11.0562 6.63644
H 8.5572 9.49002 7.44006
H 7.54329 9.53585 5.98753
Si 3.90304 8.54224 8.13915
O 4.47457 7.14822 7.59055
C 3.77551 8.22232 9.94661
H 4.68246 8.46286 10.5483
H 2.89345 8.85022 10.2498
H 3.43953 7.15977 10.1502
C 2.184 8.99101 7.54432
H 1.59134 8.21711 8.07847
H 1.97345 9.9857 7.95413
H 2.02165 8.94678 6.48884
Si 4.76098 5.75297 6.72756
O 5.76288 4.69996 7.39635
C 3.27534 4.75977 6.78148
H 3.15847 4.48204 7.82483
H 2.48103 5.36939 6.42035
H 3.54936 3.7999 6.26197
C 5.73583 6.18791 5.16065
H 4.99876 6.36097 4.37325
H 6.38383 7.09296 5.19784
H 6.30435 5.32883 4.82684
Si 6.99378 4.07298 8.21403
C 6.66944 2.18056 7.849
H 6.34286 1.94917 6.78616
H 7.71377 1.76118 7.98176
H 6.06759 1.62117 8.55538
C 8.74615 4.56245 7.79393
H 9.39178 4.00985 8.48271
H 8.73699 5.63801 7.80777
Si 13.9232 15.9766 4.83905
O 13.452 15.2463 6.24561
C 14.0314 17.7564 5.48638
H 13.081 18.0064 5.99599
H 14.8864 17.8372 6.15513
H 14.2424 18.5102 4.71094
C 12.6576 15.6147 3.55408
H 12.491 16.5261 2.95566
H 12.8318 14.9573 2.73169
H 11.6871 15.2782 3.97475
Si 12.4652 14.8046 7.48478
O 12.7874 13.2862 7.88944
C 12.523 15.8481 9.07812
H 13.281 16.6066 9.02493
H 11.6138 16.4523 9.18691
H 12.6595 15.2049 9.94715
C 10.6962 14.8571 6.84109
H 10.0236 14.2738 7.52442
H 10.3413 15.8995 6.77882
H 10.7384 14.3703 5.88463
Si 13.9671 12.1702 8.12403
O 13.8409 10.7836 7.12889
C 13.7697 11.8439 9.95296
H 13.5084 12.7671 10.482
H 12.9456 11.1522 10.05
H 14.6364 11.4201 10.4355
C 15.5404 13.0845 7.63918
H 16.3639 12.4637 7.18831
H 15.323 13.8213 6.8824
H 15.9616 13.7649 8.34078
Si 13.9062 9.12241 7.28816
O 12.4061 8.43883 7.53029
C 15.0315 8.85403 8.75559
H 14.5473 8.97392 9.74602
H 15.6371 7.9354 8.6665
H 15.8078 9.68015 8.84204
C 14.7658 8.31203 5.80694
H 15.2305 7.34051 6.08013
H 13.966 8.17642 5.08197
H 15.5463 9.05756 5.49183
Si 11.5861 7.04298 8.12443
O 11.1907 6.09738 6.69539
C 10.1825 7.66897 9.1125
H 9.43159 8.12538 8.45708
H 9.71485 6.95518 9.79519
H 10.5678 8.49257 9.71771
C 12.6409 6.1898 9.45173
H 11.9732 5.67195 10.1478
H 13.488 5.52989 9.1662
H 13.1531 6.93606 10.0821
Si 10.7799 4.48462 6.22489
C 9.03479 4.00431 6.27012
H 8.9012 2.96137 6.23804
H 8.49665 4.53167 5.52791
C 12.1875 3.31436 6.94159
H 12.3026 3.7614 7.97812
H 11.9155 2.22299 6.90891
H 12.9991 3.6572 6.33055
Si 19.3753 10.265 8.05498
O 18.7336 8.73498 8.10714
C 18.0188 11.2863 9.02936
H 17.7848 10.884 10.0694
H 18.5459 12.258 9.11875
H 17.1136 11.2935 8.44939
C 20.8519 10.7305 9.16866
H 20.583 10.5208 10.1921
H 21.7644 10.2314 9.00927
H 20.9783 11.7309 9.27436
Si 19.4668 7.26057 8.26454
O 18.4856 6.21592 9.03756
C 19.8296 6.64061 6.51318
H 20.7139 6.04664 6.38802
H 19.0113 6.08761 6.11533
H 19.8713 7.37242 5.64712
C 20.8877 7.54673 9.35522
H 21.7904 7.85749 8.84388
H 20.6055 8.23537 10.1431
H 20.9976 6.59598 9.85004
Si 17.8358 4.72628 9.56208
O 18.1028 3.54014 8.47238
C 18.5882 4.36215 11.2949
H 19.6949 4.70126 11.3531
H 17.9863 4.95074 12.005
H 18.5305 3.32272 11.6933
C 16.012 4.89037 9.39131
H 15.4252 4.1694 9.99647
H 15.6705 5.91984 9.64847
H 15.7538 4.72556 8.32507
Si 19.2135 2.62872 7.68892
O 18.8427 1.06024 8.0906
C 19.1591 3.0684 5.84572
H 18.8726 4.1166 5.65656
H 20.2075 3.03082 5.4517
H 18.5301 2.35765 5.30496
C 20.8317 3.20121 8.42344
H 20.7029 3.19328 9.50663
H 21.7412 2.66066 8.14322
H 21.1172 4.24186 8.27847
Si 18.9019 19.0145 9.3839
O 17.2859 18.9985 9.98636
C 19.4128 17.6463 8.38654
H 18.942 16.7597 9.04943
H 18.6374 17.7971 7.59395
H 20.5082 17.6182 8.16295
C 19.9023 0.708442 10.6376
H 19.5967 1.39554 11.5039
H 20.5184 19.1099 11.6066
H 20.3656 0.996078 9.82287
Si 16.2695 18.2092 10.9076
C 15.9543 18.8831 12.6005
H 15.1743 18.1493 12.9831
H 16.8717 18.7677 13.2552
H 15.8046 0.76387 12.4591
C 16.3761 16.4306 10.8208
H 17.0932 16.1222 11.3976
H 15.3977 15.8185 11.1707
H 16.6153 16.0202 9.76279
Si 21.9826 16.3456 15.8651
O 1.34463 15.8458 15.1993
C 0.572493 16.7432 17.6612
H 1.36117 16.498 16.9124
H 0.512637 17.9533 17.831
H 0.568954 15.9727 18.2652
C 0.191674 18.1609 15.4386
H 1.24134 18.7906 14.894
H 19.0706 18.2575 18.2161
H 21.4825 19.0003 15.2787
Si 2.55711 15.2305 14.2869
O 2.98688 13.6684 14.7652
C 3.87419 16.3806 14.7716
H 4.73483 16.6295 13.9933
H 3.21725 17.2103 15.041
H 4.27575 15.9329 15.6626
C 2.31533 15.0739 12.5006
H 2.76973 15.9221 11.962
H 2.72497 14.1519 12.1414
H 1.36033 15.1914 12.0337
Si 3.23103 12.0783 14.1746
O 2.20202 11.0833 15.0295
C 5.08885 12.2309 14.5346
H 5.27546 12.2753 15.616
H 5.6208 11.3756 14.0401
H 5.47061 13.1489 14.1096
C 3.14437 11.5872 12.3257
H 3.98616 11.9048 11.6478
H 3.2085 10.5049 12.322
H 2.18452 11.8992 11.8223
Si 1.35766 9.56854 14.5552
O 2.45034 8.78038 13.4206
C 21.7846 10.4531 14.0918
H -0.0333068 10.9212 12.7373
H 20.9379 10.0347 14.4349
H 21.8482 11.4169 14.611
C 1.15922 8.27888 16.0431
H 0.813701 8.8219 16.9304
H 0.293699 7.58432 15.6097
H 2.02875 7.73696 16.4373
Si 2.84385 7.35906 12.7678
O 3.47891 6.43332 13.878
C 1.46189 6.44253 11.875
H 1.55689 5.17655 11.5493
H 0.57873 6.78656 12.4159
H 1.17567 6.59406 10.507
C 4.42201 4.55055 11.7964
H 3.29418 4.63607 11.7419
H 4.88795 5.00002 10.8911
H 4.61044 3.43421 11.7532
Si 4.70052 5.23149 13.6773
C 4.43189 3.61332 14.6197
H 5.16437 2.88465 14.2213
H 4.75064 3.65255 15.7164
H 3.39814 3.24647 14.5246
C 6.47663 5.88892 14.2507
H 6.26934 6.62722 15.0383
H 6.75944 6.52351 13.4086
Si 9.73175 18.0876 12.3153
O 9.05573 17.287 13.6661
C 11.5105 17.6757 12.0065
H 12.1904 18.4458 12.4023
H 11.8303 16.7814 12.5669
H 11.7395 17.5422 10.937
C 9.19936 0.6368 11.8162
H 9.78149 1.2621 11.1807
H 8.19915 0.455338 11.0986
H 8.94618 1.30113 12.6438
Si 7.89182 16.0159 13.8544
O 8.51966 14.507 13.6396
C 7.19617 15.8714 15.5195
H 6.86647 16.842 15.9505
H 6.32738 15.2129 15.2197
H 7.83019 15.3325 16.242
C 6.50695 16.4996 12.7192
H 5.7895 15.6622 12.6042
H 6.05631 17.3924 13.1946
H 6.77848 16.8543 11.7112
Si 9.3254 13.6002 12.5259
O 9.71654 12.1272 13.2369
C 11.0442 14.0666 12.0253
H 11.3326 13.2106 11.3676
H 11.1725 15.0215 11.4935
H 11.7316 14.0378 12.8861
C 8.29751 13.5354 10.9546
H 8.15369 14.4775 10.4513
H 8.74553 12.8385 10.2026
H 7.35177 13.0018 11.1708
Si 10.7845 11.557 14.4014
O 10.2113 10.1166 15.0064
C 10.7906 12.9422 15.6458
H 10.192 12.6475 16.5087
H 11.8098 13.3198 15.8229
H 10.2296 13.7528 15.1721
C 12.4261 10.9012 13.7207
H 12.2244 10.1686 12.9262
H 13.0018 11.763 13.3368
Si 9.00088 9.08716 15.3972
O 9.12817 7.4155 15.0726
C 7.36185 9.71624 14.8116
H 6.57938 8.92225 15.123
H 7.07078 10.7043 15.1318
H 7.25153 9.70206 13.7386
C 8.96388 8.92152 17.2709
H 9.31266 9.87166 17.7558
H 7.9435 8.83316 17.6514
H 9.54374 8.04763 17.5806
Si 9.29552 5.76469 15.443
C 7.49974 4.91438 14.7822
H 7.17313 4.38787 15.6908
H 7.78419 4.18004 14.0483
C 10.3957 5.15623 14.0134
H 10.9962 4.30435 14.3252
H 9.70042 4.89291 13.1886
H 11.0852 5.93192 13.6455
Si 20.0461 15.481 15.7489
O 19.2812 14.6221 17.0448
C 18.6637 18.8483 18.9703
H 19.1066 18.5775 19.971
H 17.6558 18.571 18.7056
H 19.0723 0.673543 18.6874
C 18.7571 16.6111 14.7425
H 18.7762 16.6381 13.6276
H 17.7326 16.2618 14.9213
H 18.6304 17.6976 14.9581
Si 17.8745 14.2721 17.9284
O 16.9654 13.1714 17.0227
C 18.4503 13.4231 19.4947
H 18.147 13.6407 0.547032
H 18.38 12.3168 19.2771
H 19.555 13.6205 19.7212
C 16.616 15.5616 18.4404
H 16.8272 16.5464 18.0439
H 15.7337 15.0076 18.0679
H 16.3704 15.6313 19.5267
Si 15.4205 12.8197 16.6728
O 15.6895 11.3224 15.9485
C 14.3413 12.4776 18.1544
H 13.9095 13.3144 18.7981
H 13.4665 11.8917 17.7799
H 14.8823 11.7114 18.7644
C 14.9451 14.2431 15.4884
H 14.1537 14.0722 14.7231
H 14.598 15.1041 16.0585
H 15.9744 14.5176 14.984
Si 15.0472 10.2564 14.9456
O 15.8716 8.81946 15.1815
C 13.1584 10.1071 14.8821
H 12.8395 9.02616 14.8461
H 12.7999 10.4118 15.9087
C 15.5655 10.9237 13.1806
H 14.7666 10.7466 12.495
H 15.7519 12.0032 13.1159
H 16.4274 10.3616 12.7794
Si 17.3727 8.0269 15.4437
O 16.8604 6.47623 15.5547
C 18.4625 8.27246 14.0231
H 19.5241 8.38528 14.3555
H 18.454 7.4876 13.2774
H 18.1205 9.24375 13.6057
C 18.339 8.41132 17.0219
H 19.0287 7.57615 17.1397
H 18.8558 9.40135 16.8661
H 17.7798 8.51863 17.9578
Si 16.0963 5.03742 15.6907
C 14.2568 5.3366 16.0425
H 13.8455 6.3184 16.3819
H 13.5382 5.04771 15.2114
H 13.736 4.64591 16.7527
C 16.3508 4.46136 13.94
H 15.422 4.32945 13.4038
H 16.8891 5.22202 13.3606
H 16.9228 3.45264 13.9308
523
 Atoms. Timestep: 2000
Si 3.37918 15.2876 1.57535
O 3.00291 14.1023 0.458456
C 2.44236 15.3544 3.23874
H 3.05803 15.6911 4.06735
H 1.61414 16.1405 3.21177
H 2.03171 14.3635 3.32285
C 5.30287 15.4623 1.78717
H 5.53056 16.0456 2.71001
H 5.79497 14.4924 1.8331
H 5.79737 16.1974 1.13428
Si 2.24241 12.6283 0.212044
O 3.45842 11.5202 0.575299
C 1.9063 12.8758 17.9962
H 1.26098 11.7798 17.2799
H 1.10774 13.5903 18.1498
H 2.46872 13.3103 17.2494
C 0.468504 12.6789 0.376752
H 20.6635 12.2905 1.05658
H 4.89989 8.15052 1.62594
H 21.7695 13.7725 1.12947
Si 3.43546 10.0125 1.64143
O 2.42567 8.69368 0.877719
C 2.33221 10.9074 2.91101
H 1.6354 10.4381 3.62651
H 3.14476 11.2511 3.66713
H 1.9189 11.9245 2.68172
C 5.21417 9.53092 1.68605
H 7.80858 3.22522 8.65626
H 6.00231 10.2905 1.04028
H 4.97122 9.37831 2.91842
Si 1.53415 7.46725 1.47743
O 1.27474 6.32568 0.294106
C 21.762 8.13768 2.12849
H 21.0713 7.9618 2.87828
H 12.5962 12.5537 17.0713
H 21.5852 7.17171 1.72023
C 2.66596 6.73941 2.93373
H 3.46915 6.05276 2.52451
H 3.09563 7.75659 3.12367
H 2.36135 6.36326 3.93321
Si 0.610114 4.92489 0.363425
O 1.81146 3.93594 19.4728
C 0.894011 4.40905 15.5092
H 0.572879 3.98837 14.5101
H 1.3449 3.61617 16.0309
H 21.9054 4.72428 16.1068
C 21.0044 4.17583 0.828459
H 20.332 4.54828 2.03943
H 19.8347 3.48329 0.256319
H 1.38767 5.29319 15.2638
Si 3.1378 2.82225 19.7944
C 4.68092 2.98718 18.6548
H 5.25008 3.94855 18.4611
H 5.41621 2.61283 19.37
H 4.55897 2.53342 17.5941
C 3.78481 2.97156 1.94057
H 3.30704 3.90422 2.12433
H 3.83861 2.21245 2.78612
H 4.83857 2.97119 1.82378
Si 8.59087 15.4691 4.05701
O 9.72692 14.5514 3.01307
C 3.12215 16.9397 0.67365
H 3.59388 16.6462 19.3569
H 3.8116 17.6124 1.17681
H 2.27544 17.4428 0.513327
C 8.9734 17.1929 3.40784
H 9.80599 17.5741 3.99059
H 9.09954 17.3034 2.261
H 8.03474 17.8613 3.64719
Si 10.0365 13.6242 1.57639
O 10.1761 11.923 1.64097
C 11.7839 14.0439 0.938495
H 12.2813 14.8913 1.40284
H 12.2794 12.7993 0.773298
H 11.668 14.6508 19.6236
C 8.77988 14.0353 19.831
H 7.80359 13.6499 0.367699
H 8.59609 14.9942 19.3237
H 9.28331 13.2857 19.2522
Si 9.62184 10.764 2.65788
O 9.67791 9.37193 1.77577
C 7.9732 11.2724 3.15444
H 8.33049 11.7686 4.05097
H 7.42252 11.9248 2.46593
H 7.38417 10.3973 3.36783
C 10.8909 10.5824 4.0209
H 10.3898 9.85724 4.86136
H 11.7293 10.0288 3.69682
H 11.2218 11.4311 4.58736
Si 10.1616 7.73683 1.92702
O 9.64456 6.94426 0.545785
C 9.45146 7.35064 3.60738
H 10.3553 7.00122 4.09489
H 8.93028 8.16423 4.18156
H 8.82568 6.43549 3.67108
C 11.997 7.50044 2.20247
H 12.2896 8.55241 2.18407
H 12.4444 7.91254 3.46653
Si 8.74324 6.13479 19.4087
O 9.4731 5.83797 17.9795
C 7.0344 6.83705 19.0529
H 6.76311 7.37887 0.584872
H 7.13177 7.71971 17.9913
H 6.04817 6.67183 18.8286
C 8.51559 4.0446 0.510093
H 7.47613 3.95753 0.316746
H 9.23681 3.71907 19.5411
H 9.0479 3.71085 1.402
Si 9.76245 5.46085 16.3609
C 8.30263 4.17667 15.8985
H 8.23463 3.29391 16.422
H 7.2357 4.66608 15.6968
H 8.58402 3.77543 14.9792
C 11.3297 4.39648 16.0562
H 11.369 4.14766 14.9422
H 12.2321 4.69475 16.4074
H 11.0657 3.44751 16.3961
Si 17.1268 12.5863 4.75975
O 16.4945 11.2282 4.28872
C 18.8167 12.8164 4.08257
H 19.6234 12.3083 4.66551
H 18.9685 13.1133 2.94184
H 19.0921 13.8044 4.61769
C 16.106 14.2947 4.68595
H 15.9164 14.598 3.63609
H 15.1675 14.0875 5.11145
H 16.7242 14.9862 5.25579
Si 16.2027 11.0348 2.56366
O 17.0214 9.49787 2.22637
C 19.116 8.67355 5.83842
H 19.9482 8.27276 5.28696
H 19.0731 9.73457 5.41463
H 18.1848 8.07253 5.604
C 14.3962 10.6291 2.36907
H 14.3498 9.65306 2.9365
H 13.6852 11.3185 2.81108
H 14.0403 10.3083 1.42024
Si 16.6121 7.91859 1.80475
O 15.3444 8.22207 0.626483
C 18.1445 7.3605 1.07474
H 18.3376 6.62972 19.9359
H 18.5728 8.41752 1.1017
H 18.7162 6.50794 1.74648
C 16.2756 7.17507 3.4618
H 16.5862 7.77401 4.29219
H 15.1759 7.2053 3.58452
H 16.5124 6.10843 3.37287
Si 14.1429 7.01936 0.182806
O 14.9048 5.61229 19.7722
C 13.0195 6.53724 1.53221
H 12.6007 5.53935 1.16745
H 13.6654 6.23725 2.30703
C 13.4463 7.91905 18.4136
H 12.4315 7.79645 18.1034
H 13.1767 8.878 18.7384
H 14.1031 7.90211 17.4218
Si 15.221 4.17651 18.7644
O 16.2384 4.7116 17.5305
C 13.5113 3.49592 18.2747
H 13.3314 2.3398 18.341
H 12.8498 4.15886 18.8648
H 13.638 3.76983 17.2708
C 16.2332 2.94174 0.164628
H 15.9842 3.06008 1.34014
H 15.6594 1.99074 0.273292
H 17.2377 3.33693 19.5173
Si 16.6477 4.31307 16.07
C 15.8987 2.77587 15.7236
H 19.8542 1.12369 14.5289
H 15.0805 2.30969 16.3066
H 15.5356 2.62653 14.7575
C 18.6086 3.86104 15.7971
H 19.0405 3.62111 16.7741
H 18.602 2.92232 15.0174
H 19.1373 4.53227 15.3387
Si 5.0814 16.1363 7.31348
O 4.84714 14.5362 7.47135
C 4.74153 17.027 8.90621
H 5.19322 16.4097 9.69342
H 5.24288 18.02 8.78787
H 3.68385 17.2611 9.13606
C 6.76338 16.6953 6.73559
H 7.56005 15.9761 6.80907
H 6.85063 17.1098 5.71805
H 6.97718 17.5012 7.43372
Si 4.60347 13.0018 6.76844
O 5.44319 11.8808 7.57209
C 5.30029 13.2776 5.09103
H 4.6605 13.9082 4.48421
H 6.24348 13.7973 5.25289
H 5.57345 12.3326 4.58885
C 2.76139 12.7416 6.53045
H 2.36916 13.5879 5.97524
H 2.68961 11.7852 5.95536
H 2.26035 12.6185 7.48746
Si 6.46033 10.6455 8.02795
O 5.31892 9.53602 8.33053
C 7.39238 11.1256 9.63109
H 7.15178 10.3875 10.4193
H 8.48877 11.1454 9.55748
H 7.03849 12.1226 9.96756
C 7.50106 9.97143 6.64191
H 7.88253 10.7243 5.88022
H 8.38025 9.49096 7.01381
H 6.88185 9.21793 6.07932
Si 4.76501 8.02685 8.08757
O 5.98363 7.05675 7.38851
C 4.23052 7.52989 9.85832
H 4.84912 8.26832 10.4742
H 3.13008 7.51099 9.76989
H 4.67796 6.54855 10.1348
C 3.28998 8.43048 6.98348
H 2.52605 8.90101 7.58876
H 3.51285 9.09121 6.14421
H 2.76341 7.58543 6.49993
Si 5.91731 5.63534 6.48377
O 7.25112 4.829 7.21034
C 4.3458 4.71604 7.12924
H 4.47554 4.0499 7.97071
H 3.59734 5.46764 7.36573
H 4.01019 4.09255 6.27578
C 6.02818 5.52616 4.54077
H 6.62149 4.72839 4.08534
H 4.98069 5.32895 4.24005
H 6.33035 6.47981 4.13075
Si 7.83048 3.37903 7.45696
C 6.53807 2.29829 6.63714
H 5.71354 2.03262 7.36275
H 6.02361 2.83032 5.84883
H 7.05252 1.3766 6.24854
C 9.52839 3.04576 6.66548
H 9.38128 2.21796 5.94452
H 10.3696 2.61766 7.27589
Si 12.5292 15.785 6.12904
O 11.5708 14.4902 6.50482
C 11.8791 17.1672 7.33412
H 12.7485 17.7677 7.74506
H 11.1969 17.8825 6.85001
H 11.4055 16.6847 8.21171
C 12.4813 16.3728 4.3142
H 11.9426 15.6071 3.72498
H 11.9224 17.3503 4.43505
H 13.5118 16.4936 4.05901
Si 11.5245 13.2048 7.58285
O 12.9763 12.4127 7.53865
C 11.1186 14.0146 9.17056
H 10.9839 13.2714 9.99416
H 11.9103 14.6891 9.42626
H 10.2148 14.6547 9.11582
C 10.1891 11.9769 7.05335
H 9.39982 12.1766 7.76228
H 9.91454 12.2633 6.04067
H 10.3932 10.8967 7.05494
Si 13.9687 11.6687 8.5751
O 13.9956 10.0477 8.32945
C 13.8092 12.0758 10.3784
H 14.7849 11.9443 10.8371
H 13.5306 13.1459 10.4132
H 13.075 11.5544 11.0073
C 15.5311 12.3613 7.72692
H 16.1522 11.4981 7.37778
H 15.2105 12.9673 6.86043
H 16.1794 13.0871 8.1416
Si 14.3452 8.49677 8.72412
O 12.8204 7.82488 8.95324
C 15.0058 8.54304 10.4975
H 15.9948 9.03994 10.6445
H 14.3454 9.14517 11.1339
H 15.1393 7.4782 10.9026
C 15.3134 7.85571 7.26422
H 15.7066 6.82825 7.47945
H 14.5935 7.85818 6.41737
H 16.0326 8.70469 7.08724
Si 11.3443 7.11462 9.35018
O 10.9316 5.99438 8.06841
C 10.2889 8.61082 9.52279
H 9.86663 8.90216 8.56013
H 9.38402 8.48889 10.1323
H 10.7937 9.47588 9.95953
C 11.5206 5.98881 10.7039
H 10.8193 5.15911 10.7918
H 12.4771 5.49651 10.4391
H 11.585 6.38218 11.7152
Si 11.2248 5.39299 6.55341
C 9.9856 4.21672 5.79699
H 10.6133 3.73476 5.08049
H 9.23231 4.47418 5.03995
C 13.0899 5.28823 6.53582
H 13.5424 4.69353 7.36037
H 13.5613 5.04635 5.58236
H 13.4177 6.32575 6.81187
Si 19.6614 8.45683 7.58285
O 19.7994 6.797 7.96441
C 18.4609 8.96058 8.87605
H 17.5219 8.41425 9.02104
H 18.8702 8.71388 9.93335
H 18.1999 10.0329 8.89096
C 21.423 9.28676 7.4263
H 0.371468 8.32189 7.53357
H 21.7834 9.71736 6.54048
H 21.4085 10.1332 8.01868
Si 20.2773 5.20034 7.61922
O 19.8149 4.35462 9.02064
C 19.1928 4.52173 6.32173
H 18.1957 4.84318 6.06853
H 19.7917 4.62275 5.40839
H 19.0706 3.4155 6.2492
C 0.190731 4.84398 7.16082
H 0.335176 5.92551 7.02022
H 0.813201 4.49394 7.856
H 0.823473 4.22321 6.37124
Si 19.0833 3.10723 9.71702
O 19.3159 1.67327 8.91713
C 19.893 2.86138 11.3313
H 20.82 2.31887 11.2308
H 20.1088 3.80021 11.9461
H 19.21 2.20189 11.8913
C 17.2577 3.4646 9.99567
H 16.7595 2.66105 10.5542
H 16.9913 4.41494 10.4823
H 16.789 3.43198 8.98649
Si 18.3598 0.236755 8.66988
O 18.4091 18.3978 10.2893
C 16.7506 0.671337 7.87574
H 16.7632 18.8519 6.85641
H 15.7656 18.879 8.0342
H 16.43 1.52303 7.3027
C 19.4718 17.864 7.60437
H 18.6643 17.477 6.8213
H 20.1124 18.3554 6.92806
H 19.9856 17.1291 8.14111
Si 17.5387 17.2869 11.1705
O 16.0047 17.9121 10.9494
C 17.8167 15.5094 10.3631
H 17.2465 14.8746 10.9287
H 17.3615 15.9474 9.39213
H 18.9202 15.4062 10.3789
C 17.9903 17.7671 12.8613
H 18.3448 18.9397 12.7554
H 19.3572 1.09619 14.9328
H 12.6101 0.334134 9.53948
Si 14.7615 17.5972 9.87516
C 13.7527 0.4589 10.1617
H 14.2084 1.00522 9.36835
H 13.3889 0.810634 11.2635
H 14.7997 16.7412 8.18065
C 14.1544 16.0052 10.5909
H 14.6704 15.4655 11.4846
H 13.5011 16.4523 11.4069
H 13.58 15.4965 9.70773
Si 0.663525 16.3267 15.4003
O 1.42231 15.179 14.4522
C 0.817668 16.0593 17.2168
H 1.36328 15.1724 17.7258
H 1.48447 17.257 17.5928
H 0.219858 16.542 18.2935
C 21.0698 17.2017 14.7119
H 21.3925 18.0046 13.8968
H 5.66766 18.7359 5.29013
H 20.5662 17.4857 15.8483
Si 2.33428 15.0827 12.951
O 2.55192 13.5155 13.4185
C 4.08278 15.8398 12.6668
H 4.54599 15.0032 11.9523
H 4.23367 16.8694 12.23
H 4.56102 15.7315 13.6845
C 1.34039 15.9832 11.6796
H 1.79516 16.9497 11.5704
H 1.22271 15.652 10.693
H 0.262827 15.8728 11.981
Si 3.35229 12.0668 13.2104
O 2.51611 10.8072 13.6216
C 4.45032 12.4653 14.7906
H 5.12511 13.3517 14.819
H 3.62375 12.8159 15.4051
H 4.88306 11.6063 15.3198
C 3.68671 12.0699 11.4081
H 2.75509 11.6526 11.0178
H 4.14983 12.8641 10.8127
H 4.24674 11.1354 11.1336
Si 2.01481 9.23465 13.4321
O 3.14076 8.23016 12.8233
C 0.412995 9.43363 12.42
H 21.5752 10.2012 11.5614
H 21.5305 8.6192 12.0444
H 0.267462 10.1002 13.6864
C 2.11365 8.58667 15.2364
H 2.30711 7.53916 15.255
H 3.09741 9.13159 15.6047
H 1.30103 8.6173 15.931
Si 3.73483 6.91451 12.0785
O 5.121 6.63973 12.752
C 2.73153 5.28687 11.6095
H 1.99114 5.61614 10.6816
H 3.5169 4.79058 11.1528
H 2.53113 4.75912 12.485
C 7.32526 6.93411 10.5717
H 6.7639 7.05643 9.64082
H 7.68724 8.01069 10.7067
H 8.09478 6.20686 10.4127
Si 6.63062 6.18515 12.1916
C 6.72572 4.44459 11.7389
H 6.13995 3.77299 12.3043
H 6.44675 4.59955 10.7521
H 7.51081 3.92262 11.2077
C 7.53315 7.20645 13.5467
H 7.18042 7.0901 14.5713
H 7.15271 8.1857 13.0911
Si 10.1902 0.532549 12.4308
O 9.74505 18.0495 13.1811
C 8.90665 2.07038 12.6857
H 9.20727 2.94784 12.1165
H 7.85036 1.72793 12.4408
H 8.96032 2.35184 13.7106
C 10.8061 0.393381 10.446
H 11.4748 18.6086 10.1917
H 9.95065 0.127132 9.94141
H 11.0749 1.40735 10.0917
Si 8.45534 17.1458 13.8855
O 9.26898 15.8424 14.4712
C 7.59232 18.0023 15.3378
H 7.91741 0.18416 15.4794
H 6.52428 17.7913 15.2164
H 7.8503 17.3614 16.2108
C 7.30052 16.7538 12.4169
H 6.64005 15.9148 12.6842
H 6.6415 17.5823 12.1188
H 7.88711 16.4557 11.5235
Si 9.99138 14.6395 13.5077
O 9.89836 13.2434 14.4629
C 11.7112 15.0384 12.9895
H 12.2131 14.3803 12.2651
H 11.6943 16.0775 12.6201
H 12.3451 15.0619 13.9376
C 8.98161 13.9544 12.0155
H 8.90662 14.6417 11.1336
H 9.25887 12.94 11.6975
H 7.92709 13.9654 12.3266
Si 10.8246 12.2412 15.244
O 10.1791 10.7312 15.1745
C 12.1966 11.7436 17.5966
H 12.1696 10.7261 17.464
H 11.4707 12.1835 18.2354
H 13.1586 11.4549 18.4217
C 12.8554 12.021 14.5607
H 12.6489 11.9849 13.4723
H 13.2758 13.0031 14.7111
Si 8.66548 10.0997 15.7739
O 9.11379 8.5159 15.9584
C 7.07275 10.1261 14.8366
H 6.24181 9.84689 15.5236
H 6.76573 11.1591 14.5363
H 6.94583 9.53309 13.9054
C 8.30184 11.1394 17.2583
H 7.35307 10.8667 17.7148
H 9.10824 11.086 18.0284
H 8.1296 12.1823 16.9626
Si 10.0616 7.35711 15.121
C 8.98421 7.04095 13.4622
H 9.25649 6.01034 13.1228
H 9.46633 7.69045 12.69
C 11.6002 7.92733 14.2265
H 12.0298 7.12672 13.611
H 11.2822 8.83159 13.665
H 12.3782 8.34135 14.9024
Si 19.0888 16.6103 14.0458
O 17.9775 16.2285 15.3374
C 4.61128 18.8743 5.0227
H 5.26996 0.630267 4.1856
H 4.1892 1.31431 5.11785
H 3.65879 17.9243 4.24925
C 19.9448 14.9163 12.8777
H 19.287 14.0986 12.6897
H 20.5213 15.4802 12.1387
H 20.8047 14.3849 13.2413
Si 17.1737 15.7067 16.9273
O 16.9268 14.1722 16.4781
C 18.7539 15.7577 18.2255
H 19.1824 14.8386 17.9767
H 19.3723 16.5973 17.5795
H 18.4233 15.8905 19.2855
C 15.565 16.8886 16.9575
H 14.7751 16.8408 17.6563
H 16.0584 17.8445 16.7468
H 14.9727 16.5413 16.0314
Si 17.0815 13.0422 17.533
O 16.3852 11.8388 16.5718
C 18.6493 12.4017 18.344
H 19.3478 12.8732 19.0384
H 18.2105 11.471 18.8785
H 19.2355 11.9206 17.4963
C 15.8367 13.3534 18.9077
H 16.2934 13.9808 19.6201
H 14.8306 13.6859 18.4069
H 15.7703 12.4307 19.4735
Si 15.7168 11.1076 15.2548
O 16.1925 9.5285 15.1615
C 13.7717 10.9064 14.9948
H 13.6656 10.0972 14.2906
H 13.4291 10.5522 15.9967
C 16.1658 12.4306 13.9738
H 15.7129 13.3651 14.4049
H 17.231 12.6391 14.0711
H 15.86 12.3467 12.9468
Si 17.6223 8.69713 14.9551
O 17.4022 7.02125 14.9974
C 18.2126 8.92374 13.1648
H 19.2909 9.08536 13.2812
H 18.0595 8.10761 12.4198
H 17.7748 9.86562 12.8158
C 19.0255 8.98677 16.1198
H 19.5788 8.05672 16.0693
H 19.7858 9.64701 15.6818
H 18.6391 9.18292 17.1338
Si 16.1777 5.95367 14.6643
C 14.3273 6.38823 14.6634
H 14.3859 7.06364 15.5428
H 14.0332 6.79957 13.7069
H 13.9206 5.36809 14.7529
C 16.5417 5.02035 13.0348
H 15.9071 4.1151 13.0667
H 16.3073 5.76136 12.2259
H 17.5796 4.73386 12.9598
523
 Atoms. Timestep: 2500
Si 2.79305 15.5103 2.41676
O 2.24065 13.8386 1.88303
C 2.68139 15.1526 4.13093
H 3.65075 15.5207 4.51005
H 1.82887 15.4652 4.75159
H 2.61771 14.0329 4.24017
C 4.74104 15.6108 2.17054
H 5.16457 14.7594 2.73315
H 5.22223 15.5639 1.17247
H 5.12859 16.5515 2.61711
Si 1.11391 13.1987 0.780572
O 0.648212 11.6913 1.42578
C 21.0426 15.3257 18.1866
H 0.466566 16.038 17.6736
H 20.4089 15.2403 17.2632
H 20.4379 15.9218 18.937
C 21.3604 14.1424 19.1186
H 17.4855 8.26813 12.0509
H 1.8212 13.582 17.631
H 5.16685 7.23491 15.8686
Si 1.31271 10.3221 2.5234
O 1.09441 8.9491 1.75957
C 3.4831 10.6127 2.64719
H 3.91476 11.6408 2.52159
H 3.86955 10.3383 3.68696
H 3.7032 9.9851 1.68113
C 1.87326 12.7113 18.4117
H 9.86346 4.42632 8.28183
H 2.77394 11.96 18.4243
H 1.17744 11.9675 17.7588
Si 0.516754 7.45211 1.59339
O 1.72261 6.40918 1.1915
C 20.2721 7.10677 0.926667
H 19.606 7.36331 19.3421
H 13.0896 12.1435 0.579586
H 19.9425 5.93885 1.25116
C 21.6002 6.15306 3.20074
H 1.45685 6.28807 3.35316
H 21.1026 6.68265 4.10467
H 21.0256 5.1726 3.3132
Si 2.68007 5.84823 19.2043
O 3.81464 5.10066 1.2296
C 3.91575 1.53495 14.5743
H 4.63663 1.7965 13.9517
H 3.90258 0.561425 14.9806
H 2.81516 1.82678 14.2863
C 2.2102 3.98929 18.6077
H 1.00625 3.66909 18.2744
H 3.33104 5.69399 15.1392
H 3.91186 2.31654 15.3975
Si 3.26049 3.46016 0.769469
C 4.53487 2.34299 0.479267
H 4.63382 2.16821 18.6638
H 5.51271 2.30026 1.17126
H 3.92183 1.57622 0.881451
C 2.46777 2.8449 2.33271
H 2.14195 3.75475 2.87839
H 1.43163 2.35355 2.53437
H 3.32616 2.7264 3.06031
Si 8.86266 15.8356 3.38629
O 9.42845 14.2937 3.07145
C 2.08065 17.049 1.76882
H 2.03175 18.0145 2.71069
H 1.19415 16.7913 1.16785
H 2.6714 17.3842 1.14759
C 10.2554 17.0982 3.3923
H 9.84825 18.0689 3.17807
H 10.6868 17.373 4.44055
H 11.0171 16.9216 2.60505
Si 10.6276 13.9934 1.80035
O 10.6189 12.3363 1.79331
C 12.1084 14.9881 2.21882
H 11.9511 16.1827 2.11393
H 12.3301 14.7539 3.37971
H 12.968 14.3776 1.51911
C 9.29861 14.7651 19.5859
H 10.5186 11.0355 18.118
H 10.6159 14.1152 19.4351
H 8.68874 14.3854 1.29498
Si 9.53644 11.4386 2.5957
O 9.11252 10.0361 1.58539
C 7.84671 11.9688 2.8927
H 7.61875 12.3642 3.89055
H 7.47995 12.7073 2.16556
H 7.37106 10.9881 2.80173
C 10.1879 11.0059 4.09423
H 10.1433 11.938 4.66479
H 9.52403 10.2498 4.56527
H 11.0953 10.5347 4.22917
Si 9.45612 8.44495 1.8625
O 9.23945 7.35253 0.584428
C 8.59658 7.66743 3.26257
H 9.1211 7.98613 4.19503
H 7.53541 7.91567 3.50676
H 8.58707 6.55935 3.12376
C 11.2136 8.1439 1.91403
H 11.8208 8.82495 1.24488
H 11.5527 8.61833 3.15888
Si 8.02881 6.38708 19.2755
O 8.5574 6.46889 17.7314
C 6.56333 7.52657 0.849859
H 6.87355 8.72156 0.603832
H 5.45309 7.63745 19.6395
H 6.09839 7.33337 2.03974
C 7.93954 4.86682 0.829059
H 7.29622 4.13478 0.469062
H 8.96982 4.1991 0.504294
H 8.0355 4.9736 2.26521
Si 9.34573 5.55825 16.4142
C 8.13852 4.13987 16.3784
H 8.07291 3.50368 17.3909
H 7.15031 4.65801 16.2082
H 8.30312 3.30121 15.5023
C 10.9074 4.72838 16.8238
H 10.6643 3.78192 16.2812
H 11.7388 4.93466 16.2586
H 11.1409 4.48593 17.8768
Si 17.842 12.0382 4.90955
O 16.7225 11.0317 4.41163
C 19.4515 11.7333 3.92686
H 19.9631 10.6912 4.02698
H 18.9994 12.0017 2.95802
H 20.3552 12.4574 3.9372
C 17.3385 13.807 4.80574
H 16.7506 14.2215 5.59154
H 18.3469 14.2451 5.02517
H 17.1085 14.334 3.84325
Si 15.5872 10.5975 3.2552
O 15.2705 8.99032 3.66556
C 17.7421 8.11185 7.07847
H 18.0094 9.0233 6.47403
H 17.0027 8.4772 7.77996
H 17.2452 7.38095 6.39055
C 14.0803 11.7366 3.82002
H 13.7848 11.1172 4.74152
H 14.3495 12.729 4.15894
H 13.253 11.8644 3.08593
Si 15.5721 7.91952 2.31899
O 14.1619 7.02248 1.96347
C 16.6002 8.95079 1.01604
H 16.105 9.24853 19.429
H 18.1205 8.5395 1.36311
H 2.84962 0.70252 7.24913
C 16.4946 6.46695 3.1078
H 17.5457 6.27355 3.18792
H 16.0344 6.67856 4.08624
H 15.8941 5.54071 2.89155
Si 13.2396 6.34017 0.744707
O 14.0733 5.05551 19.6378
C 11.5615 6.66115 1.65573
H 10.5671 6.12304 1.3596
H 11.5526 6.17152 2.56225
C 13.4211 7.70207 18.7003
H 13.1097 7.31774 17.6808
H 13.1844 8.8376 18.6282
H 14.4628 7.43657 18.6401
Si 14.9852 3.87752 18.8186
O 15.2125 4.31255 17.1986
C 14.3413 2.27389 19.2659
H 13.0742 2.20918 0.442
H 14.2145 1.85806 18.2746
H 15.032 1.79136 0.762985
C 16.8197 4.19594 19.1954
H 16.9578 5.01316 18.5479
H 17.2716 4.61936 0.882645
H 17.3568 2.99282 19.1249
Si 15.5412 4.33057 15.6039
C 15.3626 2.81923 14.6613
H 19.9396 12.1685 8.64295
H 15.3138 1.80392 15.0534
H 15.0421 2.71395 13.6961
C 2.2685 5.49591 15.1272
H 1.60435 6.20817 15.7357
H 2.43834 4.95143 15.9461
H 1.31678 5.25822 14.5243
Si 7.16567 15.2347 8.52505
O 5.74989 14.3854 8.30267
C 7.29654 16.7551 7.48268
H 6.41916 17.3599 7.57359
H 8.08723 17.4391 7.93883
H 7.68402 16.6757 6.45215
C 6.89375 15.9781 10.279
H 6.29863 16.8948 10.0998
H 6.5048 15.3685 11.0807
H 7.80316 16.3278 10.7419
Si 5.61174 13.1127 7.29418
O 6.14513 11.7463 8.07249
C 6.62349 13.3906 5.84022
H 6.25709 14.1081 5.10097
H 7.68858 13.5795 6.00194
H 6.61804 12.4369 5.31543
C 3.74847 13.0011 6.98304
H 3.32789 12.313 7.75295
H 3.22073 13.9443 7.08491
H 3.61358 12.5535 5.98787
Si 6.821 10.2792 7.84736
O 5.87771 9.315 6.93769
C 7.21797 9.70281 9.61148
H 7.81864 8.7883 9.78459
H 7.94073 10.5012 9.92838
H 6.43625 9.82706 10.3813
C 8.52988 10.2867 7.05354
H 9.13909 10.7567 7.85959
H 8.90152 9.27314 6.87174
H 8.72105 10.8754 6.12828
Si 5.13387 7.82134 7.33579
O 6.05718 6.4463 7.2361
C 4.05476 8.08319 9.12686
H 3.24428 8.69172 8.80023
H 3.99141 6.98096 9.13732
H 4.88844 8.64731 9.57287
C 3.70849 7.60891 6.03274
H 3.98633 7.00982 5.16209
H 2.83652 7.09273 6.44787
H 3.36156 8.6391 5.79298
Si 5.97769 4.86771 6.57742
O 7.26124 3.96578 6.77302
C 4.33817 4.09021 7.22139
H 4.18502 4.3011 8.28302
H 3.59753 4.80259 6.83588
H 4.09177 3.07825 6.8892
C 5.78566 4.75905 4.74455
H 6.60171 5.23592 4.22573
H 5.75304 3.68251 4.64126
H 4.85415 5.08071 4.26428
Si 8.84074 3.30371 7.0808
C 8.86158 1.65219 7.89804
H 8.26337 0.946559 7.46973
H 9.89329 1.19513 8.05431
H 8.51621 1.72919 8.90915
C 9.64435 3.26914 5.29696
H 8.90862 2.81293 4.59856
H 10.5135 2.58406 5.36778
Si 13.1568 16.1429 7.55967
O 12.6115 14.9631 8.5988
C 11.6416 17.1337 6.96487
H 10.6712 16.8771 7.48726
H 11.8702 18.1841 7.31685
H 11.2823 17.2996 5.95203
C 14.063 15.4777 6.2154
H 14.7676 16.2051 5.79986
H 14.7463 14.6122 6.43453
H 13.4571 15.4907 5.22634
Si 11.563 13.73 8.84565
O 12.2796 12.4368 9.48149
C 10.3982 14.4353 10.1865
H 9.5531 14.8159 9.61969
H 10.019 13.5986 10.7865
H 10.8448 15.2189 10.8314
C 10.7134 12.9725 7.32846
H 11.2107 13.1993 6.38612
H 10.7525 11.8759 7.44734
H 9.65604 13.2426 7.40615
Si 13.2729 11.2031 9.9559
O 13.09 9.94366 8.89095
C 12.5877 10.6252 11.6438
H 12.9289 11.3002 12.4445
H 11.4951 10.6541 11.668
H 12.9708 9.64476 11.9194
C 15.0366 11.893 10.0548
H 15.0847 12.9443 9.65405
H 15.3092 11.9108 11.1345
H 15.7581 11.2509 9.54917
Si 13.8892 8.57176 8.34737
O 12.7834 7.32342 8.25197
C 15.0847 8.29312 9.7455
H 15.7776 9.10858 10.0067
H 14.5098 8.07943 10.6306
H 15.7953 7.41095 9.58237
C 14.4213 8.98264 6.54727
H 14.0172 8.11223 5.94083
H 13.8202 9.86517 6.29214
H 15.4696 9.20859 6.35904
Si 11.7926 5.99526 8.57242
O 12.0002 5.08825 7.20737
C 10.1637 6.87946 8.83117
H 9.24332 6.38511 8.49955
H 10.1395 6.89085 9.927
H 10.3081 7.88308 8.40823
C 12.4541 5.07345 10.0882
H 12.9908 4.1319 9.9353
H 13.0368 5.75431 10.7295
H 11.5768 4.88601 10.7538
Si 11.6992 5.52624 5.56735
C 10.0938 4.71349 4.84951
H 10.3961 4.87338 3.80772
H 9.15401 5.30931 5.06771
C 13.1641 4.87354 4.67217
H 13.5983 4.14386 5.36964
H 12.8667 4.40383 3.69857
H 13.8482 5.68986 4.4291
Si 19.2722 7.30477 8.04362
O 19.6182 5.98475 6.9974
C 18.7537 6.93382 9.82023
H 17.9197 6.23585 9.77504
H 19.664 6.68196 10.3755
H 18.4728 7.89274 10.2738
C 20.8109 8.24712 7.72165
H 21.0364 8.84238 6.397
H 20.6977 9.38937 8.12958
H 0.582356 7.88573 8.41319
Si 20.3722 4.33759 6.64979
O 20.3963 3.18581 7.88584
C 19.2541 3.89778 5.09977
H 18.2387 3.86341 5.66198
H 19.2011 4.93243 4.65619
H 19.4908 3.34102 4.12285
C 3.51414 18.6727 6.55424
H 8.38515 18.2757 5.50174
H 4.31872 18.0692 7.34623
H 3.17088 18.2819 5.62879
Si 19.5797 2.55344 9.17296
O 19.9189 1.05673 9.62937
C 19.864 3.69294 10.6898
H 20.9083 3.78541 10.7927
H 19.6014 4.77245 10.4553
H 19.543 3.19277 11.5375
C 17.7484 2.7119 8.79617
H 17.3767 3.72812 8.85114
H 17.375 2.35939 7.88115
H 17.3011 2.16978 9.65339
Si 20.819 18.0778 8.54357
O 19.3367 17.3829 8.15376
C 21.062 18.2034 6.25112
H 21.5907 0.690593 7.02568
H 1.21856 17.6704 6.1896
H 20.1881 17.7969 5.90191
C 0.425935 16.88 9.56164
H 21.4636 17.2826 10.672
H 19.7244 12.8581 8.7406
H 1.35557 16.3839 9.39374
Si 17.8851 17.308 9.4176
O 16.6574 18.3776 8.90851
C 17.3489 15.6128 8.74014
H 16.6676 15.0187 9.28796
H 16.8395 15.9579 7.71458
H 18.1565 14.7882 8.57857
C 18.2495 17.3721 11.2004
H 18.4065 18.5261 11.2163
H 8.92469 14.5566 18.7984
H 14.8259 2.24206 6.71634
Si 15.2525 0.715033 8.84848
C 14.2221 1.9682 7.80438
H 14.1738 3.10911 8.22797
H 13.2306 1.40568 7.9555
H 13.9579 17.0463 8.54796
C 14.7396 1.48448 10.6211
H 14.2009 2.20064 10.1591
H 13.8984 0.802812 11.3151
H 15.6588 1.92616 11.285
Si 20.9781 16.5199 13.5284
O 0.912259 15.4741 13.1644
C 21.1185 18.4736 14.1463
H 0.707846 0.659532 14.2022
H 21.0095 18.5048 13.057
H 19.8676 18.1761 13.9144
C 19.6493 15.5593 13.8838
H 18.9614 16.1916 14.7263
H 8.59264 0.54775 5.66356
H 19.5249 14.4537 13.9362
Si 2.41639 14.6682 12.923
O 2.08357 13.297 13.7386
C 3.69872 15.9864 13.5164
H 4.04658 16.205 12.5227
H 3.06257 16.6975 14.1423
H 4.49188 15.6881 14.1757
C 2.89004 14.5624 11.1868
H 2.23498 15.3507 10.7259
H 3.86185 14.9943 10.9131
H 2.66874 13.6878 10.4597
Si 3.14275 12.1613 13.535
O 2.78957 11.3887 12.0511
C 3.50129 10.8998 14.8511
H 3.23006 11.13 15.885
H 3.04518 9.93089 14.563
H 4.63174 10.9011 14.9308
C 4.90966 12.586 12.9648
H 5.22017 13.275 12.1907
H 5.34425 12.8366 13.9688
H 5.19528 11.5453 12.8988
Si 2.0465 10.1433 11.602
O 3.49531 8.81702 11.8661
C 1.47746 10.5275 10.0723
H 19.1408 9.01537 14.2833
H 2.09811 10.2316 8.68323
H 0.432525 10.1423 9.77263
C 0.849598 9.45449 12.7261
H 0.40836 8.56892 12.1712
H 1.68961 9.00798 13.3827
H 0.420207 10.0095 13.5243
Si 3.52923 7.38567 11.0716
O 4.62709 6.29816 11.6265
C 1.95038 6.17993 10.8567
H 2.33097 5.29098 11.1778
H 1.39506 6.4194 11.6243
H 1.67365 6.20828 9.81001
C 7.15342 5.84045 10.2749
H 6.48835 5.56307 9.45564
H 7.48488 6.8663 10.2107
H 8.12999 5.37015 10.2139
Si 6.19475 5.81307 11.9436
C 6.12438 3.91621 12.4868
H 6.73249 3.49428 13.3033
H 5.26885 3.80078 13.0667
H 5.98934 3.23758 11.6502
C 7.1023 7.11249 13.0397
H 6.66743 7.45932 14.0011
H 7.23171 7.9773 12.4006
Si 9.59817 0.410349 13.5549
O 8.4032 18.201 14.6203
C 10.485 2.21776 14.1563
H 11.4099 2.16622 14.574
H 10.4795 2.95116 13.3122
H 10.0005 2.76373 14.9889
C 9.68394 18.3275 11.6936
H 15.6256 17.7163 4.58698
H 9.88053 17.4741 11.0892
H 8.5247 0.430827 11.7386
Si 8.6734 17.308 15.8597
O 9.62847 15.9769 15.5102
C 9.42962 18.6261 17.226
H 10.4982 18.7337 17.4389
H 8.92104 1.21589 17.1204
H 9.07417 18.4747 18.2344
C 7.03147 16.4355 16.7992
H 6.67928 15.4594 16.4395
H 7.44727 16.1999 17.787
H 6.13434 17.064 16.9004
Si 9.8236 14.6105 14.5276
O 9.98275 13.3973 15.7711
C 11.2428 14.9896 13.5704
H 11.926 15.5945 14.2312
H 11.8626 14.1927 13.1176
H 10.8435 15.5931 12.7365
C 8.341 14.3722 13.6104
H 8.31968 15.2443 12.931
H 8.19722 13.4707 13.0383
H 7.55914 14.341 14.3956
Si 10.7829 12.3058 16.5546
O 10.2996 10.7342 16.0892
C 13.6348 13.1215 19.4277
H 14.2177 12.9597 18.5001
H 14.2177 13.6964 0.864766
H 12.8369 13.9576 19.3709
C 12.7004 12.7411 16.4305
H 13.0105 13.202 15.4621
H 12.8152 13.49 17.2091
Si 8.88759 9.81966 15.9797
O 9.19912 8.51782 15.0362
C 7.89667 10.9802 14.8553
H 8.45643 10.9642 13.9162
H 6.86834 10.5554 14.6185
H 7.7895 12.0198 15.2051
C 8.06478 9.84989 17.7706
H 8.85078 10.0956 18.5284
H 7.27066 10.5925 17.6684
H 7.57881 8.88689 17.98
Si 9.71538 7.06834 14.6169
C 8.61873 6.57996 13.1855
H 8.37412 5.52386 13.108
H 9.11103 6.86808 12.2551
C 11.5607 7.27185 14.1787
H 12.1889 6.99425 15.0427
H 11.9354 6.54047 13.4462
H 11.7432 8.32482 13.9593
Si 18.341 16.0257 12.5462
O 16.7256 16.3716 13.4608
C 7.74702 17.4032 1.79955
H 15.5363 17.2739 5.39727
H 7.38694 16.957 2.78216
H 7.89651 18.6032 1.72264
C 17.4636 14.4736 11.8467
H 17.2921 14.375 10.8207
H 18.328 13.7806 12.154
H 16.6245 14.0952 12.4952
Si 16.4427 16.181 15.1344
O 17.0418 15.1371 16.2698
C 16.9703 17.8695 15.5707
H 16.396 18.4782 14.932
H 16.5328 18.1117 16.7418
H 18.0246 17.9957 15.3915
C 14.6319 16.5044 15.6425
H 14.6658 16.9552 16.6038
H 14.006 16.994 14.9306
H 14.1993 15.48 15.8087
Si 17.5246 13.669 16.6988
O 16.2695 12.5784 16.8517
C 19.0418 13.2607 15.8487
H 19.6996 14.0821 16.0527
H 4.58981 7.11533 15.5216
H 19.636 12.3256 15.8468
C 17.9653 14.1683 18.5136
H 18.658 15.0395 18.5986
H 17.2401 14.0684 19.1053
H 18.671 13.6026 19.1471
Si 15.3541 11.5717 16.0104
O 15.9636 10.0426 16.0726
C 13.53 11.4518 16.6659
H 13.0559 10.5058 16.2474
H 13.5937 11.2729 17.7783
C 14.9947 12.1359 14.2402
H 14.5187 13.0854 14.1813
H 15.8648 12.1627 13.5611
H 14.2501 11.353 13.9422
Si 17.2627 9.13369 15.5663
O 16.6492 7.61175 15.4002
C 17.9556 10.0054 13.9568
H 18.1717 11.0272 14.1442
H 17.2079 7.59435 12.2639
H 17.1713 9.9596 13.1194
C 18.6659 8.87566 16.7675
H 19.3836 8.16681 16.2923
H 19.0839 9.81465 17.1336
H 18.196 8.37494 17.6225
Si 16.3977 6.28009 14.4626
C 15.1749 6.50581 13.0794
H 14.1115 6.45743 13.3306
H 15.2917 7.47561 12.5742
H 15.2613 5.65002 12.3981
C 18.1418 5.44211 14.1459
H 17.9691 4.7508 13.2783
H 18.7319 6.26312 13.8242
H 18.2891 4.85846 15.0975
523
 Atoms. Timestep: 3000
Si 3.42949 14.5665 2.86768
O 2.72417 14.3713 1.29545
C 2.66242 13.5285 4.27004
H 2.55794 13.9606 5.2803
H 1.7086 13.0192 4.00618
H 3.34774 12.6424 4.4397
C 5.23996 14.7572 2.82007
H 5.82401 13.8408 2.58952
H 5.59484 15.4754 2.08523
H 5.54575 15.0277 3.8342
Si 2.02332 13.3463 19.3296
O 1.46994 12.0331 0.50699
C 20.1346 15.5991 19.3735
H 20.8194 15.0773 0.97424
H 20.7962 15.708 18.4419
H 18.6851 16.1938 2.4377
C 18.9475 15.8754 1.40413
H 21.0576 13.2686 10.3675
H 3.39182 12.7725 17.3099
H 20.6587 11.9627 14.042
Si 2.55815 10.6911 19.0916
O 1.54154 9.28499 19.1745
C 4.33024 11.2471 0.586354
H 4.08592 11.2441 1.66677
H 5.20067 10.632 19.3539
H 4.50046 12.1932 19.2833
C 3.50768 13.6893 17.8961
H 9.54637 5.02065 8.53411
H 2.67227 14.4518 17.6108
H 4.51749 14.1558 17.6585
Si 0.974159 8.26606 1.08891
O 1.94608 8.49042 2.44606
C 1.75473 6.79565 18.8591
H 0.883124 6.82045 18.2741
H 13.4866 13.7533 19.0728
H 2.42934 7.6727 18.6119
C 19.9538 7.31532 1.08263
H 19.3522 6.56336 19.3526
H 20.1253 7.34641 2.27286
H 19.3544 7.9334 0.49567
Si 2.19717 6.29612 2.53362
O 0.823224 5.38219 2.61454
C 2.06381 1.62575 14.2541
H 2.62939 1.0914 14.92
H 1.03574 1.76505 13.6452
H 2.48706 1.81252 13.0244
C 2.82661 5.63143 19.2586
H 3.92246 5.95913 19.2826
H 20.3102 4.77556 13.4633
H 2.21247 2.76883 14.5609
Si 2.68119 3.71262 19.3796
C 4.46714 3.22613 18.4427
H 4.03142 1.93774 18.4108
H 4.25863 3.8274 17.4972
H 5.42362 3.12277 18.8923
C 1.32808 2.72125 19.1515
H 21.4297 3.37446 19.1387
H 1.11939 2.12945 18.0404
H 1.34081 1.95396 0.860621
Si 8.71399 17.3253 2.53075
O 8.44258 15.5713 2.70679
C 3.06324 16.372 3.5085
H 2.97414 16.2651 4.71824
H 2.18222 16.7955 3.15116
H 3.9335 17.0709 3.32084
C 9.16184 18.5515 3.83681
H 8.4826 1.35811 3.90991
H 9.17036 18.3151 5.00005
H 10.364 0.734589 3.46485
Si 9.94506 14.5736 2.24069
O 9.07849 13.0439 2.27368
C 10.8604 14.917 3.94007
H 10.3493 15.2734 4.6753
H 11.2462 13.8303 4.23614
H 11.8312 15.4278 3.52394
C 11.0575 14.8519 0.871503
H 11.6159 15.5148 19.2527
H 11.6077 11.486 16.6779
H 10.7903 13.7952 0.55303
Si 8.90541 11.4777 3.05316
O 10.3396 10.4774 2.82797
C 7.2687 10.3321 2.89366
H 6.67392 11.2518 2.85807
H 6.84674 9.90478 1.98974
H 7.33635 9.79971 3.84759
C 8.12916 12.1669 4.72061
H 7.09949 12.5435 4.33649
H 8.12333 11.3815 5.47195
H 8.62821 13.0393 5.05912
Si 10.6015 8.87828 2.36019
O 9.34829 8.21548 1.47801
C 11.0921 8.05228 3.97766
H 12.0009 8.52225 4.31024
H 10.2934 8.19867 4.73804
H 11.1254 6.93215 3.85437
C 12.0732 8.75152 0.936114
H 11.6075 9.09618 19.1037
H 12.7103 9.72676 1.36125
Si 8.12751 7.30673 0.773454
O 9.49861 6.51096 18.777
C 6.74683 8.20387 18.688
H 5.80183 7.84373 18.814
H 3.57461 6.32823 3.26022
H 6.73792 7.91476 17.676
C 7.72773 5.67118 1.88509
H 8.66488 5.15813 1.74865
H 7.35311 6.05749 2.7889
H 7.01901 5.52159 1.16363
Si 8.95458 5.80769 17.2855
C 7.10156 5.22478 16.9986
H 7.29094 4.92408 15.8688
H 6.64422 4.46776 17.6824
H 6.32977 6.10837 16.9203
C 9.7376 4.10982 17.1727
H 10.7471 3.79853 17.6291
H 9.07703 3.17465 17.391
H 9.8314 3.72157 16.1444
Si 16.8997 12.5019 4.354
O 15.4337 12.1452 5.42173
C 18.3607 11.6149 4.81965
H 18.7674 12.127 5.71753
H 18.1756 10.5166 4.96263
H 19.216 11.7014 4.20069
C 16.9989 14.2684 4.38531
H 15.9977 14.7439 4.10206
H 17.3824 14.5299 5.39864
H 17.8575 14.3778 3.64544
Si 14.5914 10.9527 4.33475
O 14.5322 9.23102 4.75472
C 20.3245 8.14916 5.76399
H 21.3122 7.64711 5.87567
H 20.3804 9.25382 5.68692
H 20.0749 7.67548 4.85252
C 12.8726 11.6421 4.34152
H 12.7591 11.9739 5.41263
H 12.9127 12.6241 3.81802
H 11.9751 11.1434 3.96958
Si 15.8185 8.44538 3.94873
O 15.4271 8.06443 2.38115
C 16.0745 11.3983 3.01765
H 16.7947 10.3384 3.13688
H 16.3713 11.4006 1.99398
H 5.96345 0.821724 11.3243
C 16.3447 6.88924 4.8285
H 17.2516 6.66498 4.15309
H 16.732 6.66517 5.81548
H 15.6496 6.06565 4.74693
Si 14.7104 7.57395 0.951014
O 15.4737 6.22458 0.681962
C 12.8573 7.52751 1.16306
H 12.3634 6.8381 0.484861
H 12.8292 7.09914 2.26102
C 14.6417 8.64156 18.5743
H 14.3435 7.81821 17.923
H 13.9251 9.62429 18.5319
H 15.6622 8.80454 18.1688
Si 15.2123 4.44979 19.0795
O 15.2508 4.91762 17.4391
C 13.8519 3.67784 0.803438
H 12.9804 4.06449 1.29935
H 12.8277 2.18606 19.2886
H 13.9599 2.62934 1.41075
C 16.6813 3.35118 18.9249
H 15.8086 0.560487 3.67449
H 16.3799 2.23921 18.5978
H 17.4477 3.41031 18.0221
Si 14.703 4.32915 15.9066
C 14.3323 2.86857 15.2693
H 20.1068 14.1552 8.11902
H 13.71 2.21563 15.8005
H 14.385 2.72371 14.1619
C 20.4167 4.52512 14.4586
H 19.3118 3.83077 14.8022
H 20.6544 5.45473 15.2186
H 21.4222 3.76461 14.5101
Si 6.61271 14.8275 10.0141
O 6.22016 13.3214 9.54192
C 8.03653 15.8218 9.41523
H 8.90398 15.6078 10.1663
H 8.39463 15.4663 8.46422
H 7.87626 16.8774 9.64171
C 5.05191 15.7681 10.3854
H 5.24191 16.8137 10.0484
H 4.14429 15.422 9.83039
H 4.7633 15.7308 11.4395
Si 5.31604 12.5844 8.20863
O 5.9073 11.0933 7.75565
C 5.51754 13.9084 6.86422
H 5.15425 14.898 7.23324
H 6.60211 13.9148 6.64861
H 5.05291 13.6317 5.90236
C 3.4505 12.3331 8.32596
H 3.0539 12.329 9.34507
H 2.88452 13.0586 7.67214
H 3.29194 11.3434 7.87413
Si 6.16601 9.45714 8.04584
O 4.80662 8.75209 7.2283
C 6.15695 9.05025 9.91402
H 6.31555 9.92082 10.5716
H 5.15451 8.68163 10.191
H 6.86409 8.21821 10.0948
C 7.81811 9.11472 7.18995
H 7.55938 8.94707 6.13686
H 8.49791 10.033 7.18061
H 8.21668 8.16937 7.54661
Si 4.36832 7.17409 7.42168
O 5.82548 6.37371 7.69249
C 3.22927 6.51857 8.6199
H 3.70055 6.70611 9.60968
H 2.23381 6.87225 8.69014
H 3.15461 5.47502 8.51821
C 3.07585 7.42299 5.48457
H 2.60948 7.98977 6.35277
H 4.19635 7.25994 5.27797
H 3.10274 8.2019 4.52142
Si 6.15535 4.93446 6.6908
O 7.73738 4.6023 7.15407
C 4.80504 3.93802 7.20613
H 5.00312 3.4961 8.18518
H 3.80371 4.41257 7.11883
H 4.83243 3.0558 6.57207
C 6.19509 5.41591 4.94222
H 6.21213 6.47782 4.86944
H 7.17706 5.22952 4.46427
H 5.45581 4.93775 4.22943
Si 9.06924 3.98285 7.94324
C 8.85848 2.41303 9.04787
H 7.84679 2.24417 9.30729
H 9.23876 1.55641 8.44208
H 9.48525 2.48787 9.84637
C 10.4633 3.61098 6.58591
H 10.1736 2.66514 6.10283
H 11.3301 3.3836 7.24498
Si 12.8565 15.3414 7.20873
O 11.4569 14.4221 7.37067
C 13.1333 16.056 8.96424
H 12.0896 15.9299 9.28686
H 13.8582 15.6132 9.60075
H 13.343 17.0784 8.99811
C 12.6375 16.6647 5.89807
H 12.2065 17.6408 6.35969
H 13.6293 16.9181 5.38166
H 11.9753 16.3606 5.17561
Si 11.1278 13.3316 8.606
O 12.3064 12.0295 8.40354
C 11.2808 13.8251 10.5019
H 10.7728 14.7296 10.8565
H 11.0006 12.9747 11.0968
H 12.3304 13.9909 10.6129
C 9.39339 12.8142 8.2769
H 9.23246 12.1569 7.41727
H 8.98095 12.45 9.21937
H 8.79411 13.7005 8.08514
Si 12.0416 10.6708 9.2596
O 13.1421 9.56148 8.81777
C 10.2541 9.95697 9.22417
H 9.60534 10.4449 9.96381
H 9.88133 10.1452 8.20819
H 10.1638 8.88377 9.43453
C 12.6271 11.2221 10.9923
H 13.2477 10.4723 11.4704
H 13.223 12.0659 10.7623
H 11.8053 11.4089 11.7096
Si 13.9936 8.18516 9.29904
O 13.1968 7.14059 10.3032
C 15.5122 8.49695 10.3009
H 16.2801 9.14115 9.83203
H 15.2637 8.90411 11.3325
H 16.0412 7.6047 10.6223
C 14.4312 7.6983 7.58533
H 15.0438 6.8471 7.28233
H 13.4164 7.48693 7.16486
H 14.7762 8.5826 7.0681
Si 12.6642 5.6522 9.93711
O 12.4152 5.67278 8.23984
C 11.1082 5.42134 10.9763
H 10.3368 6.18983 11.0106
H 10.7371 4.4517 10.5805
H 11.4952 5.08722 11.9694
C 13.8966 4.20875 10.2134
H 14.6839 4.54881 10.8994
H 13.383 3.42037 10.7899
H 14.3193 3.72915 9.32482
Si 12.1858 5.71084 6.64703
C 10.6558 4.83067 5.73503
H 10.9909 4.54357 4.73637
H 9.6594 5.33169 5.65687
C 13.5657 5.1563 5.47864
H 14.136 4.28306 5.71489
H 13.0734 5.14735 4.48092
H 14.273 5.97714 5.36861
Si 19.3714 7.41445 7.30639
O 18.9888 5.8233 6.94068
C 17.761 8.43934 7.2593
H 17.3132 8.23715 6.31159
H 17.1216 8.22346 8.14602
H 18.0132 9.4764 7.40246
C 20.3259 7.13096 8.67302
H 21.2804 6.43237 9.09423
H 20.7512 8.02765 9.40934
H 2.59472 6.52206 5.51126
Si 20.1603 4.70994 6.88591
O 19.779 3.76653 8.19645
C 20.3564 3.72743 5.47253
H 20.6903 4.391 4.69599
H 21.0858 2.8363 5.58692
H 19.5397 3.25583 4.83051
C 4.7696 0.962854 11.0084
H 3.57345 17.9334 19.013
H 3.93498 18.6595 11.2007
H 5.21719 2.17868 9.79258
Si 20.9148 2.73999 8.97656
O 20.8632 1.22025 8.12522
C 1.6055 3.10396 8.18499
H 2.23208 2.04943 8.28986
H 1.85997 2.89606 7.03653
H 2.03732 4.03063 8.52633
C 20.792 3.02385 11.0552
H 20.0812 2.18719 11.1054
H 0.638462 2.69753 11.6638
H 20.2269 3.97585 11.068
Si 20.5083 17.9905 7.42415
O 19.0008 17.4813 7.54487
C 21.0252 18.3206 5.78026
H 0.759621 17.2091 5.07416
H 2.41444 16.8836 6.51387
H 21.3444 1.02699 6.33786
C 2.7196 17.7033 7.07459
H 3.80586 18.0577 6.68592
H 20.7047 14.5636 7.82966
H 2.69836 17.9463 8.14457
Si 17.5063 17.3079 8.39265
O 16.5175 18.4357 7.66244
C 16.7073 15.6562 7.88369
H 15.6713 15.6024 7.54287
H 17.4259 15.4489 7.06864
H 16.7199 15.2768 8.85897
C 17.7746 17.0289 10.1955
H 18.123 17.9552 10.7929
H 9.98276 14.8657 19.4263
H 18.0472 0.522515 4.11405
Si 17.2576 0.863922 6.21579
C 17.5743 18.0878 4.63187
H 17.692 16.9403 4.91974
H 17.0109 17.8239 3.66015
H 13.8711 14.5203 6.64667
C 16.8571 2.70965 6.32996
H 15.8558 2.44659 6.919
H 17.54 3.2849 6.97835
H 16.5645 3.34192 5.38769
Si 20.9648 12.998 13.413
O 1.00437 13.8855 14.5637
C 19.6821 14.2647 12.7621
H 9.53599 1.99287 18.7718
H 9.89123 1.46824 0.433361
H 18.7457 11.8934 17.4329
C 19.7206 15.4144 11.8201
H 20.1492 15.5255 10.6139
H 4.07799 18.4546 18.924
H 20.4574 16.0973 12.1227
Si 2.29792 14.3995 13.6247
O 3.38647 13.1872 13.3799
C 3.28894 15.7845 14.6142
H 3.86417 16.4052 13.8632
H 2.66112 16.2828 15.4408
H 4.1423 15.304 15.0797
C 1.92138 15.326 11.9603
H 1.61934 16.3459 12.2935
H 2.88722 15.6201 11.477
H 1.09523 14.9266 11.219
Si 3.31992 11.5652 13.0645
O 2.47169 11.0264 11.8562
C 2.94016 10.6878 14.5114
H 1.98697 10.1097 14.421
H 3.77996 10.0208 14.7719
H 2.89183 11.5249 15.2667
C 5.03452 11.3658 12.6264
H 5.30781 11.8078 11.6341
H 5.54013 11.8364 13.5072
H 5.01519 10.3181 12.6328
Si 1.37911 10.0332 11.1376
O 2.18524 8.6578 10.7708
C 0.859276 10.4369 9.38167
H 19.6985 7.469 14.0703
H 0.605509 9.83916 8.35063
H 21.4917 11.3322 9.13135
C 20.6118 9.90595 11.703
H 19.6694 9.59197 10.8945
H 20.6036 9.3685 12.9132
H 20.3881 10.8605 12.1142
Si 2.85817 7.25688 11.4386
O 4.35322 7.17505 11.9429
C 1.82861 5.81608 11.7289
H 1.29862 5.2623 10.8421
H 2.36246 4.91396 12.1975
H 0.920125 5.91734 12.2455
C 6.94493 5.59239 11.3448
H 6.53156 6.05365 10.4337
H 7.95664 6.05191 11.5026
H 7.06695 4.4718 11.4247
Si 5.56577 6.19365 12.6399
C 4.7579 4.61986 13.4349
H 5.36981 3.67931 13.2407
H 4.98779 4.71056 14.4685
H 3.77355 4.16938 13.2596
C 6.67877 7.0295 14.1057
H 6.38876 6.94405 15.1625
H 6.66102 8.11614 13.9517
Si 9.38371 1.53246 13.3772
O 9.73762 18.4606 14.3495
C 10.627 2.72048 13.2361
H 10.0069 3.61906 12.9889
H 10.9239 2.95395 14.3356
H 11.5222 2.3676 12.7271
C 7.61706 1.88104 13.4182
H 17.3282 3.01205 3.2598
H 7.57059 2.91747 13.2824
H 6.52446 1.39459 13.3587
Si 10.2224 17.7275 15.6806
O 10.3218 16.1027 15.5113
C 12.1245 18.0493 16.1216
H 12.1889 0.549758 17.0129
H 12.3862 17.0618 16.6368
H 12.6674 18.2233 15.228
C 9.31334 18.3603 17.0288
H 8.63133 0.792868 16.5211
H 9.00279 17.3314 17.4129
H 9.64836 0.599084 17.9734
Si 10.661 14.6878 14.6648
O 11.1362 13.6019 15.7925
C 12.0854 15.0128 13.5929
H 12.9384 14.3448 13.6772
H 11.7472 15.0534 12.5292
H 12.4081 16.0682 13.7934
C 9.23981 14.1401 13.6387
H 9.56065 13.1381 13.3001
H 8.29193 14.0113 14.214
H 9.05927 14.9545 12.9191
Si 11.4448 12.0488 15.4505
O 10.3799 11.1975 14.6139
C 13.971 12.6378 18.7702
H 12.9714 11.9588 18.8421
H 14.6576 12.2576 19.4965
H 14.345 12.8609 17.7688
C 13.2844 11.898 14.8567
H 13.4623 11.7303 13.7863
H 13.8154 12.693 15.3884
Si 9.11812 10.2453 14.9634
O 9.37516 8.75048 15.5562
C 8.29836 10.2951 13.1873
H 7.37366 9.72836 13.3742
H 7.85899 11.3018 13.2686
H 8.80842 10.2393 12.244
C 8.19142 11.1507 16.2073
H 8.11588 10.7204 17.2063
H 8.58064 12.1151 16.5298
H 7.19072 11.3002 15.7692
Si 9.33104 7.13939 15.3456
C 8.24758 6.72162 13.9333
H 8.43033 5.70893 13.5454
H 8.73267 7.22348 13.0879
C 11.1275 6.74116 14.8055
H 11.7373 6.62269 15.7126
H 11.1627 5.84795 14.1627
H 11.6361 7.48826 14.1417
Si 17.4377 15.6969 11.4027
O 16.8011 15.9825 12.9222
C 7.06833 18.0681 2.81454
H 17.1547 1.72546 3.45034
H 6.34899 0.586839 3.24329
H 6.66489 16.823 3.12871
C 16.7151 13.9756 11.0668
H 17.1734 13.0475 11.5284
H 15.6508 14.3115 11.1489
H 17.0322 13.5753 10.0077
Si 16.7998 15.6758 14.5707
O 17.3762 14.1721 15.0114
C 18.1248 16.7662 15.2181
H 17.4348 17.6943 15.363
H 18.5897 16.5415 16.1533
H 19.1278 17.1011 14.705
C 14.9836 16.2605 14.6339
H 14.711 15.5952 15.3705
H 14.7697 17.221 15.1272
H 14.5212 16.3128 13.6553
Si 16.9116 13.4197 16.5134
O 16.1373 12.0371 16.2727
C 18.4112 12.946 17.3835
H 20.1211 15.7334 15.8685
H 20.3126 15.151 16.113
H 18.9239 13.7894 16.8629
C 16.0569 14.7903 17.4823
H 17.3405 15.3531 17.6763
H 15.5702 15.5843 16.7917
H 15.764 14.3481 18.3408
Si 15.5926 10.7536 15.2956
O 16.4117 9.37509 15.5187
C 13.7092 10.6455 15.6696
H 13.2321 9.69545 15.476
H 13.5975 10.6654 16.7659
C 15.8643 11.0391 13.6104
H 16.7211 10.7112 13.014
H 14.8471 10.7086 13.2411
H 15.8093 12.1348 13.5355
Si 17.3676 7.88734 15.5725
O 16.8054 6.57152 14.8753
C 18.9487 8.47269 14.4064
H 19.3832 9.34222 15.0534
H 0.906898 13.4298 9.89667
H 18.3111 8.86454 13.3925
C 18.0283 7.54732 17.315
H 18.0299 8.41871 17.9744
H 17.5058 6.75207 17.8734
H 19.1038 7.36116 17.2915
Si 15.6885 5.4356 14.3337
C 14.7486 6.39226 13.1151
H 15.1601 5.92891 12.1644
H 13.6615 6.09844 13.0548
H 14.7265 7.47577 12.9828
C 16.3783 3.87915 13.2003
H 16.3284 4.02998 12.0533
H 17.3837 3.47461 13.4106
H 15.5434 3.22233 13.098
523
 Atoms. Timestep: 3500
Si 1.58797 14.8624 2.81556
O 1.42468 13.337 1.84818
C 0.852233 16.1812 1.83172
H 1.70496 17.0394 1.86026
H 21.1175 16.2448 0.776257
H 3.82147 16.6697 7.09061
C 21.1097 14.1842 4.3157
H 19.9928 13.9744 4.01721
H 1.21599 13.3592 4.49864
H 21.1477 14.7969 5.24427
Si 1.64358 13.8555 18.7842
O 2.96916 12.8178 18.0832
C 18.6867 2.25849 0.837007
H 16.0139 14.1943 5.92518
H 18.2434 1.76181 1.54628
H 4.39822 1.45506 5.79929
C 19.0109 3.32301 1.66195
H 17.3827 8.52928 2.08316
H 21.1757 14.9576 16.7452
H 20.1231 11.5825 12.3726
Si 3.36975 11.1832 18.1926
O 1.93115 10.4451 18.7597
C 4.40978 10.3903 16.5674
H 5.57143 10.733 16.7299
H 4.14518 9.30352 16.9691
H 3.74408 10.5583 15.848
C 1.33561 15.2501 17.4157
H 7.66923 5.04016 8.51292
H 11.5852 16.9653 3.45455
H 2.38106 15.3918 17.1475
Si 0.831005 9.06343 19.1183
O 2.10922 8.34504 1.71041
C 3.64686 5.49667 1.20499
H 3.61531 6.36916 19.1148
H 15.0217 15.8961 17.0969
H 4.48278 4.83564 1.17083
C 20.9991 7.88703 17.929
H 0.930934 8.73202 17.1558
H 20.7067 10.4463 19.1721
H 20.8738 6.7125 18.0749
Si 2.08882 7.34536 2.95721
O 21.1808 6.51036 2.91139
C 1.55434 1.99022 15.431
H 2.5625 1.48187 15.2159
H 2.04117 2.66439 16.1454
H 21.1713 1.45785 15.7265
C 3.58647 6.22125 2.57394
H 4.6656 6.59081 2.60755
H 1.64485 5.26286 17.4181
H 1.90183 3.2217 15.1112
Si 2.09143 4.17852 1.29344
C 2.89467 2.54924 1.23918
H 1.97938 2.11496 1.79594
H 2.89645 2.69851 18.6465
H 3.95268 1.96732 1.59125
C 0.853978 1.3894 4.07247
H 0.707245 2.19785 4.88196
H 20.7996 18.1772 3.49739
H 2.35705 0.981869 4.2067
Si 7.99569 15.7788 2.90723
O 9.46261 16.0291 1.98296
C 3.26573 15.3676 3.56115
H 4.10672 15.1747 2.96159
H 18.511 16.1865 4.22479
H 2.98113 16.4214 3.60116
C 8.02676 15.8536 4.88124
H 8.99591 15.9361 5.50851
H 7.11008 16.7929 5.18321
H 7.6669 14.9499 5.24507
Si 10.721 14.6787 2.09333
O 10.1831 13.3246 2.96874
C 12.4269 14.5529 2.81691
H 12.8337 13.5964 2.48795
H 13.1082 15.5355 2.53634
H 12.3827 14.5915 3.75904
C 10.936 14.6662 18.7721
H 11.0898 13.795 18.2864
H 11.9518 12.5931 17.2
H 9.99106 14.8735 18.4619
Si 9.40816 11.7467 2.81648
O 10.5471 10.612 2.6937
C 8.40367 11.7778 1.23162
H 7.46644 12.4693 1.04265
H 9.03774 11.5446 18.8994
H 8.08048 10.8311 1.44717
C 8.31003 11.7848 4.43381
H 7.3023 12.2084 4.1898
H 8.28556 10.8827 4.92056
H 8.69935 12.4958 5.16224
Si 10.0822 8.89214 2.41106
O 9.15705 8.43898 1.20427
C 8.9573 8.43043 3.88866
H 9.37774 7.87336 4.68842
H 8.28807 9.16732 4.31279
H 8.2421 7.68374 3.56896
C 11.7069 7.85067 2.58418
H 12.4426 8.53135 3.33131
H 11.3882 7.08688 3.19058
Si 7.80436 8.45457 18.9107
O 8.02137 7.89867 17.3762
C 6.79376 9.81864 19.0356
H 5.66499 9.8692 0.761962
H 1.89665 8.47016 4.2073
H 6.67818 10.3076 18.1139
C 10.9607 17.7324 3.88093
H 10.2784 0.753796 3.46445
H 10.9409 17.2277 4.95835
H 10.1134 16.9995 3.78867
Si 9.21024 7.29066 16.4092
C 9.31223 5.3553 16.5832
H 8.47477 4.56326 16.4194
H 10.1068 4.95793 15.9719
H 9.59248 5.16168 17.5696
C 11.0574 7.62845 16.3151
H 11.253 8.72357 16.1576
H 11.7389 7.16532 17.0791
H 11.2334 7.20059 15.3167
Si 16.8848 13.41 2.80071
O 16.9068 12.4052 4.20356
C 18.613 12.9369 2.53606
H 19.1216 12.2705 1.40667
H 19.4209 13.0523 3.06801
H 18.9307 13.9418 1.2695
C 16.4184 15.0796 3.4908
H 17.9449 15.9645 3.79004
H 16.1804 15.7987 2.66554
H 16.24 15.2395 4.56807
Si 15.9543 11.1998 3.68843
O 16.6194 9.71844 4.04353
C 0.835849 9.35134 6.34757
H 21.0991 10.3368 6.38881
H 20.6055 9.08013 5.49478
H 1.79102 9.09154 5.96857
C 14.2666 10.6055 5.04007
H 13.2106 10.8735 4.98469
H 14.0901 9.5112 4.83191
H 14.8812 10.6047 5.98574
Si 16.3506 8.31752 3.04595
O 14.7658 8.57204 2.53366
C 15.4641 12.1841 2.19923
H 15.1477 11.6196 1.25904
H 14.5376 12.9692 2.20017
H 5.50678 0.569871 13.0503
C 16.3622 6.77945 4.0992
H 15.635 6.13779 3.65739
H 17.3915 6.3862 4.32642
H 16.0768 7.06302 5.10299
Si 14.2084 7.60591 1.14481
O 15.1066 6.36629 1.04388
C 12.4609 7.12657 1.44577
H 12.0941 7.88775 0.808857
H 11.9867 6.10809 0.896308
C 14.4744 9.20302 18.6119
H 15.3373 9.63328 18.4537
H 14.322 8.83128 17.4519
H 13.3029 9.69226 18.9295
Si 16.1522 4.90114 1.11131
O 16.0655 4.44926 18.2588
C 15.674 3.44556 2.20465
H 14.7357 3.99665 2.86723
H 15.831 2.32911 2.06782
H 15.9915 3.80187 3.45876
C 17.8347 5.72404 1.46774
H 13.3972 17.855 11.766
H 18.742 5.2333 0.81217
H 18.1769 6.57048 1.59655
Si 17.0178 4.34542 16.8608
C 17.9794 3.17879 15.926
H 17.611 16.6066 1.56119
H 18.1706 2.04369 15.8275
H 18.5993 3.69503 15.1798
C 1.34177 4.22238 18.1823
H 1.16526 3.59133 17.3156
H 20.7595 4.23957 18.4208
H 20.875 3.65972 1.89752
Si 7.01391 13.8303 9.55897
O 6.13691 13.5119 8.21545
C 7.98632 15.6901 9.05051
H 8.22896 13.2105 9.43901
H 7.75638 16.742 8.90422
H 8.89378 15.686 9.61878
C 6.02984 14.1751 11.2343
H 5.13542 13.681 11.6611
H 6.7457 14.2808 12.061
H 6.04591 15.2005 10.7948
Si 4.86505 12.5281 7.74048
O 4.91708 10.9494 8.37658
C 5.05939 12.2769 5.92497
H 5.58684 13.1616 5.55286
H 5.74758 11.4054 5.88055
H 4.15389 12.1308 5.29909
C 3.21716 13.2262 8.12531
H 3.01636 13.1244 9.19574
H 3.13501 14.3356 7.98264
H 2.4447 12.8294 7.4718
Si 5.85638 9.65032 8.71744
O 4.74598 8.41298 8.60319
C 6.87775 9.57727 10.373
H 6.18869 9.30323 11.1945
H 7.67836 8.82246 10.3579
H 7.23654 10.5726 10.7157
C 7.21677 9.23569 7.40625
H 8.20328 9.62168 7.71121
H 7.16796 8.12325 7.48082
H 6.97903 9.56486 6.38906
Si 4.61561 6.75346 8.19824
O 5.62686 6.27949 7.00343
C 4.89711 5.74617 9.74014
H 3.9671 5.72283 10.3039
H 5.19478 4.68685 9.47691
H 5.62346 6.3035 10.3797
C 5.19454 9.33905 3.83641
H 5.42692 8.29454 3.74945
H 5.99781 10.0817 4.00432
H 4.54155 9.19787 4.75524
Si 5.71443 5.10732 5.82711
O 6.32563 3.80134 6.4903
C 4.00366 4.74266 5.0956
H 3.17563 5.09692 5.69085
H 4.03608 5.22172 4.18652
H 3.93003 3.70606 4.78081
C 6.81699 5.61572 4.5428
H 7.45288 6.4881 4.88987
H 7.46043 4.78258 4.30482
H 6.27043 5.9973 3.6683
Si 7.58791 3.5889 7.5606
C 7.17124 2.31207 8.71991
H 7.86416 2.40087 9.53075
H 6.24889 2.67041 9.18595
H 7.08869 1.27989 8.42377
C 9.08137 3.30285 6.46948
H 9.04417 2.28989 6.00692
H 11.0295 15.4209 11.0167
Si 13.5718 13.9097 6.61224
O 13.3948 12.7153 7.69927
C 16.0103 13.7473 6.88112
H 16.0854 12.7072 6.52975
H 16.9405 14.1115 7.4468
H 15.3398 13.9361 7.79067
C 12.8748 15.6724 6.5426
H 12.5129 16.1828 7.37739
H 13.6965 16.2914 6.24177
H 12.0073 15.7017 5.79662
Si 12.3551 12.0606 8.97012
O 12.7053 10.5086 9.17906
C 12.6637 13.1036 10.4724
H 12.1155 14.0492 10.3466
H 12.4843 12.6239 11.4231
H 13.6886 13.4233 10.3107
C 10.4927 11.9141 8.36059
H 9.80645 11.4475 9.0969
H 10.073 12.9099 8.18259
H 10.3639 11.4761 7.3792
Si 12.2968 8.89161 9.29987
O 13.3463 8.08952 8.22593
C 10.7416 8.13273 8.63048
H 11.0818 7.25971 8.04882
H 10.1926 7.74416 9.50028
H 10.0184 8.72824 8.03838
C 12.3176 8.8646 11.1878
H 11.3186 8.82844 11.6126
H 12.8713 8.00869 11.6286
H 12.8662 9.76711 11.4364
Si 14.3969 6.79517 8.57196
O 13.4841 5.79278 9.56963
C 15.7236 7.4272 9.69625
H 16.226 8.39089 9.43273
H 15.2525 7.47306 10.7176
H 16.5889 6.78787 9.89023
C 14.896 5.92316 6.96484
H 14.2503 5.00444 6.92521
H 14.4121 6.47709 6.1318
H 15.9485 5.57595 6.90403
Si 12.9298 4.30543 10.137
O 11.9627 3.59968 8.83548
C 11.4131 4.41528 11.1946
H 11.2333 3.48258 11.7651
H 11.5101 5.23411 11.9413
H 10.5833 4.62388 10.515
C 14.4871 3.34046 10.6262
H 15.2939 4.05552 10.8372
H 14.2409 2.60807 11.4029
H 14.8524 2.76569 9.76951
Si 12.1625 3.54173 7.18474
C 10.2645 4.04206 6.11987
H 10.7867 3.5863 5.26282
H 10.2155 5.14003 6.14335
C 12.4674 1.76599 6.61363
H 13.4244 1.58922 6.15708
H 12.3464 1.05426 7.48293
H 11.5784 1.50979 5.95282
Si 20.7229 8.12764 7.55548
O 19.9971 6.77498 6.86911
C 19.2059 8.98887 8.01494
H 18.6639 9.82001 7.55644
H 18.3324 8.38888 8.39263
H 19.5526 9.37907 9.02892
C 1.00793 8.11942 9.38214
H 0.929226 7.31029 9.95657
H 2.87239 7.0463 8.44341
H 4.55525 9.56591 2.93374
Si 20.2484 5.05867 6.70966
O 19.5278 3.82478 7.89062
C 19.1869 4.21982 5.4846
H 19.62 3.16429 5.39521
H 18.1676 4.22891 5.92604
H 19.1957 4.67308 4.48338
C 6.30816 17.9939 13.9583
H 3.52077 5.35613 2.86491
H 4.29615 16.7383 16.6643
H 18.1355 3.54586 11.7092
Si 21.183 3.15382 7.86322
O 1.35415 4.68214 7.48699
C 1.35167 1.90981 8.97807
H 2.23015 2.21512 9.50596
H 20.996 1.73148 9.5364
H 1.28142 0.880186 8.98994
C 19.0507 3.01729 12.0564
H 19.5799 3.74871 12.7478
H 19.7505 2.69255 11.2633
H 19.1578 1.99803 12.3784
Si 1.12746 16.9826 6.64612
O 20.1014 17.0694 7.61661
C 2.78052 16.5106 7.35002
H 2.52666 17.1639 8.40208
H 3.05439 1.47054 6.85584
H 15.9396 0.997579 4.67504
C 3.4522 1.53545 6.03092
H 4.08009 2.70948 5.95578
H 17.3087 16.7891 0.707418
H 20.7495 1.97729 7.24281
Si 18.9551 16.2178 8.48089
O 17.5401 16.5017 7.13679
C 19.4676 14.54 8.17883
H 19.396 14.3267 7.11483
H 20.4998 14.2954 8.47546
H 18.7661 13.8138 8.54871
C 18.4629 16.6744 10.1859
H 19.0613 17.4966 10.6291
H 11.0733 15.2899 17.9455
H 11.4267 15.7911 10.5056
Si 16.2873 17.5564 6.83917
C 16.4119 1.26498 5.59246
H 17.5129 18.069 5.03968
H 16.6117 2.56348 5.77192
H 13.8828 13.3865 5.24502
C 14.8826 17.4319 8.15518
H 14.3822 16.5713 7.90597
H 15.2476 17.2594 9.33122
H 13.9251 17.8902 8.03139
Si 19.8748 13.2878 12.638
O 21.1602 14.3256 11.9963
C 18.633 13.6452 11.2739
H 8.2811 16.97 18.1125
H 14.4754 17.665 11.7877
H 19.209 15.032 14.806
C 18.1791 12.8104 10.3267
H 17.3393 12.8444 9.64901
H 21.2554 15.867 17.4513
H 18.7725 11.908 10.3318
Si 2.10211 14.8752 12.3957
O 2.98725 13.3706 12.4109
C 2.54535 15.9545 13.8917
H 2.24536 16.0112 14.9537
H 3.69503 15.9004 13.9811
H 2.18313 16.9103 13.4758
C 2.7162 15.9542 11.1311
H 2.78776 15.6747 10.0923
H 2.18125 16.9493 11.1233
H 3.77829 16.1392 11.5989
Si 2.86979 12.0598 13.3828
O 1.97217 10.7664 12.4242
C 1.79748 12.3178 14.8054
H 1.35227 11.3557 15.1098
H 2.29971 12.6485 15.7275
H 0.961611 13.0777 14.5954
C 4.62123 11.6055 13.8547
H 5.16244 10.8627 13.2143
H 5.13656 12.6386 13.9957
H 4.69621 11.0619 14.7475
Si 1.54397 9.43218 11.6247
O 2.56848 8.07142 12.2128
C 1.78445 9.10551 9.7272
H 16.9718 7.52198 12.6194
H 2.13888 9.79657 8.72096
H 3.39631 9.05419 8.9466
C 20.2453 9.20898 11.7847
H 19.563 9.66673 12.502
H 19.7979 9.27958 10.749
H 20.28 7.9264 12.1232
Si 2.08852 7.0364 13.484
O 3.16066 6.58118 14.614
C 21.2129 5.62727 13.577
H 20.3831 6.11505 13.8947
H 20.7485 5.26962 12.4701
H 0.922063 4.46922 14.186
C 4.78193 4.89221 13.3782
H 3.98174 4.16665 13.6541
H 4.25423 5.50156 12.6443
H 5.63135 4.36504 12.9256
Si 4.84051 6.10669 14.7823
C 4.82977 5.30348 16.4117
H 5.76674 5.59358 17.0019
H 4.07703 5.69321 17.1702
H 4.83723 4.24492 16.2191
C 6.05642 7.63339 15.0083
H 6.51259 7.67988 16.0258
H 5.52886 8.59151 15.1124
Si 7.93213 1.26219 14.3841
O 8.64055 1.8345 15.7522
C 7.9795 2.32731 12.7605
H 7.03891 2.13355 12.1669
H 7.94986 3.47284 13.1406
H 8.8642 2.61414 12.0975
C 6.50352 16.744 14.4269
H 8.44568 14.9531 8.45147
H 3.44959 14.6251 4.50452
H 6.91896 15.942 14.8972
Si 9.25462 18.0192 16.5354
O 9.38042 16.5408 15.8822
C 10.9882 0.793791 16.558
H 11.9669 18.2675 16.626
H 11.1153 0.708924 15.4764
H 11.2695 1.77754 17.0783
C 8.68431 17.76 18.3434
H 3.73636 17.1707 17.3369
H 7.61053 18.4224 18.6634
H 9.74788 18.0238 18.6445
Si 9.96145 15.4292 14.7535
O 10.4103 13.9803 15.6083
C 11.6104 15.9757 13.9823
H 12.3616 15.7221 14.775
H 11.8584 15.2057 13.2308
H 11.8222 16.9407 13.4895
C 8.73025 15.0925 13.3328
H 7.80552 14.7436 13.7357
H 8.60277 16.0517 12.7592
H 9.35036 14.3987 12.7647
Si 11.5744 12.7871 15.6659
O 10.8149 11.4069 15.1381
C 15.1456 15.3314 18.1265
H 15.6727 15.9715 19.1039
H 15.7694 14.5143 18.3067
H 14.2159 15.3235 18.4189
C 13.2222 12.5677 14.8555
H 13.1129 11.471 14.7149
H 13.479 12.8872 13.8446
Si 9.45828 10.8045 14.3714
O 9.44304 9.1994 13.9586
C 9.28935 11.9595 12.8382
H 9.03816 11.3321 11.9726
H 8.44278 12.582 13.1237
H 10.2429 12.5109 12.7929
C 8.03088 10.8085 15.6378
H 8.14804 11.458 16.5001
H 7.28143 11.3747 15.0618
H 7.45643 9.945 15.9425
Si 8.82419 7.53 14.188
C 6.91789 7.47613 13.7635
H 6.87612 6.45147 13.3686
H 6.63697 8.17342 12.9403
C 9.21332 6.41196 12.7408
H 10.2987 6.19843 12.7035
H 8.68665 5.4568 12.5353
H 8.97922 7.04466 11.8331
Si 17.5398 15.3127 11.2729
O 17.3054 16.1709 12.5185
C 6.61761 15.49 1.91756
H 17.7532 5.41789 2.76631
H 6.73356 15.0488 0.918319
H 5.80549 15.0461 2.60654
C 15.7712 14.8639 10.5456
H 15.3531 13.8425 10.8274
H 15.1052 15.7015 10.9818
H 15.8808 14.69 9.49948
Si 16.6538 16.4257 14.1537
O 16.5694 15.0554 14.9867
C 17.594 17.6739 14.9464
H 19.0476 17.3041 14.798
H 17.5634 0.847603 14.4392
H 17.7517 18.0225 16.0355
C 14.8052 16.8811 14.0097
H 14.5707 17.0578 15.1785
H 14.8591 17.9796 13.9173
H 13.9936 16.2892 13.3997
Si 17.7719 13.8042 15.2912
O 16.9966 12.3661 15.4758
C 19.372 13.9022 14.4596
H 12.2682 3.26611 3.82493
H 12.8783 3.10192 3.5138
H 19.9287 13.53 15.3395
C 18.2761 14.372 16.996
H 17.3577 14.2953 17.6247
H 18.9779 13.6182 17.229
H 18.784 15.4076 16.9189
Si 15.6912 11.4842 14.8313
O 15.7945 9.92319 15.0823
C 14.478 12.5929 15.7487
H 14.0106 12.2851 16.7006
H 15.0339 13.6019 15.6672
C 15.2786 11.5789 13.0317
H 16.0097 11.3072 12.2554
H 14.5025 10.8255 12.7685
H 15.0848 12.5957 12.6797
Si 16.7151 8.52252 14.6862
O 16.2356 7.30203 15.6822
C 16.546 8.43072 12.7579
H 17.1692 9.11207 12.2678
H 5.72992 1.04421 11.2285
H 15.5195 8.74795 12.4075
C 18.5228 9.08181 15.1171
H 19.2363 8.29156 15.4441
H 18.8731 9.45766 14.1405
H 18.4618 9.94216 15.8364
Si 15.7291 5.63141 15.3419
C 14.0226 5.96268 16.0959
H 13.7292 5.17957 16.7881
H 13.8727 6.9677 16.4011
H 13.4627 5.75414 15.1509
C 15.5266 5.17859 13.6516
H 14.5587 5.49929 13.1405
H 16.4205 5.39334 13.004
H 15.5754 4.09998 13.7037
523
 Atoms. Timestep: 4000
Si 2.092 15.3767 1.83704
O 3.15062 14.8745 0.874905
C 2.74894 15.4677 3.37198
H 3.28492 14.4376 3.73404
H 2.249 15.8981 3.999
H 4.97047 17.54 5.94535
C 19.6282 12.497 5.40741
H 18.9198 13.209 4.86077
H 19.6017 13.0946 6.41227
H 20.5907 12.7512 4.98842
Si 4.27606 14.887 17.9866
O 4.06634 13.3016 17.176
C 16.9925 16.8275 17.7288
H 16.0199 14.0629 7.0219
H 17.3198 16.7734 1.63504
H 5.17438 2.62186 17.219
C 16.7185 16.9081 18.9214
H 18.2794 8.05301 4.47044
H 2.86721 16.0574 16.6912
H 19.7838 12.2106 11.1167
Si 3.86906 11.9181 18.0852
O 2.59775 11.2069 18.3605
C 4.79982 11.6071 1.47454
H 5.60922 12.4116 1.03017
H 4.25757 11.9994 2.29103
H 5.25216 10.5075 1.62465
C 4.12112 16.0489 16.7182
H 8.56362 5.34717 9.47144
H 12.0196 4.50973 2.04962
H 4.54803 15.8583 15.6394
Si 20.8266 10.5704 18.4193
O 0.941816 9.71161 1.56744
C 4.61585 6.12438 2.06373
H 4.60685 5.5999 3.00914
H 14.6077 14.9288 15.8643
H 8.8463 5.57787 2.50995
C 20.0447 9.83028 17.067
H 20.2017 9.89085 16.0272
H 20.1552 8.84557 17.5255
H 0.958705 7.66294 15.7623
Si 20.6634 8.80303 2.85526
O 1.48703 6.84085 2.53537
C 1.27655 1.90409 13.0818
H 1.60275 3.00731 12.59
H 1.89318 1.28575 13.5443
H 1.94713 2.12095 12.2146
C 5.48377 6.77794 1.26515
H 5.5224 6.89672 18.3986
H 20.8318 4.78864 18.8744
H 20.23 2.23387 13.0439
Si 2.57827 5.71932 2.19865
C 2.96087 4.33681 3.60255
H 16.4937 17.0198 16.8676
H 2.4696 3.09322 3.76184
H 3.85173 3.79521 3.97846
C 16.334 16.9761 4.49814
H 17.3331 17.5632 4.46222
H 15.6861 17.8007 4.73747
H 16.13 15.9825 3.46074
Si 7.03421 15.396 2.70137
O 8.29195 14.2176 3.14627
C 20.6734 16.4647 18.9657
H 4.42477 11.5345 4.63685
H 2.46076 8.71674 6.36985
H 20.5387 17.2524 1.65068
C 6.8211 16.1443 4.42685
H 7.61894 17.0629 4.24555
H 5.74201 16.6148 4.54967
H 7.08737 15.4913 5.1559
Si 9.9555 14.0528 2.7151
O 10.457 12.613 2.16573
C 11.0732 14.7672 4.07689
H 11.8599 14.2565 4.65313
H 11.4434 15.4678 3.23051
H 10.6002 15.4431 4.69288
C 10.0069 15.1286 1.18598
H 10.8439 15.638 18.8595
H 10.1106 13.9578 17.2984
H 8.99903 14.9832 18.8078
Si 10.1843 11.2186 2.93105
O 11.2713 10.0428 2.51514
C 8.62057 10.5998 2.19546
H 8.12327 9.89211 2.65397
H 8.24356 11.5722 2.23892
H 8.90588 10.3946 1.20288
C 9.67926 11.4714 4.6982
H 8.62392 11.7096 4.8886
H 9.81888 10.506 5.17221
H 10.3338 12.3309 5.02987
Si 11.6915 8.40623 2.52304
O 10.6776 7.91869 1.328
C 11.2754 7.77494 4.21015
H 11.9593 8.22192 4.94615
H 10.2411 7.77589 4.48847
H 11.6254 6.70622 4.24642
C 13.4622 8.13035 2.27981
H 13.6896 9.18435 2.02734
H 13.8059 8.26045 3.17789
Si 9.6735 6.90622 18.7791
O 9.09289 7.92205 17.4142
C 8.53868 5.80779 1.34663
H 4.66849 3.69235 18.3379
H 20.3485 9.61999 4.28317
H 7.82308 5.02281 1.1599
C 11.0324 3.85524 2.02445
H 10.2198 4.59736 2.23898
H 11.2923 3.38869 3.02161
H 11.198 2.78857 1.48613
Si 10.0324 8.19494 16.0434
C 9.62978 6.25038 15.4356
H 8.63365 5.94826 14.9872
H 10.4755 5.83997 14.9201
H 9.79993 5.62593 16.3703
C 11.9254 8.68668 16.5379
H 12.104 9.62261 17.0683
H 12.5979 7.89953 16.9977
H 12.3978 9.03526 15.5643
Si 16.2549 13.2221 1.65775
O 17.1159 12.0821 3.14579
C 17.9524 13.8149 19.0905
H 18.4491 14.1535 1.63251
H 17.7895 14.6046 18.2544
H 19.4421 11.4311 5.36119
C 15.3337 14.2612 2.68361
H 15.887 7.70848 11.6314
H 15.4929 15.2352 2.60132
H 15.0487 14.0305 3.63617
Si 15.8862 11.0499 3.38168
O 16.2931 9.44166 3.43687
C 1.60087 9.52495 6.89437
H 1.10907 10.5272 6.36423
H 20.6606 8.84319 6.76093
H 2.29262 10.2942 7.49931
C 14.5692 11.2457 4.61729
H 14.819 10.626 5.52782
H 14.429 12.2282 5.02551
H 13.5066 11.0123 4.2566
Si 16.8589 8.2488 4.38556
O 16.1921 6.82627 3.86249
C 15.1764 11.666 1.41629
H 15.4612 11.0048 18.99
H 13.9672 11.9822 1.49611
H 5.30276 17.2757 12.5411
C 16.7408 8.54163 6.20959
H 17.5769 7.84307 6.26303
H 17.2511 9.48492 6.66372
H 15.7869 8.1479 6.60961
Si 15.1315 5.75747 2.64245
O 15.9981 4.87991 1.79829
C 14.2479 7.00236 1.7268
H 5.23347 0.912086 6.53833
H 13.8441 6.77573 19.0028
C 17.3664 7.5992 18.2336
H 16.2996 7.4565 17.8903
H 17.3645 9.02618 18.3649
H 18.1219 7.04019 18.592
Si 16.5241 3.93168 18.6726
O 15.993 4.90296 17.2343
C 15.1508 2.82024 18.3802
H 14.2365 3.4005 18.2917
H 14.9826 1.87341 17.7846
H 14.7994 2.23465 1.15156
C 17.9434 3.17771 18.3328
H 10.7421 3.62751 12.7071
H 2.56578 2.97487 5.03547
H 18.2372 3.23292 17.2951
Si 16.3441 5.42761 15.6465
C 17.9173 5.1622 15.2795
H 16.9063 1.3107 14.2925
H 18.3014 4.1935 14.891
H 18.7638 5.81487 15.193
C 1.90473 4.68206 19.0181
H 2.64798 5.02149 18.3949
H 1.84694 3.21072 1.56956
H 16.3694 16.2632 5.52412
Si 6.7645 14.5765 9.06271
O 6.57513 12.9185 9.39236
C 8.23416 14.6612 8.08167
H 6.75901 15.2449 10.55
H 8.92403 15.5108 8.02853
H 8.85194 13.8613 8.45301
C 5.20911 15.2238 8.19215
H 4.50968 15.5524 8.99697
H 5.24945 16.1625 7.64711
H 4.65332 14.4656 7.72344
Si 5.28414 12.2298 8.5378
O 5.34573 10.5614 8.69607
C 4.23213 11.5299 5.71324
H 4.85776 12.2965 6.1598
H 4.70914 10.7128 6.18007
H 3.13889 11.8554 6.09979
C 3.46433 12.8867 8.97392
H 2.71754 12.0457 8.87124
H 3.42113 13.2512 10.0499
H 3.22331 13.8231 8.4079
Si 6.83514 9.65796 8.69333
O 6.35168 8.10386 8.44103
C 7.96416 10.0123 10.1715
H 7.75152 10.9324 10.7708
H 7.81467 8.98194 10.6335
H 9.03351 10.0781 9.85307
C 7.72346 10.2937 7.13356
H 6.8102 10.035 6.51225
H 7.98018 11.3246 6.89164
H 8.44924 9.55296 6.6874
Si 5.12397 7.07605 7.8848
O 5.75636 5.81417 7.02653
C 4.03606 6.99814 9.42518
H 3.00529 6.66757 9.14136
H 4.493 6.29278 10.1571
H 3.91232 7.99496 9.81598
C 5.75583 8.87791 3.22158
H 5.79237 8.65053 2.10846
H 5.07333 9.72346 3.4117
H 6.80111 9.20917 3.6469
Si 5.97378 4.13561 6.86331
O 6.76126 3.62478 8.1699
C 4.29346 3.4396 6.99316
H 3.73767 3.29899 7.97197
H 3.42969 3.6538 6.25428
H 4.65339 2.34781 6.69377
C 6.69628 4.26164 5.1836
H 7.7263 4.44745 5.3833
H 6.64229 3.40976 4.48065
H 6.13912 5.11763 4.80139
Si 8.01074 3.78673 9.23539
C 7.61485 2.81263 10.8182
H 7.2529 1.80114 10.5461
H 8.46612 2.62106 11.399
H 7.00092 3.38546 11.5029
C 9.28528 2.61667 8.07489
H 8.54657 1.78135 7.86535
H 11.3908 18.0022 11.1066
Si 12.5749 13.9327 7.77957
O 12.3787 12.3214 8.02138
C 16.5662 13.1787 6.59861
H 17.159 13.4189 5.65856
H 17.1323 12.8837 7.52116
H 15.8737 12.3644 6.43659
C 11.9802 14.8697 9.44487
H 12.5047 14.351 10.2639
H 12.3628 15.9872 9.30336
H 10.9024 14.991 9.34562
Si 12.6888 10.976 8.95031
O 12.5434 9.56742 8.00597
C 14.411 11.1026 9.67522
H 14.684 12.0783 9.29068
H 14.4068 11.0742 10.7777
H 15.1505 10.4229 9.21294
C 11.3765 11.1354 10.2229
H 11.7716 11.3073 11.2126
H 10.6397 11.9106 10.0001
H 10.7546 10.2513 10.3165
Si 12.5904 7.93173 8.31716
O 14.0162 7.37312 7.66178
C 11.0352 7.2821 7.64072
H 10.3202 8.12454 7.69076
H 11.1071 6.99392 6.57853
H 10.5198 6.42985 8.07108
C 12.5996 7.70009 10.2242
H 11.5549 7.78755 10.5856
H 12.9757 6.74002 10.5596
H 13.098 8.52231 10.6953
Si 14.5402 5.83485 7.7827
O 13.4016 4.96807 8.65409
C 16.1557 5.85898 8.69924
H 16.1688 6.40235 9.65141
H 16.5576 4.87042 8.90179
H 16.8117 6.46135 8.01496
C 14.8386 4.95279 6.1934
H 15.5665 5.4418 5.51683
H 15.4069 4.06264 6.54929
H 13.9937 4.32939 5.84616
Si 12.6749 3.55 9.19387
O 12.0988 2.75391 7.87522
C 11.2467 4.42397 10.1226
H 10.5486 3.87114 10.7668
H 11.637 5.25596 10.73
H 10.6445 4.91012 9.34372
C 13.9286 2.7172 10.4272
H 13.6356 3.01952 11.4486
H 13.9465 1.60819 10.3012
H 14.9829 3.01586 10.2857
Si 10.8345 1.79608 7.26131
C 9.57415 2.94092 6.53935
H 8.92093 2.49183 5.80298
H 9.88277 3.90946 6.16683
C 11.5032 17.4336 6.70329
H 11.8403 17.4871 5.58231
H 12.4738 17.0813 6.78228
H 10.8629 16.7027 6.26152
Si 20.289 8.92727 8.62548
O 19.6598 7.54611 7.54758
C 18.833 9.96153 8.50275
H 18.3989 10.0968 9.59474
H 18.9942 10.9943 8.30188
H 17.8851 9.61632 8.24178
C 1.29024 9.50945 9.84484
H 2.23323 9.3129 9.52791
H 4.54384 7.80527 6.8337
H 5.40739 7.85541 3.5797
Si 19.7971 5.88303 7.30972
O 19.2359 4.8485 8.47229
C 19.4193 5.40341 5.44744
H 20.0761 5.63484 4.64276
H 18.9569 4.40455 5.2415
H 18.6684 6.25708 5.30376
C 6.54886 17.042 12.828
H 6.72449 6.44986 1.15149
H 6.53264 0.843168 7.0579
H 19.1099 4.79238 12.9236
Si 20.9184 3.99088 8.45433
O 1.2481 5.24961 7.54774
C 2.03639 3.84329 9.6895
H 1.34716 3.62588 10.6011
H 2.89014 3.07338 9.73682
H 2.82474 4.67495 9.54266
C 18.3499 4.6224 12.1395
H 18.8711 4.75374 11.1597
H 17.4199 5.12937 12.1669
H 18.0422 3.5618 12.0253
Si 1.75884 17.9502 7.85029
O 20.3616 17.3098 8.34339
C 1.97284 17.5175 6.14243
H 2.43668 17.7012 5.11807
H 19.9214 15.5646 1.23827
H 16.4359 1.88491 7.37447
C 5.30515 3.98056 17.525
H 6.19403 4.43958 17.9468
H 14.3365 5.55426 3.80206
H 20.7562 2.95829 7.55608
Si 18.9596 16.6625 8.8287
O 17.723 17.3876 8.06468
C 19.2744 14.9499 7.93739
H 20.4516 14.6405 7.79768
H 18.3803 14.1763 8.33946
H 18.424 14.7124 7.05321
C 18.9775 16.7259 10.6449
H 19.9802 17.1133 10.9085
H 9.89262 16.2565 1.66888
H 10.8876 17.5891 10.6731
Si 16.4202 17.1907 7.11375
C 16.658 1.45593 6.21691
H 17.2492 2.42815 6.3525
H 17.8254 1.40085 5.70639
H 11.5347 14.3201 6.67368
C 14.9321 17.2429 8.18338
H 14.4857 18.1202 7.66746
H 14.2539 16.5157 7.9359
H 14.8615 18.0074 9.13959
Si 19.1231 12.8527 12.2563
O 20.1712 13.7405 13.0357
C 17.969 13.8104 11.1565
H 10.065 17.6276 19.1224
H 10.0277 3.6375 12.85
H 18.8005 11.0991 13.9978
C 16.8959 13.3738 10.4184
H 16.2549 13.832 9.61681
H 4.28157 17.0873 16.9211
H 16.9599 12.2876 10.1334
Si 1.79553 14.1461 13.1039
O 2.52908 12.996 12.1926
C 2.24914 14.3818 14.8128
H 3.1875 14.9462 14.629
H 1.63465 15.0268 15.412
H 2.39207 13.4906 15.5426
C 2.32288 15.838 12.3036
H 2.33774 16.6535 12.9886
H 3.4255 15.7634 11.9546
H 1.66156 16.0081 11.4959
Si 3.37047 11.6236 12.6993
O 2.12586 10.3316 12.9427
C 3.99114 11.692 14.6736
H 5.06641 11.3797 14.6166
H 3.87865 12.6246 15.2549
H 3.39156 10.856 15.1104
C 4.61346 10.8908 11.4977
H 4.21799 10.405 10.6336
H 5.11047 11.7447 10.9059
H 5.35466 10.476 12.1477
Si 1.8496 8.79592 12.2402
O 1.36295 7.56483 13.3915
C 20.7428 8.53853 10.9595
H 14.8393 9.0532 11.319
H 1.40811 10.543 10.0812
H 3.12951 8.16198 11.9216
C 19.5858 7.71629 11.4149
H 18.8748 8.20824 11.8286
H 18.9419 7.21267 10.6291
H 20.2162 6.89254 11.9904
Si 2.04506 6.95828 14.7914
O 3.37212 7.90804 14.8311
C 2.22151 5.2117 15.0778
H 2.1507 5.07779 13.8839
H 3.27257 4.87176 15.628
H 1.36998 4.28448 14.7489
C 5.19389 5.53136 13.1718
H 4.66045 5.24696 12.2802
H 6.23288 5.80353 12.91
H 5.25824 4.65478 13.9125
Si 4.73902 7.16643 14.2551
C 5.50907 6.29784 15.7975
H 5.31255 5.2057 16.0621
H 6.57534 6.5743 15.6203
H 5.4271 6.95896 16.6022
C 6.02505 8.48516 13.5415
H 5.81351 9.26773 14.2765
H 5.67731 8.66803 12.5249
Si 6.70666 18.0584 14.4639
O 8.03927 17.8074 15.4986
C 5.13591 1.78317 14.5542
H 4.39525 1.65434 15.3943
H 5.77044 2.64175 14.7915
H 4.41409 1.74253 13.7654
C 7.236 16.9331 11.652
H 8.09818 14.4212 7.04598
H 20.7318 16.7212 18.0146
H 8.06575 16.8026 11.0846
Si 9.26282 18.0697 16.7756
O 10.0401 16.7798 16.3575
C 9.59908 2.11983 15.9399
H 10.4021 2.69206 16.5806
H 9.95267 2.23605 14.9644
H 8.93588 2.73275 16.4597
C 9.28407 0.858052 18.6452
H 2.9531 0.850917 6.5688
H 8.2559 18.0513 18.9952
H 5.4604 15.5295 1.1744
Si 10.7692 16.3538 14.8836
O 11.2272 14.7633 14.905
C 12.2678 17.4215 14.2353
H 13.1315 17.173 14.9454
H 12.4684 16.9906 13.1852
H 12.0483 1.09324 14.107
C 9.8851 16.4672 13.2256
H 8.8261 16.1782 13.0718
H 10.2787 17.3017 12.6995
H 10.4147 15.535 12.9516
Si 10.9574 13.5956 15.9879
O 10.2603 12.3518 15.0477
C 11.5632 18.0638 3.63267
H 11.1296 1.1503 4.43409
H 12.4858 17.3655 4.12934
H 10.9894 17.1876 2.98917
C 12.5075 13.045 16.7379
H 13.3197 13.7795 16.5874
H 12.3819 12.8262 17.7874
Si 8.57367 12.1943 14.7847
O 8.34961 10.6039 14.2771
C 8.27506 12.8632 13.0832
H 7.222 13.0425 12.9081
H 8.84307 13.7798 12.9283
H 8.63108 12.0643 12.4267
C 7.36835 12.5802 16.193
H 6.34599 12.5412 15.8154
H 7.24461 12.0261 17.1284
H 7.50938 13.6166 16.4957
Si 8.88986 9.1099 14.1861
C 7.60102 8.11054 13.4006
H 7.85589 7.03302 13.4313
H 7.74813 8.18664 12.2977
C 10.5689 9.00114 13.3517
H 10.9344 7.86532 13.2657
H 10.533 9.1648 12.2898
H 11.2296 9.13112 13.9973
Si 17.8264 15.6638 11.4836
O 18.3953 16.1197 13.0868
C 6.54108 14.8934 1.15552
H 18.7547 3.64273 18.7154
H 7.38972 15.1986 18.7307
H 7.1769 13.8647 1.4854
C 15.96 16.0252 11.3378
H 15.4723 15.0936 11.7162
H 15.5426 16.8164 12.1046
H 15.2527 16.2552 10.5297
Si 18.8223 15.4097 14.4537
O 17.7816 14.2744 15.0017
C 19.6747 16.5807 15.4592
H 19.0556 16.9299 16.5729
H 20.8703 16.7649 15.3887
H 19.469 17.6064 15.2706
C 15.0135 15.446 15.0754
H 15.9747 16.0333 15.5843
H 15.0214 15.096 13.9359
H 14.4536 16.2706 14.6418
Si 17.4595 12.7039 14.9527
O 15.7746 12.5993 14.8397
C 18.2171 11.9595 13.4996
H 5.88113 1.43198 2.52332
H 6.71989 1.29404 2.81451
H 17.2892 11.6688 13.1155
C 17.9185 11.7206 16.5754
H 16.9692 11.1418 16.8021
H 18.7463 11.2676 16.3399
H 18.2591 12.2515 17.429
Si 14.3988 11.762 14.4719
O 14.848 10.2635 13.8659
C 13.2095 11.654 15.955
H 12.3387 11.2385 15.4868
H 13.5707 11.0851 16.794
C 13.372 12.7846 13.1772
H 12.9279 12.2029 12.3515
H 12.6819 13.4124 13.7588
H 14.1359 13.4071 12.7302
Si 15.2869 8.67929 13.9446
O 14.1728 7.51797 14.3568
C 15.761 8.60295 11.2887
H 15.1258 8.27184 10.3094
H 16.1349 0.987425 13.962
H 16.394 9.37441 11.4838
C 17.1444 8.37143 14.3301
H 17.1172 7.38037 13.9071
H 17.6873 8.99394 13.6453
H 17.5063 8.51682 15.3868
Si 14.3055 5.84659 14.7574
C 12.9414 5.37723 15.7759
H 12.2316 6.15689 15.6948
H 12.3393 4.51586 16.053
H 13.336 5.79818 16.8016
C 14.5189 4.8501 13.1729
H 13.7823 4.75623 12.3865
H 15.2899 5.54261 12.7607
H 15.0646 4.03711 13.2749
523
 Atoms. Timestep: 4500
Si 3.16223 17.6536 2.33574
O 3.02656 15.6465 2.38396
C 4.08467 1.71675 2.92606
H 3.27316 2.30877 3.13307
H 4.82397 1.67286 3.69475
H 2.98509 1.38061 4.92996
C 2.69644 13.593 5.33973
H 2.7331 14.5336 4.69437
H 1.70563 13.2246 4.87542
H 2.86949 14.1552 6.42406
Si 3.13059 14.4106 1.24925
O 2.86515 12.7784 1.90962
C 15.3 12.8448 18.9169
H 18.7195 11.4788 4.91773
H 7.74306 14.6005 16.5234
H 5.54856 2.10056 17.8168
C 15.2426 14.1884 18.9406
H 18.7318 4.97387 2.57139
H 5.02299 15.122 17.2622
H 20.019 11.137 11.9985
Si 2.11104 12.066 18.6738
O 20.0134 11.4708 1.11331
C 3.17111 10.5954 18.0465
H 3.06215 9.86855 1.09008
H 3.53103 9.74154 17.2709
H 4.15776 11.0433 17.8987
C 4.39673 15.2481 18.1914
H 9.45121 4.05116 9.96544
H 10.891 5.65265 3.42512
H 5.13673 15.6049 18.9668
Si 20.6736 10.5125 2.20478
O 19.3448 9.29082 2.51131
C 2.90301 5.59075 1.39964
H 1.74114 5.49673 1.04267
H 15.9669 16.7945 15.7179
H 8.67133 5.30621 1.63938
C 1.91298 13.6389 17.6411
H 2.4249 14.2423 17.0032
H 20.6011 13.8564 17.803
H 2.46852 7.08503 16.6815
Si 19.3645 7.81041 3.24817
O 2.07125 8.06402 2.03698
C 1.59326 1.13997 15.4411
H 20.5786 2.62462 17.4146
H 1.97432 17.9115 16.0943
H 20.6303 17.6931 14.4145
C 3.25481 4.27132 1.35143
H 4.06309 3.62067 1.73787
H 20.0145 6.06472 1.82503
H 2.48216 1.59038 16.1293
Si 2.95496 6.93804 2.85765
C 2.51574 5.86976 4.15829
H 14.8683 14.68 18.1924
H 3.10964 5.23727 4.65755
H 1.74808 6.31399 5.10105
C 14.9651 3.7858 4.77162
H 15.9277 3.8697 4.59106
H 14.4603 3.87252 5.7477
H 15.0575 2.62124 4.40836
Si 8.79628 15.5202 3.99919
O 9.45559 13.892 4.60063
C 20.1961 17.484 2.35393
H 5.99614 12.1124 4.43882
H 20.5991 8.3929 6.16682
H 1.56111 17.913 1.80541
C 9.0636 17.0343 5.36145
H 9.59776 17.7137 4.77187
H 8.32908 17.8031 5.66728
H 9.7964 16.8619 6.27398
Si 10.8101 14.3518 3.16003
O 10.3313 12.8922 2.49521
C 12.5339 14.6242 4.21968
H 12.9254 14.0698 5.0194
H 13.4652 15.0333 3.88524
H 12.2219 15.5924 4.64197
C 10.0792 16.0021 2.54608
H 9.66289 15.8769 1.42465
H 10.2416 14.1743 17.2942
H 9.59581 16.3354 17.0409
Si 10.1831 11.7381 1.42505
O 11.2996 10.5858 1.72909
C 8.62051 11.3625 18.3943
H 7.60702 11.0363 1.1697
H 8.52448 12.4193 17.8448
H 8.69405 10.6552 17.7257
C 10.396 11.2885 5.58637
H 9.84167 11.3985 4.38029
H 11.1431 11.7429 6.15851
H 9.569 11.6261 6.0862
Si 11.6417 8.98763 1.92808
O 10.6339 7.95424 1.08461
C 11.572 8.93658 3.84991
H 12.0546 9.80185 4.31798
H 10.5024 8.86249 4.02411
H 11.8879 7.93243 4.13797
C 13.3086 8.58688 1.4226
H 13.3333 9.61166 18.9308
H 13.8148 6.47178 18.2745
Si 9.55171 7.003 18.3468
O 9.34714 6.92149 16.7264
C 8.61879 5.74556 18.6895
H 5.04035 17.6303 16.2019
H 17.9147 8.75509 16.4626
H 8.14468 5.04886 17.9866
C 10.5728 5.6228 4.52156
H 9.38008 5.28248 4.36938
H 10.915 6.39919 5.28189
H 10.4436 4.73751 4.89746
Si 9.89485 7.53401 15.2748
C 9.94105 5.99177 14.1652
H 9.42179 6.34893 13.2633
H 10.933 5.8189 13.7288
H 9.46438 5.0403 14.3711
C 11.5608 8.45344 15.3678
H 11.5603 9.46345 14.9298
H 12.1625 8.72924 16.2557
H 12.3427 7.93155 14.7601
Si 17.6349 13.2867 2.47454
O 16.753 12.6758 3.91387
C 19.1468 14.1973 2.13735
H 18.9946 14.529 3.07891
H 19.0188 15.1479 1.26394
H 3.5859 13.105 5.05316
C 16.288 14.6199 2.04414
H 15.0792 7.57303 9.60632
H 15.3866 14.562 2.71248
H 15.7906 15.7626 1.34419
Si 16.0632 11.3614 3.08931
O 16.6394 9.76705 3.09796
C 19.5886 8.48241 4.99466
H 19.9202 9.61853 4.62547
H 2.13445 10.967 7.02113
H 17.3392 9.38522 6.35652
C 14.5018 11.1693 4.05908
H 14.9814 10.4875 4.8405
H 14.5308 12.1531 4.62698
H 13.4526 11.0935 3.94375
Si 16.8349 8.00242 3.54405
O 16.1826 7.65794 2.06429
C 16.3497 12.0269 1.4487
H 16.5764 11.2918 18.564
H 14.3818 8.74729 2.068
H 4.09829 17.2531 10.3844
C 15.6361 7.49626 5.02451
H 14.5613 7.46524 4.69112
H 16.1517 6.57128 5.26104
H 15.7679 8.23612 5.8358
Si 15.2295 6.4852 1.36795
O 15.7838 5.03503 1.08451
C 14.0915 7.71857 18.318
H 18.1273 10.6084 9.66267
H 13.4067 7.5565 17.2717
C 18.2295 5.90204 16.4875
H 18.1239 6.49395 17.5653
H 18.991 6.56632 15.8754
H 18.9775 4.97047 16.7453
Si 15.9875 3.74934 18.3239
O 16.3598 4.24723 16.8392
C 13.8044 3.41148 18.2719
H 13.8542 2.91044 1.13734
H 13.4203 4.4773 18.1517
H 13.6939 2.35674 17.4818
C 16.8486 2.58268 1.3238
H 8.26132 4.54373 12.4096
H 20.8626 5.90727 7.02577
H 17.2964 1.6311 1.39898
Si 17.1355 4.65832 15.3832
C 18.4128 3.48875 14.7865
H 15.0167 18.1979 13.9656
H 19.5811 3.36941 15.3549
H 18.4055 2.76636 13.9481
C 19.0397 6.0724 2.24375
H 18.3514 6.43553 1.54114
H 17.6841 8.67528 17.081
H 17.7518 18.0271 4.88986
Si 5.0595 15.5074 7.98771
O 4.88361 14.0705 8.74318
C 6.39836 16.712 8.52657
H 3.6495 15.9183 8.38321
H 7.36881 16.3847 8.15022
H 6.2904 17.7313 8.15291
C 4.75312 15.4957 6.13827
H 3.6817 15.7606 5.94974
H 5.37104 16.3818 5.64155
H 4.79575 14.5057 5.65359
Si 6.32834 13.2972 9.20192
O 6.27534 11.7495 8.73884
C 5.57806 11.137 3.83704
H 4.69974 11.2969 3.17035
H 5.64921 10.3256 4.56916
H 6.47631 10.7416 3.1049
C 2.67415 10.8013 7.91468
H 3.73619 10.7926 7.73224
H 2.50726 9.67767 8.08403
H 2.1597 11.4789 8.63814
Si 7.51041 10.5234 8.64504
O 6.85353 9.66508 7.3606
C 7.45481 9.54038 10.3067
H 6.4046 9.41622 10.4076
H 7.85158 8.53796 10.1717
H 7.91038 10.1321 11.1192
C 8.91139 11.6281 8.44937
H 8.69105 12.3664 7.65469
H 9.16275 12.1903 9.36366
H 9.83254 11.0922 8.18877
Si 5.73365 8.44998 7.24544
O 6.76007 7.18724 7.03713
C 4.90957 8.18158 8.92655
H 3.93877 7.61827 8.80437
H 5.66326 7.64787 9.443
H 4.69647 9.19875 9.29368
C 7.35225 8.20943 2.7542
H 7.8412 9.21621 2.94457
H 6.43256 8.35455 2.17871
H 7.27111 7.6557 3.61055
Si 6.53399 5.52811 7.40449
O 7.78939 4.86665 8.3037
C 5.04772 5.30335 8.45156
H 5.28108 5.54129 9.41844
H 4.18526 5.93027 8.13023
H 4.55339 4.34861 8.28977
C 6.59893 4.95938 5.58612
H 7.64926 4.67273 5.5252
H 6.21973 3.99038 5.41976
H 6.43422 5.73362 4.76197
Si 8.27066 3.61014 9.28239
C 6.86135 3.02629 10.29
H 5.90019 3.64864 10.3471
H 6.40549 1.99662 9.96431
H 7.31661 2.94425 11.3212
C 8.74991 2.23013 8.10606
H 7.86861 1.72158 7.68414
H 7.04972 15.4238 11.5041
Si 11.3679 13.273 9.25122
O 11.8169 11.6717 9.10295
C 19.3561 12.3096 5.10784
H 19.4522 13.0984 4.31786
H 18.9355 12.855 5.97694
H 20.2856 11.9051 5.48614
C 12.4817 14.3487 8.21435
H 12.1169 15.013 7.43059
H 13.0518 14.9437 8.90863
H 13.297 13.7083 7.8859
Si 12.9816 10.5388 8.83116
O 12.2816 9.18574 8.14911
C 14.1374 11.3265 7.62758
H 13.6193 11.9311 6.86181
H 14.8636 11.9649 8.23112
H 14.7473 10.5568 7.09916
C 13.6958 9.982 10.3609
H 13.4832 8.90451 10.5343
H 14.7048 10.1115 10.7531
H 13.1366 10.4661 11.162
Si 11.6925 7.72172 8.54864
O 12.9827 6.66617 8.71342
C 10.3896 7.52223 7.1828
H 10.6987 7.66702 6.14413
H 9.57674 6.78519 7.26445
H 9.88728 8.52288 7.28565
C 10.8954 7.81616 10.2268
H 11.3683 8.57488 10.8308
H 9.84124 8.06441 10.1574
H 11.0065 6.84818 10.7587
Si 13.4248 5.07782 8.44805
O 12.799 4.38449 9.78202
C 15.2971 5.1269 8.45548
H 15.7068 4.17742 8.12616
H 15.5147 5.88316 7.70331
H 15.6037 5.33348 9.49442
C 12.7045 4.47447 6.82412
H 12.9936 5.08495 5.94202
H 13.0814 3.43269 6.67155
H 11.6104 4.46005 6.74661
Si 12.3413 2.90863 10.3963
O 11.3094 2.05155 9.43859
C 11.3658 3.41019 11.8396
H 10.4712 2.80251 11.6229
H 11.7832 2.8679 12.6924
H 11.1173 4.42829 12.1431
C 13.9261 2.05501 11.0481
H 14.4841 2.89859 11.3472
H 13.9078 1.05063 11.4771
H 14.7683 2.06267 10.324
Si 10.1042 1.06608 8.66337
C 9.86298 2.50635 7.09146
H 9.64595 2.2805 6.04585
H 10.3236 3.45384 7.19675
C 9.75411 16.4525 9.29741
H 9.73167 15.4902 8.70063
H 10.193 16.4769 10.3511
H 8.67851 16.5313 9.51801
Si 18.6708 8.5416 6.55818
O 17.9645 6.93874 6.9669
C 19.5152 9.02601 8.05331
H 19.6365 8.2178 8.71309
H 20.5863 8.91325 8.05283
H 19.6113 10.0639 8.38671
C 1.31712 7.33799 11.9428
H 1.77694 8.04585 11.1055
H 4.94507 8.80131 5.90604
H 8.03572 7.62301 2.1415
Si 19.2975 5.89753 7.13265
O 19.0833 5.23027 8.92035
C 19.3323 4.56903 5.82713
H 19.7987 4.94703 4.84178
H 20.1029 3.79125 5.92152
H 18.5023 3.89122 5.54523
C 4.44002 18.0558 11.2582
H 2.67733 3.65923 18.8179
H 10.3042 10.2236 5.61139
H 16.7642 2.13679 10.0275
Si 20.5642 4.7083 9.43556
O 20.7966 6.76276 7.72333
C 2.32452 5.75433 10.2352
H 3.04378 4.94377 10.1808
H 2.42006 6.87112 9.91764
H 2.16193 4.99873 12.345
C 17.2076 2.10624 11.0572
H 18.1371 1.51178 11.1122
H 16.48 1.63794 11.871
H 17.2741 3.10584 11.3956
Si 2.87496 1.0106 8.84048
O 1.38353 17.4292 8.6994
C 3.83413 1.93166 7.65091
H 3.04787 2.46134 7.09541
H 19.583 1.03038 3.39794
H 15.4841 2.50245 6.83153
C 4.8708 1.33914 17.1626
H 4.37557 2.26642 16.7537
H 14.2336 6.17456 2.6128
H 5.73026 1.83647 11.4273
Si 19.5678 16.6357 8.41354
O 18.8363 17.9077 7.39118
C 20.2499 14.9135 7.62368
H 19.4224 14.0003 7.57735
H 19.828 15.3107 6.69312
H 1.5431 14.5304 7.7263
C 18.7937 16.1422 9.88528
H 18.2785 17.1811 10.07
H 10.0977 16.9444 2.8357
H 7.75083 15.6386 11.5348
Si 17.4699 17.6684 6.30294
C 15.8543 1.47748 6.77505
H 15.4823 1.44866 7.80472
H 14.9547 17.8942 6.62046
H 11.1982 13.6443 10.7336
C 16.9987 15.8127 6.44311
H 16.8477 15.359 5.45229
H 17.7292 15.0967 6.88053
H 16.0928 15.5135 7.18518
Si 19.0406 12.1597 11.9427
O 19.6687 13.6751 12.7268
C 18.3588 13.0582 10.4662
H 6.96032 17.5832 1.11002
H 8.55847 4.17903 11.6912
H 17.338 10.9216 13.2327
C 17.8855 12.1833 9.33742
H 17.0932 11.4419 8.7129
H 3.8393 16.1715 17.983
H 18.4146 12.5488 8.30346
Si 1.78616 13.7955 12.7793
O 2.59232 12.4547 13.251
C 2.13166 15.051 14.0904
H 2.89115 15.7536 13.776
H 1.23599 15.6392 14.1258
H 2.26439 14.8997 15.2389
C 2.32332 14.7017 11.2221
H 1.88967 15.7202 11.3061
H 3.38545 14.7409 10.9479
H 1.76759 14.2356 10.3079
Si 3.08624 11.0162 12.6723
O 2.22158 9.72961 12.8422
C 4.67438 10.7293 13.6645
H 4.54666 10.975 14.8183
H 4.94193 9.72745 13.3216
H 5.47786 11.3915 13.3383
C 3.43978 11.5779 10.8863
H 3.56674 10.893 10.1029
H 2.83537 12.3748 10.4033
H 4.26628 12.3027 10.8268
Si 2.89212 8.25352 13.1074
O 3.1683 8.57416 14.8347
C 1.51075 5.76944 11.5321
H 16.1298 8.97953 10.594
H 20.0369 7.3152 12.7974
H 4.14965 7.94732 12.432
C 20.0117 4.69244 11.6442
H 19.0008 5.40083 11.2297
H 19.2934 3.70035 11.7429
H 20.3525 4.63169 12.8125
Si 3.17559 6.9378 15.5561
O 4.55658 6.29751 15.5947
C 1.76104 5.78067 15.1231
H 1.67194 4.53458 14.9821
H 20.7428 5.97718 15.61
H 1.51227 6.20071 13.8603
C 5.94895 5.53957 13.0499
H 6.73208 6.21735 12.6358
H 6.438 4.52557 13.0501
H 4.92628 5.67458 12.5158
Si 5.94296 6.20153 14.7696
C 6.63339 5.11468 16.0717
H 6.09593 4.12516 16.1542
H 7.70752 5.10313 16.0364
H 6.27611 5.70891 16.9336
C 6.6774 7.93494 14.8049
H 7.38317 7.7768 15.6262
H 5.83715 8.59396 14.9888
Si 5.97935 1.11155 13.0728
O 6.93708 17.3599 13.9372
C 5.10892 2.53107 13.7919
H 4.1358 2.35369 14.3536
H 5.77507 3.36975 14.1452
H 4.69645 2.85531 12.7397
C 3.37018 1.38431 10.5729
H 6.46923 16.6595 9.63144
H 20.1438 16.2865 2.37478
H 2.80889 18.1528 11.3015
Si 8.22175 17.6076 14.9047
O 9.43194 17.0077 13.8189
C 8.41125 2.33456 15.5388
H 9.32328 2.855 15.2978
H 7.31613 2.66931 15.7274
H 8.5262 2.26445 16.6471
C 8.46984 16.7726 16.4369
H 4.75363 1.28032 7.25146
H 7.7509 17.0507 17.1953
H 7.30311 14.8902 2.59168
Si 11.0283 16.5257 14.244
O 10.885 15.1508 15.1096
C 11.9939 17.8362 15.3803
H 12.0987 17.2535 16.3509
H 13.051 18.0274 14.9562
H 11.3526 1.55376 15.811
C 12.1839 16.5702 12.6392
H 12.8921 15.7554 12.6284
H 11.6395 16.6394 11.7113
H 12.6624 17.5159 12.881
Si 10.8565 13.7661 15.8741
O 9.75355 12.7222 15.2385
C 13.3788 17.9035 4.31533
H 12.7893 0.995876 5.16145
H 13.328 1.16566 3.23757
H 14.2402 17.3329 4.62989
C 12.6494 13.2665 16.2816
H 13.4033 13.8689 15.7108
H 13.0051 13.5693 17.2723
Si 8.29407 12.0822 15.0506
O 8.18758 10.4933 15.3392
C 7.89439 12.6598 13.2168
H 6.82467 12.7325 13.0179
H 8.44026 13.6179 13.0965
H 8.31191 12.0254 12.4324
C 6.55863 12.5781 15.8236
H 5.83704 12.6086 14.9739
H 6.23601 12.1467 16.7589
H 7.25455 13.8301 16.2944
Si 8.88463 9.28849 14.2111
C 7.32479 8.50553 13.4371
H 7.39087 7.69784 12.7086
H 6.59085 9.21979 13.0147
C 10.131 9.94493 12.7851
H 10.723 9.1099 12.5095
H 9.45225 10.2211 11.9761
H 10.7863 10.6166 13.2514
Si 17.8623 14.8541 10.8827
O 17.9456 15.191 12.5419
C 6.97011 14.7757 3.52911
H 14.2101 4.65337 4.23958
H 6.6907 14.0119 4.35681
H 6.1514 15.539 3.47586
C 15.7607 15.2734 10.6917
H 15.3473 16.0927 10.2283
H 15.4452 14.2754 10.6328
H 15.6258 15.5461 11.7263
Si 18.7806 15.0216 13.9401
O 17.6711 14.2723 15.0516
C 19.0621 0.988593 16.2159
H 18.2889 1.96841 16.1179
H 19.1511 17.3462 15.6659
H 17.6051 17.8153 17.39
C 15.4643 16.2373 16.4056
H 14.4741 16.6441 16.6878
H 15.466 15.0387 16.1222
H 15.9401 16.3754 17.3542
Si 17.5529 12.6558 15.0132
O 15.9407 12.4383 15.3158
C 17.6363 11.9413 13.1955
H 6.3449 17.3903 1.75767
H 2.96838 18.0223 4.17128
H 16.7392 12.4285 12.7576
C 18.7738 12.0221 16.1379
H 19.439 12.8889 16.0747
H 18.6525 11.8602 17.3107
H 19.4036 11.4887 15.586
Si 14.5128 11.6444 15.0866
O 15.0822 9.99748 14.9424
C 12.9567 11.8137 16.0398
H 12.1419 11.4533 15.3505
H 12.56 11.2261 16.8946
C 14.0464 12.178 13.4268
H 14.3327 11.3353 12.7164
H 13.0588 12.5573 13.0431
H 14.7044 13.1498 13.2166
Si 16.0156 8.65763 14.5584
O 15.4492 7.21843 13.9773
C 15.977 7.80477 10.3213
H 16.7618 7.84006 9.51696
H 15.9097 17.6232 13.7952
H 15.9675 7.05238 11.1715
C 17.8467 8.9111 14.0039
H 17.8656 9.05639 12.9187
H 18.0613 9.86878 14.4141
H 18.4203 7.96646 14.1101
Si 15.5007 5.44662 14.0383
C 13.5775 4.9676 13.904
H 13.1895 4.73153 14.9683
H 12.902 5.52996 13.1707
H 13.9374 4.00066 13.5447
C 16.4412 4.84801 12.5396
H 17.2663 5.37649 11.9496
H 16.9011 3.87968 12.9329
H 15.6684 4.54816 11.8299
523
 Atoms. Timestep: 5000
Si 3.46768 16.61 1.20328
O 2.71341 15.467 17.8675
C 3.93748 2.88114 3.20705
H 4.4253 2.31907 3.95468
H 4.51135 3.72091 2.47242
H 3.7906 5.62078 9.01319
C 2.99029 14.7901 5.37989
H 2.19068 13.957 5.69911
H 3.47354 15.3047 6.51404
H 7.17598 12.475 2.40989
Si 1.50439 14.7482 16.9244
O 1.58634 13.2851 18.1147
C 16.1548 12.9034 2.0733
H 20.4136 13.1117 7.23073
H 6.34163 15.9401 15.5103
H 7.0481 2.08215 1.51654
C 15.8622 14.0807 1.66014
H 1.27737 6.09981 3.30601
H 19.7473 15.8131 14.9681
H 18.264 10.9645 10.2628
Si 1.61921 11.8365 18.8839
O 19.381 11.2434 1.72869
C 2.86744 10.4879 18.4944
H 2.95304 9.47466 1.16915
H 2.30672 9.66022 17.775
H 3.59378 10.4302 17.6804
C 1.22244 15.8719 15.6272
H 8.25365 4.83999 10.0768
H 11.5246 4.0147 4.84829
H 2.20838 15.8271 14.7526
Si 18.6209 9.85625 1.87596
O 19.1394 9.01035 3.24491
C 4.38072 8.5321 18.8499
H 5.06513 8.89024 18.2392
H 14.8801 1.30529 3.31894
H 8.47757 6.52472 17.8328
C 19.0726 15.2048 18.2397
H 1.91827 2.48922 17.7812
H 18.9106 16.4003 18.7615
H 2.47933 6.39844 16.5353
Si 18.5386 7.57189 4.30091
O 5.28873 6.01199 17.4815
C 19.993 14.8447 13.0132
H 19.8525 15.2888 17.2685
H 18.8479 14.7624 1.74118
H 1.69035 16.7297 4.75502
C 4.11881 8.56644 2.5599
H 3.00556 8.3357 2.78707
H 19.5176 5.59151 2.47112
H 2.94074 3.59608 15.7609
Si 5.78562 6.25359 1.23918
C 4.76461 7.03353 3.00494
H 14.9609 14.547 1.39959
H 5.07867 7.59867 3.89265
H 5.92666 4.79175 1.49511
C 17.0193 2.91135 5.7934
H 16.2971 3.75197 5.52937
H 18.0514 3.57429 5.46621
H 16.9931 1.7972 5.60868
Si 8.72171 15.6034 2.66514
O 9.12723 14.1197 3.20207
C 2.53864 16.0246 4.58024
H 4.20194 12.729 3.06328
H 1.50587 7.78472 5.31315
H 3.31129 3.92331 3.821
C 8.31671 16.6389 4.00509
H 9.02287 17.4917 3.91624
H 7.27831 16.7544 3.80265
H 8.3798 16.3819 5.17497
Si 10.894 14.3359 2.77845
O 11.3935 12.8234 2.2876
C 11.622 14.1898 4.47563
H 11.8013 13.125 4.70892
H 12.6472 14.5287 4.37414
H 11.3091 14.5258 5.36943
C 10.7204 15.7978 1.89928
H 10.9156 15.9534 18.2919
H 9.77901 15.2217 16.441
H 9.24983 2.335 1.7502
Si 11.1825 11.4989 1.54093
O 12.1765 10.3874 1.96898
C 9.78914 11.4671 18.1533
H 9.11221 10.4162 18.4305
H 9.23865 12.2905 18.2779
H 9.65259 11.1493 17.1186
C 9.89536 11.0314 4.45687
H 9.35924 11.9653 4.22633
H 9.8737 11.1675 5.549
H 9.19141 10.1683 4.38769
Si 12.2487 8.68831 1.64705
O 10.9805 8.837 18.4102
C 11.4863 7.43226 2.77672
H 12.083 7.42091 3.7628
H 10.5988 8.09315 2.86252
H 11.3884 6.48335 2.29535
C 13.9456 7.95388 1.38605
H 14.7301 8.88791 1.32603
H 14.9548 6.69225 17.5071
Si 10.3817 7.54357 17.6579
O 10.2383 7.6457 16.0676
C 9.52666 6.27157 18.5009
H 8.64019 2.93584 18.0694
H 19.7088 7.28665 17.5328
H 9.81741 5.30631 18.1247
C 11.3844 3.37223 3.89422
H 11.942 3.98723 3.14374
H 10.4951 3.05061 3.22811
H 12.1806 2.52715 4.30425
Si 9.98557 7.79736 14.3678
C 9.40015 6.28135 13.5146
H 10.0928 5.47558 13.7491
H 8.34229 5.93918 13.709
H 9.31352 6.36104 12.464
C 11.7727 8.00519 13.5838
H 12.58 8.53888 14.1164
H 12.2168 7.0568 13.4032
H 11.6074 8.53421 12.6255
Si 17.2477 13.5321 4.28995
O 16.7642 11.9361 5.12171
C 18.847 14.0552 4.3314
H 19.9402 13.9596 4.36242
H 18.4992 14.6872 3.48576
H 4.04581 14.5058 5.07323
C 15.998 14.777 3.884
H 17.3635 9.55318 11.2171
H 15.2183 14.9235 4.59404
H 16.0113 15.8954 3.24615
Si 15.8594 10.9616 4.12627
O 16.1095 9.47435 4.83174
C 19.7897 7.86583 5.77939
H 20.2396 8.74468 5.72307
H 2.23785 11.1702 8.21439
H 18.1501 6.98619 7.83087
C 14.1422 11.1756 4.25818
H 13.9901 12.2378 4.59345
H 13.6291 11.3967 3.19604
H 13.3199 10.6934 4.73778
Si 16.3463 7.64835 4.39715
O 16.0895 5.70151 3.4697
C 16.2423 11.6907 2.45436
H 16.3429 10.4287 1.81828
H 15.9949 7.83035 2.90669
H 5.09499 1.18176 10.0565
C 15.6189 7.2354 5.95361
H 14.8335 7.73204 6.5497
H 15.4751 6.13945 5.99713
H 16.2822 7.08794 6.83313
Si 14.8934 5.72681 2.54844
O 14.846 4.34123 1.802
C 14.2117 6.90624 18.2954
H 16.024 12.1471 8.77813
H 13.507 5.7801 18.8409
C 17.3258 5.49593 18.0808
H 17.7338 4.88404 1.14703
H 16.882 6.32748 18.6658
H 18.2592 5.69666 17.6068
Si 14.3446 3.3479 18.4269
O 15.1914 3.41277 16.9522
C 12.0214 3.93878 18.4647
H 11.6149 3.21518 1.22028
H 12.1791 5.02979 1.1846
H 11.7972 3.47597 17.5319
C 14.5762 1.49331 1.37775
H 7.76521 7.53246 10.3742
H 3.82771 6.58515 3.38646
H 14.759 17.5566 1.60222
Si 16.5759 4.50663 16.6801
C 18.0632 3.83022 15.777
H 15.6175 16.9133 16.8569
H 18.7322 3.23033 16.2937
H 18.1911 4.07626 14.7573
C 19.7012 5.93435 3.46327
H 19.3641 5.51533 4.35963
H 19.1912 6.59845 17.2838
H 19.9267 1.47171 2.05334
Si 6.40714 15.2128 7.41356
O 7.61258 14.4046 6.54679
C 6.97449 15.6704 9.03434
H 5.39186 14.2915 7.8105
H 6.53537 16.5506 9.81791
H 6.9696 14.8523 9.77229
C 5.86811 16.6754 6.33386
H 5.48682 15.9284 5.4946
H 5.10349 17.4831 6.98553
H 6.78976 17.3718 5.83187
Si 8.53916 13.0066 6.11283
O 7.43029 11.7642 6.57146
C 4.43641 11.756 3.68232
H 4.6349 12.2764 4.63765
H 5.19641 11.1567 3.25474
H 3.52695 11.2931 3.69783
C 2.6588 10.9392 7.21509
H 2.52551 11.9136 6.76304
H 1.94241 10.213 6.80324
H 3.62113 10.3971 7.43257
Si 7.41679 10.6174 7.70092
O 6.16982 9.5868 7.64957
C 7.37687 11.4763 9.35888
H 8.23344 10.9254 9.84551
H 7.79994 12.5077 9.28339
H 6.41399 11.3803 9.83884
C 9.15884 9.89714 7.70346
H 9.87544 10.7113 7.52829
H 9.61915 9.34032 8.51166
H 9.14655 9.34654 6.75115
Si 5.58076 8.48586 6.51586
O 6.53788 7.20488 6.2417
C 4.29164 7.63567 7.40171
H 3.4272 7.19653 6.96372
H 4.96786 6.85233 7.8257
H 4.12091 8.35801 8.21175
C 8.26124 7.90927 3.17789
H 8.5498 8.24919 4.13876
H 8.07328 8.96233 2.65989
H 7.24579 7.43449 3.20812
Si 7.20506 5.73204 6.34664
O 7.64855 5.73127 7.92186
C 5.96799 4.43613 5.83293
H 5.19362 4.77537 5.1811
H 6.37968 3.64194 5.23508
H 5.45741 4.03211 6.7211
C 8.71236 5.91312 5.19299
H 9.39791 6.74719 5.54035
H 9.43906 5.16429 5.30694
H 8.58488 6.22625 4.11908
Si 7.82816 4.35491 8.81246
C 6.11684 3.6501 9.01256
H 6.25223 2.61155 8.75179
H 5.8077 3.663 10.0108
H 5.3936 4.04298 8.28541
C 9.08716 3.05157 7.87264
H 8.4171 2.4268 7.13285
H 5.95064 13.7081 11.1107
Si 12.8598 12.4366 8.02089
O 13.4111 11.5774 9.23788
C 19.6104 12.4285 7.60676
H 18.7245 13.0532 7.60048
H 19.3265 11.4747 7.05754
H 19.6875 12.1664 8.64532
C 11.8411 13.9104 8.80144
H 11.6144 13.7934 9.87115
H 12.4366 14.7814 8.5713
H 10.9995 13.8996 8.16593
Si 13.9721 10.0484 9.2629
O 12.7782 9.10864 8.65228
C 15.6056 9.59612 8.55158
H 15.7335 10.1216 7.5701
H 16.4074 9.70202 9.28805
H 15.4429 8.57866 8.19762
C 14.011 9.59697 11.0334
H 14.4198 8.6053 11.2702
H 14.6061 10.3633 11.5696
H 13.1254 9.66234 11.6868
Si 12.1316 7.63848 8.55433
O 13.3551 6.57108 8.78104
C 11.4385 7.63041 6.82963
H 11.5774 6.69805 6.27461
H 10.3667 7.67873 6.99294
H 11.7073 8.55655 6.31072
C 11.0187 7.2311 9.9844
H 11.5667 7.41523 10.9331
H 10.0572 7.78334 10.02
H 10.7386 6.16427 9.95767
Si 13.9334 5.02016 8.53973
O 13.032 4.13871 9.53833
C 15.7757 4.97613 9.06998
H 16.2486 3.99913 8.96664
H 16.3432 5.7636 8.59481
H 15.9948 5.06843 10.1089
C 13.6402 4.41885 6.81001
H 14.2106 5.03939 6.09538
H 14.0497 3.42197 6.75107
H 12.5941 4.50473 6.48253
Si 12.2465 3.1898 10.6256
O 11.3468 2.1389 9.89619
C 11.1251 4.26987 11.7725
H 10.5882 3.49754 12.2962
H 11.9555 4.68269 12.2819
H 10.414 5.0374 11.5168
C 13.4242 2.396 11.8023
H 13.2852 2.9485 12.7693
H 12.7941 1.4681 11.9205
H 14.5062 2.4018 11.9061
Si 10.4396 1.89507 8.5215
C 10.4807 3.4396 7.30364
H 10.7517 2.96657 6.36366
H 10.8696 4.41066 7.4759
C 10.4012 16.9049 7.69924
H 10.1683 17.2298 8.82785
H 10.0533 17.9159 7.12907
H 11.2782 16.4735 7.36338
Si 19.5831 6.99025 7.40034
O 20.1585 5.28282 7.61833
C 20.6927 7.82994 8.67242
H 19.9773 8.62199 8.54029
H 20.1311 7.34337 9.58735
H 2.15741 8.17207 8.39909
C 2.57208 8.33917 11.9261
H 3.60237 8.08556 11.0292
H 5.16243 9.28024 5.42684
H 8.89213 7.42317 2.43828
Si 1.848 4.64471 8.36545
O 1.25614 3.54609 9.51759
C 20.2777 1.58297 3.11444
H 20.024 17.9386 3.85613
H 1.89043 1.85809 3.16774
H 19.7696 2.54304 3.60408
C 4.38245 1.23355 10.811
H 4.41991 9.69721 2.90057
H 10.861 11.0634 4.1704
H 15.9233 1.42793 13.989
Si 20.1729 4.11955 11.6115
O 2.86056 5.59062 9.20864
C 2.06297 5.79898 12.3033
H 1.38896 5.40316 13.0459
H 2.57124 5.35174 11.3894
H 20.5632 7.66466 12.6375
C 16.9451 1.2621 14.3773
H 17.4833 2.01596 13.8557
H 17.1696 17.4188 13.6481
H 17.3142 1.23868 15.3408
Si 1.67809 1.70533 9.8007
O 19.7342 1.26262 10.0572
C 2.59868 1.48279 8.09587
H 2.42734 2.61367 7.99648
H 3.37961 15.8725 4.25074
H 14.7925 18.0055 9.73611
C 8.4362 2.29447 18.8672
H 8.78709 1.52928 18.258
H 13.5568 6.57571 2.97202
H 2.74324 2.18327 11.6629
Si 18.889 17.2418 8.7927
O 17.7942 1.23078 7.76941
C 19.6854 15.7118 8.03816
H 19.6818 16.1836 6.92879
H 20.7384 15.542 8.31663
H 19.2989 14.5885 7.60224
C 17.1123 16.4785 9.41624
H 17.3955 17.1556 10.2886
H 11.1897 16.7367 2.21203
H 6.14067 13.1632 10.6621
Si 16.4441 17.3086 7.83178
C 14.7173 18.025 8.71052
H 13.558 17.6353 8.46194
H 14.6947 2.06618 8.58818
H 11.6619 11.6614 7.29169
C 16.0777 16.1423 6.4946
H 17.1939 15.7221 6.50282
H 15.5033 15.2165 6.91229
H 15.9127 16.5173 5.49509
Si 18.3644 12.3991 10.8503
O 19.9004 12.6459 11.1998
C 17.1541 13.709 9.92119
H 6.09656 1.46958 17.9629
H 7.51249 7.47284 9.63557
H 18.3148 12.0968 13.0575
C 16.4247 13.2612 8.58062
H 15.5507 13.6406 9.02916
H 20.4082 16.8838 15.6358
H 16.7251 13.4013 7.40095
Si 1.4903 13.7961 11.6052
O 2.0315 12.8998 12.9382
C 1.26505 15.5902 12.4155
H 2.16814 15.8168 12.6347
H 20.6212 15.9477 11.4619
H 1.58256 1.77216 16.7997
C 2.50926 14.3393 10.2371
H 1.63303 14.7105 9.59077
H 3.1646 15.165 10.5239
H 2.89515 13.3388 9.91217
Si 3.00846 11.6436 12.7709
O 1.9856 10.3511 13.3457
C 4.15458 12.1076 14.2296
H 3.41454 11.8477 15.1296
H 5.19475 11.6477 14.2314
H 4.42106 13.1342 14.604
C 3.59087 11.3987 11.1375
H 4.33589 12.1601 10.9012
H 4.04891 10.3874 11.2117
H 2.921 11.5154 10.2681
Si 2.95045 9.1235 13.7481
O 2.36693 8.41076 15.1735
C 1.78709 7.28172 12.0821
H 18.634 9.38333 12.5206
H 2.26011 9.37345 11.515
H 4.71571 9.34547 13.6935
C 18.5264 3.90808 11.0288
H 18.0571 4.42534 10.1769
H 18.32 2.81823 10.7783
H 17.8067 3.92937 11.7565
Si 2.2588 6.62827 15.08
O 3.9494 6.42291 14.4935
C 20.6366 5.01928 14.9332
H 20.1421 5.49437 16.1202
H 1.37315 4.4895 14.0267
H 1.76583 4.26349 15.6911
C 5.68612 5.72047 12.3183
H 6.61004 6.08452 11.7539
H 5.72245 4.60151 12.1318
H 4.83703 6.03774 11.6753
Si 5.63334 6.07177 14.2748
C 6.85857 4.91018 15.2316
H 7.46168 4.30507 14.5463
H 7.70839 5.56854 15.5049
H 6.49038 4.46057 16.1534
C 6.37056 7.65709 15.2306
H 7.08577 7.08831 15.8112
H 5.52456 7.81571 15.9165
Si 5.78523 1.37376 12.7176
O 7.4227 17.7747 12.5115
C 4.22224 1.60503 14.0184
H 3.33791 1.29573 14.58
H 4.02025 2.37534 13.1846
H 3.49373 3.56365 16.3699
C 3.20464 1.79823 10.817
H 8.05626 15.6347 8.78077
H 1.97619 16.2391 3.6635
H 5.23458 17.1189 11.2499
Si 7.96603 17.5919 14.0012
O 9.06851 16.3781 14.095
C 8.8581 2.04568 14.7319
H 8.70919 2.33665 15.7206
H 9.97149 1.78451 14.6188
H 8.68724 2.72972 13.907
C 6.64606 17.0416 15.0988
H 2.64935 17.6634 7.31126
H 5.9134 17.5949 15.1908
H 6.69772 15.2944 18.7104
Si 10.7302 16.3978 13.4535
O 10.9808 14.9182 14.1757
C 12.0552 17.4423 14.0132
H 12.6488 16.6197 14.6244
H 12.8403 17.785 13.2741
H 12.4073 1.24075 14.8372
C 10.7036 16.0239 11.5874
H 9.66217 15.9475 11.4801
H 11.1703 16.535 10.7745
H 11.2789 15.0974 11.477
Si 10.8667 14.2348 15.7527
O 9.99469 12.7593 15.456
C 13.26 17.2755 5.07413
H 9.51328 15.8827 7.53356
H 12.9104 16.6947 5.76781
H 14.0868 17.4935 4.73415
C 12.4444 13.7797 16.751
H 13.3177 14.3437 16.2962
H 12.3679 14.0565 17.8812
Si 8.39022 12.4066 15.1978
O 8.40502 10.8573 14.6616
C 7.96317 13.559 13.8218
H 8.86108 13.6029 13.2232
H 7.0117 13.5995 13.3205
H 7.92048 14.3691 14.6146
C 7.03343 12.651 16.3601
H 6.86891 13.5369 17.0794
H 6.14728 12.8361 15.6941
H 6.88993 11.8162 17.1934
Si 8.35111 9.47371 13.8213
C 6.7188 8.5823 14.2183
H 6.3713 8.34341 13.1904
H 6.08126 9.48746 14.4506
C 8.30451 9.55795 12.0329
H 7.81286 8.80316 11.5393
H 7.79155 10.3951 11.5522
H 9.39326 9.40775 11.7554
Si 16.7721 15.3376 10.701
O 17.5049 15.5124 12.2804
C 7.67339 15.598 1.17064
H 16.6853 3.327 6.70572
H 8.37014 15.7812 17.9665
H 7.32289 11.8318 1.96369
C 14.9491 15.3722 11.5233
H 14.114 16.2117 11.5287
H 14.4228 14.6843 10.8139
H 14.9257 14.783 12.4475
Si 18.3523 14.5966 13.3072
O 17.6797 14.7506 14.8501
C 2.72774 5.04285 1.24734
H 3.34208 5.382 18.1111
H 3.40465 4.79111 1.95894
H 2.8452 3.77953 18.8732
C 13.8956 1.77748 2.75842
H 12.5941 16.8894 4.22056
H 13.0609 2.60192 2.74627
H 14.8675 17.6025 18.4844
Si 17.1658 13.0362 14.7919
O 15.4592 12.7865 14.8868
C 17.7004 12.935 12.9162
H 5.78059 17.644 17.8655
H 3.01379 2.92135 2.82723
H 16.6232 12.9126 12.6663
C 17.7552 12.4239 16.3919
H 18.3277 13.4463 16.7003
H 16.9435 12.0467 17.0034
H 18.5226 11.5363 16.6141
Si 14.0776 11.8418 15.2737
O 14.8409 10.3699 15.7344
C 12.7341 12.2953 16.6484
H 11.8949 11.6284 16.3356
H 12.9602 11.968 17.6639
C 13.1431 11.8028 13.7641
H 13.7005 11.575 12.7717
H 12.2657 11.1518 13.8427
H 12.7888 12.854 13.5568
Si 15.6859 8.96199 16.1568
O 15.0118 7.59186 15.1463
C 17.596 9.29354 12.3584
H 17.1249 8.45399 12.7815
H 15.6388 16.4221 16.3295
H 16.9647 10.1089 12.9028
C 17.5173 9.01927 15.8798
H 17.9851 8.0292 16.0647
H 17.9711 9.40528 14.9422
H 17.8975 9.89594 16.3894
Si 15.0312 5.79343 15.0943
C 13.4152 5.50859 15.6939
H 13.3931 5.3473 16.7594
H 12.8553 6.43137 15.6328
H 12.7907 4.66511 15.5436
C 15.1359 5.34286 13.232
H 15.9223 4.69131 12.8621
H 14.195 4.99297 13.0674
H 15.0958 6.44162 12.8955
523
 Atoms. Timestep: 5500
Si 3.64946 14.1882 16.6508
O 2.65887 13.767 17.9735
C 6.04077 17.8905 5.39915
H 7.22965 17.9855 5.50136
H 6.03333 2.26049 5.49749
H 3.30404 4.65616 10.4043
C 3.16871 15.9488 2.74785
H 3.27627 17.0229 2.4565
H 3.06904 15.3887 1.45535
H 8.00537 15.0697 3.93905
Si 20.6374 13.4292 1.42075
O 1.66841 12.0998 2.16365
C 15.7822 10.5804 1.57365
H 17.7694 12.2407 7.18468
H 7.54347 17.2444 17.0016
H 9.80142 2.46481 17.5613
C 16.1626 11.5287 18.3924
H 18.8755 5.08875 2.91209
H 19.2908 15.0523 18.2456
H 19.7335 12.2469 9.94263
Si 20.5762 10.7829 1.36838
O 2.81818 9.90445 1.35089
C 5.93265 10.5091 18.3663
H 2.94712 10.9081 1.63965
H 5.54667 10.9162 17.1368
H 6.47044 9.45338 18.2553
C 19.6995 14.9843 1.55701
H 9.1259 5.46167 9.45669
H 12.0951 2.14039 1.85298
H 19.5613 16.3292 1.87572
Si 18.8792 9.16975 1.84438
O 19.5916 8.83035 3.45453
C 5.57532 7.98655 1.43425
H 5.64669 10.5864 1.92631
H 13.825 16.812 3.21068
H 7.48898 8.5074 17.2247
C 16.6526 1.14497 2.08004
H 5.63221 17.501 4.51332
H 19.1673 2.43988 18.1067
H 2.88639 7.53118 16.8206
Si 20.5056 7.37402 3.89508
O 7.21906 5.4927 2.14653
C 1.317 15.247 13.0701
H 16.7765 1.79468 2.86948
H 20.1505 5.37454 14.8829
H 19.2077 5.2264 14.8975
C 5.01086 7.18441 2.3904
H 6.50724 7.77085 18.6675
H 20.5892 5.13221 3.28425
H 17.8497 2.77293 13.9483
Si 5.73327 4.63438 1.47604
C 4.43834 5.94361 1.96438
H 19.1737 11.6918 3.13882
H 3.48371 5.77584 2.58029
H 5.37742 3.77962 2.84018
C 18.611 1.98569 5.20078
H 18.7455 17.6592 5.34283
H 17.6998 2.6131 5.32395
H 18.5358 2.33165 4.02394
Si 10.8664 14.7861 2.37279
O 11.3683 13.7369 3.49129
C 2.26324 15.2129 3.72185
H 4.86331 13.1955 4.40984
H 20.2932 5.40386 5.37864
H 3.78641 15.7299 17.1594
C 10.903 17.0396 3.07908
H 10.3948 1.6801 4.75942
H 11.8696 17.1208 3.56355
H 10.9218 17.3944 1.87195
Si 12.6346 13.0248 3.12635
O 12.3389 11.4323 2.92243
C 13.8534 13.7199 4.53293
H 13.0959 13.6702 5.40594
H 14.9197 13.1763 4.74965
H 14.1312 14.7516 4.11335
C 12.6894 15.0647 1.44129
H 13.8312 15.3797 2.40684
H 10.0026 15.0452 18.1648
H 10.2614 3.83392 18.1505
Si 11.1184 10.7477 1.98942
O 10.3729 9.43811 2.34511
C 10.8964 11.5283 17.8773
H 11.7472 11.9192 17.2597
H 10.5344 10.6906 17.0588
H 10.164 11.6204 3.21489
C 11.1535 11.4982 6.6596
H 11.2781 10.613 6.08459
H 10.8914 11.1883 7.77375
H 12.1945 12.1333 6.66364
Si 11.137 8.00005 1.92438
O 11.0789 7.61082 17.6823
C 10.0071 6.80386 2.81993
H 9.01855 6.52859 2.42845
H 10.7824 5.91167 2.8209
H 9.81017 7.26785 3.78646
C 12.8196 8.04948 2.48228
H 13.1173 8.55321 3.56916
H 13.7363 8.95559 15.3338
Si 9.5936 7.43918 17.157
O 10.0811 7.7504 15.4711
C 8.50964 8.72064 17.6265
H 9.26626 5.68007 17.0673
H 19.393 6.51516 18.0367
H 8.88993 9.82588 18.0376
C 12.9688 2.68256 2.31944
H 13.0772 2.43948 3.36079
H 12.8538 3.65869 2.76547
H 13.9287 2.31467 1.92239
Si 9.91566 8.85677 14.4054
C 10.73 8.01364 12.9699
H 10.246 7.16819 12.4428
H 10.7369 8.77839 12.1829
H 11.8283 7.82256 13.269
C 10.9664 10.2838 14.8536
H 10.8947 10.8008 15.8315
H 12.0433 9.99878 14.8828
H 10.7581 11.0865 14.1651
Si 17.8069 12.4454 3.26985
O 17.689 11.2389 4.5575
C 17.2918 14.1893 3.77928
H 16.0764 14.557 4.07895
H 18.1062 15.0154 3.35922
H 4.28624 15.7198 3.17477
C 16.8514 12.4924 1.26144
H 17.2432 8.83932 10.7228
H 17.2226 13.6201 1.44303
H 17.0627 6.61195 8.85918
Si 16.2964 10.1763 4.58866
O 16.8547 8.47831 5.24699
C 2.51839 7.17885 4.91317
H 3.33639 3.07022 6.30551
H 1.54981 13.5289 6.80947
H 17.4731 6.62243 9.432
C 14.6528 10.4712 5.52765
H 14.0992 9.62802 5.42114
H 14.7125 11.0217 6.53853
H 14.1648 11.2889 4.98851
Si 16.2887 7.14016 4.51897
O 14.6233 7.21297 4.49323
C 15.2037 9.97325 2.71703
H 13.9748 9.6177 2.49032
H 16.7948 7.42342 2.80599
H 3.81808 17.0463 9.62114
C 17.065 5.62571 5.73475
H 16.4893 5.01931 6.41524
H 17.0758 4.67336 5.09272
H 18.1915 5.67163 6.09408
Si 13.8541 6.54346 3.21057
O 14.8224 5.65005 2.38971
C 13.6556 7.9805 18.4847
H 15.2731 13.6934 9.76132
H 14.7861 8.75543 18.4262
C 17.3112 5.86897 14.161
H 17.6534 4.8211 13.8568
H 17.683 6.37684 15.1
H 17.359 6.48977 13.2916
Si 14.7413 6.35557 18.3724
O 16.0224 5.90004 17.4104
C 13.7195 5.16641 17.2229
H 13.1531 5.67291 16.4138
H 15.1557 16.2016 17.2515
H 13.1533 4.17942 17.6941
C 15.5084 17.6361 1.85692
H 8.01957 7.38232 9.77833
H 4.11257 5.97431 18.5734
H 16.9091 14.469 2.89227
Si 15.2297 5.10324 16.1551
C 16.1867 3.55026 16.302
H 13.1822 14.4169 18.5012
H 16.246 2.76153 15.6026
H 17.2223 3.83214 16.0819
C 19.9042 5.86626 2.84237
H 20.3485 5.82424 1.76733
H 18.7139 6.73737 17.7358
H 3.00161 3.06317 4.08481
Si 6.54698 15.4535 8.52683
O 7.26195 14.3739 7.50352
C 7.77447 15.7671 9.87361
H 4.99736 15.2232 8.73985
H 7.8662 15.1964 10.7744
H 8.74956 15.6947 9.40968
C 6.4583 16.9328 7.23071
H 7.3913 17.1316 7.28916
H 6.24425 16.3009 6.51753
H 5.82674 17.9178 7.61729
Si 7.03877 13.2864 6.2746
O 7.20681 11.8822 7.11531
C 4.19674 12.5285 3.85868
H 3.94915 11.7512 4.50377
H 4.70741 11.9478 3.16178
H 3.285 13.0089 3.50998
C 2.63876 13.494 6.66786
H 2.84139 14.569 6.85723
H 3.08542 13.1183 5.75175
H 3.14951 13.0189 7.50997
Si 6.60752 10.4407 7.71158
O 5.49822 9.98803 6.58327
C 5.6445 10.556 9.32064
H 4.57728 10.5129 8.95489
H 5.78295 9.67843 9.98685
H 5.83438 11.4642 9.98167
C 8.09265 9.33707 7.64345
H 8.79787 9.33218 8.45957
H 7.74834 8.34109 7.36563
H 8.67713 9.7678 6.80292
Si 4.18095 8.86792 6.63513
O 4.76966 7.41576 7.05641
C 2.83263 10.131 7.12316
H 2.94728 10.1808 8.17152
H 3.23921 11.0782 6.68917
H 1.84816 9.97227 6.85466
C 7.73467 10.769 4.72962
H 8.65343 11.0926 5.12825
H 7.36997 9.78264 4.6386
H 7.7818 11.0079 3.62503
Si 6.07617 6.4727 6.52581
O 7.27794 6.09015 7.60886
C 5.49658 4.74269 5.94385
H 6.44804 4.38523 5.50074
H 5.25997 3.99816 6.71834
H 4.83154 4.78961 5.04228
C 6.82597 7.23593 4.99586
H 7.37654 6.50508 4.35028
H 6.25263 8.01821 4.44464
H 7.61479 7.91805 5.24728
Si 7.89738 4.98897 8.74129
C 6.86254 5.0338 10.2547
H 6.40402 4.01414 10.4077
H 7.63759 5.22463 11.0178
H 6.13068 5.85801 10.2655
C 8.31037 3.34364 8.0339
H 7.49633 3.04121 7.36439
H 5.10173 14.9425 14.1125
Si 12.9462 11.7917 10.5191
O 14.1533 11.0109 9.65773
C 18.8211 12.1304 7.29952
H 19.3964 13.1082 7.56252
H 18.9041 11.6251 8.24905
H 19.2037 11.476 6.423
C 11.5314 10.7323 10.8349
H 11.7077 9.68671 11.1889
H 10.9743 11.347 11.6207
H 10.9573 10.6993 9.88989
Si 14.3661 9.39505 9.15243
O 13.1874 8.99987 8.0625
C 16.0535 9.0891 8.59745
H 16.2497 8.93897 7.50931
H 16.6773 9.96233 8.80761
H 16.5803 8.25537 9.04939
C 14.0622 8.3806 10.7761
H 14.7078 8.69706 11.6108
H 13.085 8.28205 11.2781
H 14.3229 7.32064 10.601
Si 12.2375 7.65155 7.97981
O 13.0287 6.19052 7.47268
C 11.3107 7.52955 6.38897
H 10.6831 8.38765 6.13215
H 11.8587 7.18718 5.48693
H 10.5289 6.77751 6.49882
C 11.0319 7.48797 9.39391
H 11.4597 7.24418 10.3919
H 10.3452 8.35008 9.46196
H 10.5007 6.60271 9.03349
Si 13.4486 4.63391 8.08313
O 12.4145 4.52428 9.51238
C 15.2736 4.51387 8.68181
H 15.9073 4.01857 7.93876
H 15.6739 5.42654 9.1114
H 15.3564 3.85584 9.57252
C 13.5974 3.86311 6.38814
H 12.8271 3.7748 5.60351
H 14.5104 4.34885 5.92121
H 13.9075 2.80401 6.38271
Si 11.6246 3.55339 10.7116
O 10.4873 2.77905 9.82965
C 10.6489 4.7576 11.7096
H 11.191 4.86014 12.704
H 10.5556 5.65389 11.1051
H 9.57711 4.47136 11.965
C 12.8928 2.34522 11.4039
H 12.7133 1.4873 12.0887
H 13.4407 2.26481 10.4558
H 13.6239 2.86235 12.1917
Si 9.13209 1.99209 9.13663
C 9.59581 3.60701 6.89555
H 9.22149 4.14843 5.97499
H 10.3235 4.33555 7.25717
C 11.1614 14.9031 7.55332
H 11.4324 14.5388 6.42421
H 10.0779 14.5121 7.58679
H 11.577 14.4177 8.35226
Si 1.50822 7.2034 6.4894
O 2.46002 6.2506 7.75333
C 19.7863 7.99527 7.79583
H 19.6551 9.06037 7.6773
H 18.8839 7.41311 7.88593
H 20.6477 7.74351 8.47176
C 19.9498 8.059 11.7988
H 20.5824 8.92257 11.1752
H 4.05459 8.643 5.13149
H 6.96514 11.5013 5.00361
Si 3.27141 4.78562 7.87702
O 18.6601 2.52409 10.6679
C 3.4428 1.90654 4.17575
H 3.79623 2.13623 5.47505
H 2.55563 18.0634 4.03289
H 4.38003 1.77924 3.98994
C 2.74656 16.9025 9.80054
H 4.70273 7.51357 3.27319
H 10.1668 11.9581 6.23641
H 17.5666 17.4168 17.5442
Si 18.9832 3.74201 12.1925
O 3.49006 4.66237 9.51718
C 18.914 5.86632 11.008
H 17.9556 5.47478 11.4025
H 19.0917 5.67375 9.95222
H 1.65526 6.28794 10.9496
C 18.5868 17.7467 16.3582
H 18.7435 1.8662 16.487
H 18.8969 1.25528 15.2381
H 17.4726 17.1133 16.4546
Si 19.8918 1.78431 9.85496
O 19.1989 17.7442 8.4369
C 2.57965 3.61478 6.69635
H 1.50454 4.11253 6.83729
H 2.92285 15.5171 4.54692
H 13.7168 1.9627 7.68635
C 10.5344 2.91068 18.2679
H 11.4958 2.9561 17.9843
H 12.9068 5.71074 3.76413
H 3.1766 2.26431 10.1522
Si 17.513 17.5677 8.4894
O 16.1693 1.61198 8.09898
C 17.8281 16.0689 7.22172
H 18.5328 16.452 6.34588
H 18.1228 15.2506 8.0118
H 16.7597 15.6666 6.60753
C 16.3589 17.2251 9.78561
H 15.8748 1.27038 10.5843
H 7.76134 15.4047 4.70624
H 5.74725 15.2973 14.1668
Si 14.6442 17.3431 8.91819
C 13.5133 2.08941 8.76134
H 13.409 16.6713 9.6136
H 12.6754 1.76762 8.94285
H 12.3375 12.8306 9.63597
C 14.3662 16.2115 7.3484
H 14.4295 15.118 7.57207
H 13.2464 16.4324 7.4718
H 14.9202 16.4984 6.35583
Si 18.9777 13.4312 10.4431
O 20.4909 14.0223 10.6456
C 17.364 14.2145 10.0466
H 3.37663 2.07707 16.3219
H 7.72025 7.78543 10.313
H 19.5452 12.3402 13.1851
C 16.232 13.4601 9.58997
H 16.23 13.1189 8.4897
H 18.5744 14.3018 1.68337
H 16.5627 12.3973 10.129
Si 2.18466 13.7728 11.869
O 2.0906 12.3297 12.4732
C 2.39213 16.1656 13.0249
H 1.67203 17.4319 15.0738
H 1.98863 1.24797 15.449
H 6.87075 15.4054 1.19638
C 4.19766 14.1845 11.5933
H 4.20537 14.9863 10.8848
H 4.45265 14.6686 12.5535
H 4.96914 13.5136 11.2201
Si 2.48995 10.9846 13.4033
O 2.04163 9.42858 13.855
C 2.75122 12.0053 14.8872
H 2.07615 12.8188 14.8898
H 2.92447 11.6293 15.9249
H 3.73518 12.5052 14.5508
C 3.89693 10.478 12.0886
H 3.86977 10.8712 11.083
H 4.9068 10.5724 12.6073
H 3.5826 9.40035 11.9823
Si 20.1428 8.08689 13.7803
O 18.9036 8.95974 14.6737
C 20.1457 6.5524 11.3526
H 17.3269 9.42734 12.3725
H 19.0762 8.34882 11.1961
H 1.58268 7.08071 14.222
C 18.1465 2.38539 13.1788
H 18.9311 1.76267 13.9484
H 16.2639 3.31966 17.3281
H 17.2337 1.78752 12.9112
Si 3.51022 6.08298 16.2671
O 4.7067 5.82108 15.3428
C 1.72389 3.25385 18.623
H 18.0515 8.77536 14.8518
H 8.1084 2.03804 17.6158
H 4.68184 5.50952 17.3334
C 4.36871 6.31315 12.4268
H 3.60882 7.09927 12.3044
H 5.12676 6.04178 11.6933
H 3.85531 5.35347 12.7097
Si 5.42383 6.94652 14.0443
C 7.10549 6.43429 13.914
H 7.68467 7.26832 14.3862
H 7.37368 5.58302 14.5138
H 7.52535 6.19659 12.9576
C 5.19835 8.60626 14.7576
H 4.84846 8.52467 15.7944
H 4.26156 8.97764 14.2422
Si 6.6092 1.60182 12.4897
O 6.90667 1.27547 14.0384
C 4.80597 17.877 12.3458
H 4.68691 16.8827 12.1119
H 7.58173 3.03061 12.1028
H 19.4049 17.2117 16.9888
C 2.49634 1.40629 10.0938
H 7.79465 16.7133 10.3399
H 20.6449 15.3079 3.68834
H 2.52372 15.8628 10.4885
Si 8.17149 1.873 14.9989
O 9.52101 17.4026 14.5763
C 9.2055 3.38285 14.7457
H 8.62913 4.12989 14.0715
H 9.37194 3.81162 15.7
H 10.0454 3.12793 14.1125
C 7.67805 1.33746 16.7742
H 1.93822 2.62475 6.76434
H 6.92556 1.81845 17.175
H 3.77763 1.44971 12.5721
Si 11.1095 17.1397 14.1478
O 11.3725 15.8536 15.0157
C 12.1615 1.63135 15.1465
H 13.1184 2.00659 14.823
H 11.4555 2.39043 15.1703
H 12.3925 1.57258 16.2306
C 11.2532 16.5804 12.2857
H 10.7044 17.2451 11.6041
H 12.2809 16.3732 12.0129
H 10.5408 15.7229 12.2982
Si 11.5919 14.1847 14.7034
O 10.2022 13.4271 15.1126
C 10.0331 17.8978 3.9897
H 10.8883 15.978 7.4801
H 9.99659 2.7778 6.23619
H 10.1442 17.3117 4.97298
C 13.0445 13.8941 15.6425
H 13.9398 14.5105 15.5124
H 12.7919 14.2707 16.7946
Si 8.59562 13.2757 14.4373
O 8.37383 11.5547 14.369
C 8.61137 13.7591 12.6951
H 9.11805 13.1247 11.9793
H 7.54508 13.924 12.5575
H 9.07221 14.8043 12.5487
C 7.36575 13.9145 15.6033
H 7.4548 13.4626 16.5643
H 7.59099 14.8988 16.009
H 6.33572 13.6778 15.1855
Si 7.81059 10.0623 13.9794
C 6.24635 9.76597 14.8829
H 5.76693 10.749 14.6098
H 6.57724 10.0298 15.9112
C 7.9202 9.74733 12.0158
H 8.88623 10.2279 11.7367
H 7.84148 8.62518 11.8756
H 7.11518 10.4004 11.4624
Si 16.9244 15.7701 10.8761
O 18.0091 16.1203 12.1572
C 9.39032 14.5218 1.25921
H 19.2755 2.86231 5.95223
H 9.2545 13.5603 18.5779
H 8.50475 14.6487 1.25865
C 15.282 15.7996 11.9653
H 14.6829 15.1382 11.2963
H 15.5829 15.4795 12.9986
H 14.8352 16.7662 12.0756
Si 18.9317 14.8624 13.1509
O 18.2015 14.7009 14.7435
C 20.0447 3.20759 17.8483
H 2.92138 3.58199 18.1326
H 7.71048 4.62995 2.12082
H 5.3385 3.6666 18.1725
C 14.7372 16.7741 2.63506
H 8.89244 17.9704 3.6879
H 12.7644 16.4342 18.3381
H 17.6931 17.5493 2.00639
Si 17.6186 13.2135 14.3389
O 16.1025 12.8276 14.173
C 18.7074 12.8591 12.7919
H 3.20518 2.60269 17.0372
H 20.5391 14.0977 4.03372
H 17.9 12.1705 12.3339
C 18.2756 12.0649 15.7925
H 18.5567 12.6007 16.6772
H 17.2145 11.5476 16.1558
H 19.2086 11.2285 15.5787
Si 14.6353 12.0279 14.2581
O 15.2669 10.5164 13.9245
C 13.7134 12.3853 15.8374
H 13.0674 11.6264 16.3191
H 14.6328 12.4083 16.4902
C 13.5241 12.3609 12.3142
H 13.4289 13.4454 12.3519
H 14.5497 11.9738 12.1312
H 12.8632 11.7444 12.9056
Si 15.3585 8.97084 14.7953
O 15.3048 7.794 13.7299
C 17.4372 9.67598 11.3363
H 16.7408 10.4434 11.0159
H 14.1897 16.0921 17.1111
H 18.4132 10.1 11.0901
C 16.5627 9.17126 16.2556
H 16.5668 8.14346 16.7701
H 17.5622 9.45217 16.5186
H 15.8403 9.78341 16.8641
Si 15.4317 6.12913 13.7572
C 13.5209 5.94717 13.9398
H 13.2288 6.65945 14.627
H 13.3571 6.12272 12.8843
H 13.0943 4.97477 14.1877
C 15.5053 5.2789 12.1512
H 16.1859 4.45213 12.3729
H 14.5618 4.86772 11.7813
H 16.1283 5.48456 11.2647
523
 Atoms. Timestep: 6000
Si 5.12977 14.8983 17.9718
O 4.52201 13.3265 17.4948
C 7.09223 17.7836 5.8427
H 6.589 1.76659 6.59677
H 6.78965 17.7928 4.86268
H 19.9346 5.9005 9.30321
C 3.85136 16.4491 5.68091
H 2.83023 16.2784 5.80498
H 4.13979 17.6215 5.55957
H 7.63736 17.572 2.40788
Si 2.88937 13.0161 18.3672
O 1.6041 11.93 18.4148
C 15.3338 10.4018 1.65191
H 18.7267 12.3208 8.18486
H 8.5349 1.61774 9.1326
H 9.81274 4.05872 2.85336
C 16.0638 11.4658 18.4533
H 20.449 5.98587 1.82764
H 1.40127 14.4836 2.22372
H 19.5871 12.6713 10.7274
Si 20.2146 10.5843 1.45841
O 20.5028 9.68855 17.5575
C 8.3344 14.3137 17.8114
H 2.2399 10.0117 17.0206
H 3.61913 16.3703 6.75073
H 19.7514 3.15856 1.83704
C 2.30579 14.9994 1.53037
H 9.6346 6.22467 9.37806
H 12.1689 17.7401 4.29924
H 10.3458 2.35541 7.29793
Si 18.1407 9.48856 2.08654
O 18.7419 7.92657 2.26213
C 5.03465 7.35538 17.6431
H 6.55574 17.4013 16.189
H 16.7467 2.68625 17.6271
H 7.08815 6.14618 16.5621
C 18.5035 4.14471 17.7029
H 8.01126 17.2794 6.31124
H 1.4812 15.9334 1.61388
H 17.6263 2.45357 13.1373
Si 18.7847 6.94656 3.68796
O 7.03795 3.72394 17.6844
C 2.45086 13.813 14.0818
H 17.8696 4.85867 18.2462
H 2.77519 6.55543 15.4633
H 19.2204 9.18006 5.23286
C 4.5478 6.6708 18.6187
H 5.16118 8.5072 17.6498
H 18.9621 4.80197 2.88711
H 19.192 16.9718 13.6727
Si 5.16505 3.68448 17.7612
C 4.41419 5.05225 1.44159
H 19.1306 12.2074 3.18596
H 3.71605 5.19633 2.26252
H 4.71148 2.47764 16.7597
C 16.6124 16.8147 4.50264
H 13.4854 16.5508 18.5699
H 16.9522 17.7126 3.88701
H 15.9219 16.9256 3.58586
Si 9.55308 14.8456 1.70786
O 10.346 13.2193 2.19638
C 4.54556 15.9335 4.27525
H 4.32312 11.6098 2.92247
H 18.4816 2.39697 4.07561
H 18.4539 13.2275 17.4279
C 10.0588 16.1889 3.85815
H 12.2254 15.4548 4.88625
H 16.6231 13.3349 17.9408
H 10.3378 17.119 3.34974
Si 10.9014 11.764 1.85579
O 10.287 10.7461 17.9554
C 11.8045 10.9704 3.44491
H 11.6902 10.9833 4.52918
H 12.0845 10.0053 3.13513
H 12.7822 11.6315 3.09475
C 12.6331 12.6392 17.9894
H 13.5581 13.2513 18.4091
H 8.11864 16.7176 3.15007
H 11.0007 3.65014 1.50394
Si 9.24965 9.47226 17.8997
O 9.94526 8.4559 1.67598
C 7.71687 9.64995 18.4222
H 6.91979 9.68342 1.66259
H 8.22811 10.7413 18.4838
H 8.04851 7.50238 16.9655
C 10.0773 11.9312 6.85264
H 9.66787 12.0846 7.80106
H 9.15415 11.6896 6.24328
H 10.4422 12.8787 6.37693
Si 10.7676 7.07545 2.09312
O 10.2507 6.03556 18.276
C 9.69314 6.53402 3.46249
H 10.0313 5.49929 3.8093
H 9.8834 6.86175 4.56743
H 8.62134 6.82284 3.35176
C 12.5184 7.04784 2.46742
H 12.75 7.83991 3.16289
H 14.7781 9.38231 16.643
Si 9.7829 5.87932 16.7262
O 9.9894 7.33916 15.8666
C 7.87227 6.28058 17.2339
H 10.3851 4.58369 16.2314
H 1.88211 4.64617 15.9147
H 7.77244 5.77221 18.248
C 13.309 1.43941 4.71642
H 17.9994 1.67736 17.3678
H 14.2412 17.4758 6.5611
H 18.326 3.52363 15.5107
Si 10.5722 8.49862 14.8345
C 10.7923 7.73657 13.1586
H 10.7071 8.38127 12.2769
H 11.8087 7.25467 13.2368
H 10.073 6.93144 12.8834
C 12.2184 9.45976 15.0773
H 12.5456 9.84263 14.0884
H 12.0409 10.243 15.8082
H 13.0331 8.90391 15.5454
Si 17.6985 12.2303 2.91381
O 17.4506 10.4787 3.88232
C 16.8776 13.5293 3.70113
H 16.0377 13.293 4.41364
H 17.4917 13.7916 4.53296
H 5.0859 16.3867 17.6126
C 16.718 12.4838 18.6937
H 18.6277 8.20754 10.7091
H 3.09557 17.4741 1.74874
H 20.2663 16.3242 5.5179
Si 15.7984 9.78383 4.31661
O 15.8725 8.57357 5.4797
C 18.8569 8.14799 4.99428
H 3.70295 5.37333 8.32978
H 2.23188 12.7401 3.40667
H 20.5552 15.6507 5.17031
C 14.83 11.3383 4.95549
H 15.444 12.0975 5.37605
H 14.3394 11.8396 3.97517
H 13.923 10.9345 5.28457
Si 15.662 6.89123 5.24069
O 14.281 6.7529 4.4782
C 15.2479 9.44337 2.61061
H 14.1677 8.0514 2.12197
H 16.7558 6.40832 4.30879
H 18.2271 2.18202 9.42884
C 15.9368 5.87988 6.5939
H 16.8479 5.98521 7.1604
H 15.1294 5.28242 7.10145
H 16.3499 4.90785 5.97229
Si 13.6875 5.70979 3.3185
O 15.0605 5.54582 2.60848
C 13.5015 7.23521 1.39281
H 17.3247 12.6201 9.77369
H 13.1726 7.81404 17.8023
C 18.1137 6.1004 15.0139
H 18.2057 5.10378 15.2527
H 18.3239 6.66298 15.9096
H 19.0085 6.28622 14.381
Si 14.5805 5.78912 18.3764
O 15.411 5.7989 17.0136
C 13.6023 4.44884 17.6254
H 12.8119 4.04339 18.249
H 11.0997 15.0411 1.33285
H 14.314 3.49011 17.7878
C 18.1239 3.59317 16.4082
H 4.20918 8.97901 8.51423
H 3.9877 17.5323 16.9682
H 16.4574 14.24 3.00617
Si 14.4088 4.93811 15.8836
C 14.9624 3.37919 14.8961
H 12.9998 11.9061 17.6125
H 15.0656 3.47408 13.7014
H 15.8765 3.01502 15.3318
C 19.9421 5.67952 2.94175
H 20.502 5.43304 4.13441
H 2.35178 4.99107 16.643
H 4.23635 2.18949 3.90374
Si 6.34659 14.4296 9.64641
O 6.14011 14.922 8.03407
C 8.32138 14.2342 10.4278
H 5.80491 15.4948 10.5717
H 8.14404 13.5457 11.2469
H 8.97796 13.6064 9.74245
C 5.07504 2.56573 8.54329
H 5.02378 1.81874 9.18943
H 5.75975 2.40249 7.60959
H 5.12412 3.5704 9.18563
Si 6.64402 14.701 6.39478
O 6.54448 12.885 6.71852
C 4.34993 10.4804 2.77926
H 3.38337 10.0865 3.13031
H 5.0357 10.3332 3.60528
H 4.7245 10.0824 1.95291
C 2.02049 13.01 4.43897
H 1.8388 12.1196 5.11531
H 20.4229 13.8387 4.56044
H 3.03788 13.3784 4.83911
Si 5.45517 11.7594 7.40099
O 4.86026 10.6499 6.27524
C 3.97793 12.4463 8.30698
H 3.21739 11.6902 8.59807
H 4.45425 12.8935 9.24877
H 3.35413 13.2001 7.78927
C 6.85423 11.1364 8.6154
H 7.11024 11.9803 9.29067
H 6.64188 10.2803 9.26732
H 7.71898 10.9378 7.97426
Si 4.56527 9.08136 6.01832
O 5.62889 8.06539 6.82403
C 2.90538 8.71159 6.55228
H 3.05739 8.45967 7.55949
H 2.278 9.61189 6.60503
H 2.46612 7.87418 6.01798
C 8.26847 11.3508 4.47604
H 7.81834 10.649 3.59538
H 8.11238 12.4986 3.95209
H 9.37339 11.1783 4.49987
Si 7.05967 7.33237 6.54835
O 7.73217 6.60875 7.83124
C 6.84112 5.92426 5.43608
H 6.20513 6.12729 4.56062
H 7.76148 5.44013 4.8586
H 6.10998 5.18753 5.95835
C 7.79215 8.73426 5.67356
H 8.62466 8.70479 5.02715
H 7.03035 8.99981 4.93143
H 7.79797 9.60935 6.3793
Si 8.74187 5.43907 8.485
C 7.58099 4.7412 9.74476
H 7.29664 5.57529 10.4639
H 6.67717 4.3722 9.25296
H 7.82032 3.81623 10.3554
C 9.34989 4.13637 7.28921
H 8.3127 3.77355 7.00982
H 5.44773 13.6129 4.98123
Si 13.3493 12.693 11.0969
O 13.1501 11.3478 10.1195
C 19.4317 12.5087 7.39441
H 20.3858 12.6323 7.65118
H 19.2132 11.841 6.50911
H 19.2237 13.5676 7.15545
C 11.6415 12.845 11.7331
H 11.2599 13.8136 12.0979
H 10.9385 12.6763 10.8552
H 11.4459 12.1397 12.5231
Si 13.8167 9.93383 9.68005
O 12.4914 9.36474 8.86099
C 15.2308 10.1603 8.48885
H 14.9469 10.6982 7.58274
H 16.1823 10.4878 8.96936
H 15.6086 9.2169 8.03719
C 14.2818 8.84064 11.2082
H 14.9674 9.51698 11.7316
H 13.4181 8.7094 11.8367
H 14.8921 7.99856 10.9273
Si 11.5155 8.39862 7.92528
O 11.75 6.82928 8.43826
C 11.9078 8.32738 6.08561
H 12.8752 8.78549 5.82469
H 12.0302 7.32956 5.65045
H 11.212 8.96743 5.51902
C 9.97676 9.33545 8.32535
H 9.0928 8.84179 7.90926
H 9.80019 9.27762 9.39576
H 10.1378 10.4016 8.129
Si 12.6928 5.54992 8.78866
O 11.9703 5.13051 10.1543
C 14.3781 6.03102 9.45291
H 15.1819 5.3589 9.09905
H 14.8081 7.02146 9.30557
H 14.3944 5.84165 10.528
C 12.6436 4.10315 7.5864
H 13.1339 3.21378 7.94841
H 11.7291 3.64036 7.12687
H 13.1241 4.44296 6.65043
Si 11.558 3.77689 11.1089
O 10.7367 2.7143 9.9839
C 10.4179 4.15261 12.4766
H 10.7729 3.60613 13.3479
H 10.3217 5.22849 12.7217
H 9.39828 3.75105 12.1773
C 13.0738 2.84423 11.6762
H 12.6755 1.94493 12.2093
H 13.7801 2.66793 10.8043
H 13.6557 3.22282 12.4665
Si 9.79984 2.6816 8.32325
C 10.0028 4.3131 5.88045
H 9.24103 3.8119 5.1675
H 10.4091 5.29206 5.52055
C 11.2239 15.7233 9.32936
H 10.5215 16.2446 8.65458
H 12.1813 16.2209 9.20513
H 10.8167 16.0241 10.4429
Si 19.5548 7.3338 6.42032
O 20.2628 5.86986 6.45175
C 18.7371 8.08058 7.88049
H 18.7896 9.14077 8.0581
H 17.8045 7.79004 7.72341
H 19.1998 7.34483 8.67136
C 2.01893 7.30701 12.3879
H 2.93451 7.0528 11.8924
H 4.6748 8.48195 4.72853
H 7.66837 10.9409 5.31701
Si 2.24608 5.12926 7.20392
O 1.74125 2.88492 11.2527
C 3.97645 3.18559 4.22681
H 2.96723 3.207 3.61724
H 3.70344 2.96163 5.33542
H 4.49147 3.89842 3.49528
C 2.05771 3.45004 7.92181
H 3.96877 7.32152 2.01812
H 10.828 11.1862 6.59373
H 14.7591 16.3275 17.269
Si 19.8724 3.85596 12.3924
O 1.55391 5.13909 9.3178
C 1.85385 4.95171 13.322
H 2.95536 4.60715 13.2649
H 1.62789 4.27034 14.3925
H 19.0996 6.14537 13.3307
C 15.8216 16.4264 16.9333
H 16.5656 16.3272 17.5768
H 16.2369 15.9771 16.0381
H 15.7982 17.4609 16.7705
Si 19.5225 3.88329 9.49067
O 17.2894 1.98615 9.59975
C 3.73439 6.09658 7.49674
H 18.817 2.85289 3.68584
H 3.60651 15.6857 3.81755
H 13.2931 2.02398 7.21632
C 10.6757 3.26292 2.50162
H 10.8253 2.31153 2.76419
H 13.4708 4.12761 3.09593
H 2.55377 17.5979 8.14913
Si 16.8966 17.0235 8.95029
O 16.3207 17.2344 7.51202
C 18.1561 15.6704 8.59137
H 18.4503 15.8137 7.5272
H 18.8249 15.4845 9.30536
H 17.583 14.7562 8.82598
C 15.5544 16.3535 10.2495
H 15.3669 17.4582 10.7189
H 4.02461 2.87077 8.25481
H 4.7777 13.0095 4.82479
Si 15.4638 16.5436 6.16772
C 13.3866 1.63817 6.13887
H 14.8557 15.6029 9.59161
H 14.0809 1.55825 3.74469
H 13.6727 13.9187 10.2404
C 15.2873 14.5592 6.65076
H 16.3228 14.282 6.85791
H 14.7476 14.2698 7.62025
H 15.0818 13.7534 5.96437
Si 18.7805 13.0626 11.8154
O 19.5633 14.3747 12.5
C 17.2018 14.0781 11.312
H 2.21209 2.37169 14.2074
H 4.12732 8.929 9.31724
H 19.5192 11.8497 13.9598
C 16.5688 13.2306 10.1637
H 16.0153 12.3293 10.48
H 3.28248 15.1137 1.84361
H 15.9317 13.7533 9.49132
Si 2.14102 14.2529 12.3269
O 2.90112 12.8176 11.7167
C 3.45489 13.955 14.679
H 4.21099 13.5628 15.3447
H 4.73459 6.1262 7.09072
H 5.38539 10.4231 17.2833
C 2.91484 15.5144 11.3253
H 2.35009 15.8791 10.392
H 2.80146 16.4078 12.0104
H 3.91696 15.3302 11.0448
Si 3.52553 11.3091 12.1935
O 2.7092 9.77373 12.2812
C 4.64515 11.3616 13.7374
H 4.95518 12.3578 14.1483
H 4.04545 10.9306 14.5075
H 5.49279 10.8565 13.6679
C 5.10346 11.0928 11.1351
H 4.97225 10.3167 10.4062
H 5.09174 12.1426 10.7059
H 5.97471 11.0399 11.7801
Si 1.98526 8.61948 13.4241
O 19.7344 9.50152 14.165
C 20.1594 5.91295 12.5225
H 18.0211 9.63683 11.9041
H 1.51863 7.74696 11.6107
H 3.38199 8.3711 14.3162
C 17.8102 3.26741 12.3418
H 17.743 3.00166 11.2695
H 14.2546 2.52917 15.0378
H 17.8236 4.26736 13.0271
Si 4.46472 6.62155 15.875
O 5.53258 6.31306 14.5948
C 1.72476 2.26517 18.2892
H 19.3817 9.74895 14.908
H 5.58419 16.4177 15.8354
H 5.53865 5.27522 14.5843
C 5.0933 6.41179 11.3061
H 5.81142 5.84925 10.573
H 4.25268 5.68827 11.3386
H 4.58696 7.35523 11.0638
Si 6.27067 6.54033 12.805
C 7.8945 5.66025 12.8584
H 8.43284 5.7257 13.7696
H 7.68786 4.69758 12.5027
H 8.58104 6.13359 12.1278
C 6.11642 8.36789 13.3785
H 5.04971 8.47946 13.7269
H 5.95585 8.9965 12.487
Si 7.10069 1.9518 11.8154
O 8.03614 17.3954 12.9202
C 5.85231 3.08355 13.1371
H 5.79723 3.79496 12.4355
H 6.47132 17.7792 11.0188
H 20.235 2.71814 17.4177
C 2.54732 2.11546 7.796
H 8.78741 15.1944 10.8782
H 3.84504 17.5563 16.3141
H 12.4867 15.8748 18.3812
Si 8.08152 17.3036 14.598
O 9.34893 16.3123 14.9736
C 8.34931 2.38352 15.2044
H 8.0651 2.19815 16.2296
H 9.20972 3.14437 15.1471
H 7.41837 2.75982 14.7042
C 6.55105 16.4949 15.527
H 3.67047 7.10104 8.07666
H 7.46906 14.3954 18.637
H 5.00336 2.66163 12.5442
Si 11.1309 16.6654 15.117
O 11.7636 15.3772 15.9492
C 11.4479 1.73812 15.2672
H 12.3731 2.07534 14.5875
H 10.6204 2.12463 14.6616
H 11.5742 2.50107 16.1444
C 11.8594 16.4041 13.3206
H 11.8271 15.3064 13.2769
H 11.1959 16.6264 12.4683
H 12.8988 16.6976 13.2446
Si 11.9171 13.7197 16.5447
O 10.4059 13.0936 16.1328
C 10.8542 15.6722 4.76453
H 11.2693 14.7025 9.07973
H 10.8117 3.62486 5.71555
H 10.1963 15.2242 5.4856
C 12.9943 13.2162 15.2209
H 12.2587 13.1252 14.441
H 13.464 14.0955 14.783
Si 8.94722 12.7784 15.4411
O 8.6683 11.2295 15.26
C 8.26519 13.5865 13.8622
H 8.59033 13.2521 12.8367
H 7.12461 13.4541 13.7125
H 8.60746 14.6496 13.9016
C 7.90999 13.2666 16.8409
H 7.85622 12.1612 17.2462
H 8.66863 15.3981 17.0486
H 6.93705 13.5174 16.3411
Si 8.67719 9.88872 14.3362
C 7.24829 8.77698 14.4485
H 6.8511 8.59165 15.4627
H 7.70164 7.7887 14.5386
C 8.90348 10.3505 12.5255
H 9.88001 10.1251 12.028
H 8.14237 9.75756 11.9786
H 8.88169 11.3937 12.2264
Si 16.239 15.5665 11.8579
O 17.4598 16.6396 12.5416
C 8.80677 15.7344 3.10191
H 17.5223 16.0513 4.10697
H 8.70253 15.1481 4.05649
H 6.98633 1.71476 2.09647
C 14.8121 15.3905 13.2746
H 13.9216 14.8281 12.9301
H 15.3513 14.8018 14.0228
H 14.471 16.2943 13.746
Si 18.6574 15.7976 13.3185
O 18.2183 15.0431 14.5644
C 2.363 1.37239 18.6123
H 5.69229 15.4008 3.88657
H 7.44506 3.61043 18.5401
H 4.6679 5.06227 16.4105
C 17.5235 2.55594 17.1086
H 11.734 3.86231 2.92212
H 7.16787 15.6734 16.0378
H 19.3073 4.65755 18.0921
Si 17.9099 13.3786 14.8727
O 16.2407 13.4673 14.7393
C 18.6166 12.2876 13.4812
H 1.70135 1.73986 14.5461
H 5.17547 16.6621 3.8608
H 18.3282 11.2457 13.3626
C 18.999 13.2213 16.3367
H 19.6201 14.0621 15.9798
H 5.8285 11.0957 17.2695
H 19.6718 12.2345 16.4732
Si 15.4412 12.1771 14.456
O 16.0976 10.7185 14.8566
C 13.9945 11.9806 15.4713
H 13.4805 11.0684 15.1442
H 14.4277 11.9319 16.5021
C 14.6554 12.4892 12.5603
H 15.4096 13.2386 12.3486
H 14.938 11.4023 12.4631
H 13.8482 12.8026 13.2292
Si 15.9509 9.25632 15.8273
O 15.7826 7.86666 14.9739
C 18.4482 9.30834 10.9445
H 17.7511 9.68693 10.1722
H 2.56871 2.36904 6.73318
H 19.4378 9.82394 10.8168
C 17.7481 9.17611 16.4451
H 18.0942 10.2181 16.7911
H 18.0528 8.59867 17.3617
H 18.3405 8.45007 15.6706
Si 16.3126 6.38989 14.5508
C 13.0197 6.06675 14.988
H 12.3867 5.4381 14.2987
H 12.5807 6.30577 16.0215
H 13.3124 7.01082 14.5394
C 16.587 6.5303 12.8141
H 15.6982 6.7219 12.1732
H 17.3143 7.3139 12.6033
H 17.0728 5.7926 12.091
523
 Atoms. Timestep: 6500
Si 19.7617 12.1359 5.52384
O 20.2744 12.8543 4.16992
C 5.71767 2.32479 5.31695
H 6.19224 3.36364 5.59158
H 6.32262 1.8852 4.58804
H 18.3049 5.48443 9.10123
C 1.78673 13.6785 8.02312
H 2.61201 13.0664 7.83742
H 20.2921 14.1841 8.87306
H 5.16411 14.4825 6.05229
Si 19.7802 13.1159 2.50412
O 20.008 11.618 2.37296
C 15.0942 10.2895 1.95624
H 15.4896 13.8592 5.50136
H 11.7856 16.4353 5.92406
H 10.0269 2.28357 1.80528
C 15.1108 11.1362 18.2123
H 20.5813 5.32353 2.26904
H 19.8236 15.352 18.4825
H 19.3601 12.5041 10.7534
Si 2.22611 8.30857 16.9942
O 3.09403 9.00413 18.3798
C 7.39933 13.6609 18.0112
H 2.53873 9.47175 1.81652
H 2.19727 14.7623 7.76312
H 1.92575 16.3948 12.9472
C 1.56292 14.9722 1.96161
H 9.83415 5.61384 8.28278
H 10.8508 17.7019 5.16085
H 18.7432 7.31187 17.9776
Si 19.1898 10.2033 2.08209
O 19.9642 8.81376 2.74402
C 4.8391 5.79933 18.1483
H 5.76915 16.9942 15.2244
H 19.685 17.2178 12.8851
H 7.86062 5.03418 16.0216
C 19.4636 16.8276 16.4326
H 6.11453 1.77852 6.1245
H 1.67989 17.5298 6.43375
H 16.4844 1.57805 10.6808
Si 19.7901 7.29996 3.55217
O 4.24798 3.11908 2.36236
C 3.00304 16.5621 13.5229
H 19.4695 15.8563 16.3391
H 3.69101 7.82957 17.0189
H 19.5421 5.65563 5.69928
C 3.7875 6.27588 1.72476
H 5.90505 5.28983 17.9139
H 18.2776 9.00441 7.2721
H 3.20906 1.83869 14.8315
Si 3.55549 4.25953 18.5139
C 3.16321 5.37306 2.91733
H 2.83721 14.194 18.3235
H 2.93868 5.12163 3.98035
H 2.16673 3.80124 17.5741
C 18.5587 1.46115 5.13778
H 10.0802 17.0082 18.387
H 19.7513 3.8223 7.07133
H 18.3998 17.1372 4.61048
Si 8.87758 14.3877 18.3018
O 10.2459 13.7054 1.38442
C 19.9722 13.4231 6.899
H 6.67444 12.2016 2.84294
H 4.12828 4.06491 16.6466
H 17.2992 12.0954 17.2684
C 8.48202 16.0124 4.27045
H 7.76282 15.329 6.14905
H 15.2137 13.344 17.7334
H 9.42363 16.8169 4.57978
Si 10.9434 12.1621 18.5833
O 9.80594 11.0512 1.619
C 11.9264 12.083 3.00583
H 12.2771 12.9663 3.71506
H 11.5744 11.5104 3.95609
H 12.8532 11.8515 2.47423
C 12.6185 12.5198 17.2204
H 12.7465 13.1022 18.1899
H 9.30521 16.2848 2.60277
H 11.1273 3.77094 2.90669
Si 9.60103 9.45706 1.98761
O 11.2354 8.72766 1.37429
C 8.2012 8.71672 18.3937
H 8.78366 7.69053 18.5103
H 7.37735 8.51303 2.09218
H 7.79375 5.44166 17.5307
C 10.9356 12.0388 6.96054
H 11.2016 11.3519 6.13725
H 10.2762 11.425 7.67448
H 11.8031 12.4267 7.50211
Si 11.4191 7.08013 1.49583
O 10.705 6.23569 17.6983
C 11.3162 6.66668 3.28534
H 12.2268 6.57305 3.86936
H 10.718 7.49674 3.77897
H 10.7729 5.69144 3.39543
C 13.2931 7.0606 18.531
H 13.2608 7.92989 1.926
H 13.7828 8.71446 13.8579
Si 10.07 5.88817 16.322
O 9.55164 6.9127 15.1173
C 8.56291 5.02102 16.8258
H 10.8499 4.82099 15.4195
H 14.4004 1.95872 2.20874
H 8.78503 4.03608 16.8726
C 11.4106 17.7209 7.58794
H 18.4759 3.65961 10.8956
H 10.2961 14.9497 4.48985
H 18.7253 13.3255 16.7644
Si 10.0218 8.43387 14.385
C 11.2538 7.99247 13.0615
H 10.9168 7.79416 12.0337
H 11.8764 8.85158 12.8846
H 11.8328 7.13777 13.3465
C 11.055 9.26275 15.6606
H 12.1724 9.04993 15.6037
H 10.8245 10.3631 15.5379
H 10.7358 9.10283 16.6571
Si 16.9976 10.9691 3.65507
O 16.474 10.5087 5.26262
C 16.2291 12.7577 3.12706
H 16.6036 13.7365 3.51293
H 16.5564 12.6216 2.21002
H 8.08187 5.49739 2.43356
C 15.6365 12.1675 17.6079
H 20.0426 10.3033 9.80082
H 4.4241 14.5417 3.91569
H 12.6712 1.61414 2.72392
Si 15.1962 9.41609 4.87638
O 15.8269 7.91322 5.53797
C 19.56 6.91412 5.10129
H 2.23379 6.95813 10.7659
H 4.96044 8.47657 4.47738
H 12.328 17.3339 3.21565
C 13.7054 10.4902 5.34618
H 14.0701 10.9924 6.26478
H 13.5424 11.2393 4.49838
H 12.7433 10.0618 5.38832
Si 15.5828 6.69066 4.4781
O 14.1038 6.19649 4.0232
C 15.5658 9.75529 3.14747
H 14.7039 7.90093 16.8838
H 16.4363 6.64082 3.22097
H 16.9787 3.81402 9.37884
C 16.4405 5.24678 5.47534
H 17.5003 5.16928 5.00925
H 16.226 5.04107 6.56578
H 16.0278 4.38263 5.0001
Si 13.6236 5.43156 2.58325
O 14.9953 4.61495 1.71284
C 14.1086 7.24972 17.3103
H 17.0821 12.4591 10.9704
H 13.3796 7.12686 16.6894
C 17.6486 6.15683 14.4982
H 16.6899 6.45107 14.9592
H 18.5257 6.49525 15.0546
H 17.7276 4.97959 14.4161
Si 14.4903 5.13624 17.5263
O 15.4813 4.35711 16.1265
C 12.8761 4.25065 16.848
H 11.98 4.71394 16.5298
H 9.09184 16.0562 17.4568
H 12.7539 3.33236 17.3085
C 20.0595 17.4041 14.0446
H 4.8437 12.8962 7.36733
H 8.14258 5.95609 2.97396
H 15.2452 12.5968 3.43708
Si 13.9378 4.05507 15.3859
C 14.22 2.49496 14.466
H 13.4098 11.8466 16.9271
H 13.3725 1.90058 13.8947
H 14.9971 2.68473 13.6246
C 1.97069 6.14521 2.90465
H 4.45107 6.82034 17.3509
H 14.1191 2.24977 2.97311
H 18.2686 1.37931 2.14807
Si 9.69501 16.3872 9.27589
O 7.88746 16.159 8.59274
C 10.3185 15.9558 11.1762
H 5.24755 16.4188 7.85788
H 9.55001 15.1056 11.4503
H 11.4198 15.698 11.2877
C 4.29665 1.602 8.45915
H 3.07984 1.82005 7.70902
H 5.07954 2.11151 8.07043
H 4.56166 17.3551 9.2248
Si 6.48029 15.6243 8.15103
O 6.4854 13.9709 8.08415
C 6.15849 11.2585 2.48689
H 6.72512 10.4166 2.12696
H 5.2993 11.6336 1.74935
H 5.60122 10.963 3.55615
C 4.06766 9.23118 4.51621
H 3.83431 9.72576 3.51782
H 4.2617 9.89997 5.45624
H 3.263 8.66588 4.85868
Si 6.97775 12.5734 9.0724
O 7.42112 11.338 7.97308
C 5.49861 12.3334 10.0237
H 4.71445 12.9844 9.6343
H 5.05882 11.3918 10.3241
H 5.7742 12.7187 11.0181
C 8.46641 13.2452 9.94888
H 8.80892 12.5994 10.7623
H 9.36821 13.5709 9.39239
H 7.97274 14.1584 10.4007
Si 6.59166 10.0006 7.53761
O 7.28041 8.47344 7.84628
C 4.87268 10.0775 8.21724
H 4.99953 10.492 9.25156
H 4.055 10.7256 7.90133
H 4.36861 9.16114 8.27264
C 8.48725 11.7707 4.90893
H 8.52968 11.6841 3.80687
H 7.84087 10.8323 5.17299
H 8.003 12.5466 5.45007
Si 7.25056 7.25834 6.66535
O 7.54789 5.90487 7.41694
C 5.31856 7.07602 6.44615
H 4.98638 6.62559 5.52054
H 4.97909 6.38598 7.33667
H 4.65193 8.02943 6.64108
C 8.23113 7.38804 4.97503
H 7.58553 6.68739 4.36187
H 8.49526 8.40311 4.56546
H 9.13061 6.81005 5.01543
Si 8.53731 4.81362 8.32525
C 7.78826 4.5667 10.0486
H 6.70713 4.27975 9.9411
H 8.24319 4.04809 10.874
H 7.58397 5.60752 10.2027
C 8.71477 3.42778 7.1012
H 8.01693 2.6226 7.30338
H 5.84914 12.3776 6.19969
Si 13.1199 12.5334 10.1051
O 13.7743 11.4229 9.12648
C 16.0171 14.3132 6.35536
H 17.0114 14.8251 6.03243
H 15.3879 15.2807 6.62282
H 16.4528 13.6913 7.27793
C 11.4644 11.7796 10.6425
H 11.1247 12.0959 11.6455
H 10.5443 11.9113 10.0438
H 11.5556 10.6536 10.6096
Si 14.1929 9.86495 9.10516
O 12.9508 9.26685 8.15714
C 16.0451 9.98039 8.57096
H 16.5742 10.4229 9.4478
H 16.4395 8.98014 8.45755
H 16.1174 10.6986 7.74968
C 13.7403 9.10988 10.8192
H 12.9128 9.52088 11.4074
H 13.5665 8.04859 10.615
H 14.7068 9.22204 11.3508
Si 11.7232 8.27743 7.91293
O 12.2625 6.8583 8.70543
C 11.9005 8.02966 6.22368
H 12.8745 7.72541 5.93144
H 11.1058 7.36624 5.85597
H 11.5911 9.03136 5.90186
C 10.0619 8.62019 8.55759
H 9.41917 9.36565 8.06711
H 9.51835 7.64888 8.43756
H 9.98961 8.82572 9.61914
Si 13.5077 5.92813 8.51515
O 13.5947 4.88754 9.87263
C 15.0965 6.81732 8.93583
H 15.2437 7.71512 8.31975
H 14.9696 7.02915 10.0044
H 15.9784 6.14064 8.77248
C 13.249 5.01353 6.9213
H 13.9787 5.50757 6.23462
H 13.7385 3.98823 6.85706
H 12.2159 4.91607 6.49163
Si 12.192 4.23762 10.2665
O 11.3151 3.52543 9.00689
C 10.7594 4.97735 11.2993
H 11.1266 5.81248 11.9454
H 10.0179 5.41657 10.6309
H 10.3636 4.17476 11.9508
C 12.9516 2.48053 10.8458
H 13.181 1.66384 11.6165
H 11.7654 2.57579 11.3196
H 14.0242 3.05498 10.7157
Si 10.3413 2.36764 8.29194
C 8.76546 3.82695 5.5887
H 8.567 4.90829 5.5248
H 9.7262 3.73461 5.02099
C 12.7596 14.2044 6.36233
H 13.2629 14.9439 5.7
H 12.684 14.6026 7.38445
H 11.6506 13.8977 6.25725
Si 19.2082 8.21399 6.5522
O 20.2672 8.11817 7.85706
C 20.0533 10.472 5.94287
H 20.3363 10.2185 4.77783
H 19.224 10.1829 6.65682
H 1.82838 10.6375 6.72509
C 2.52029 8.47088 12.8181
H 3.64817 8.16764 12.7603
H 6.24851 9.87197 6.12644
H 9.52658 11.6102 5.19109
Si 20.4093 6.62723 8.60798
O 2.51753 4.21243 11.0161
C 18.0937 2.36781 1.85128
H 17.7253 1.77039 18.1987
H 17.6161 3.51023 2.268
H 19.2174 2.67748 1.81267
C 2.35328 5.26144 7.62825
H 5.15732 6.46123 1.86838
H 10.3255 12.9111 6.5445
H 14.0582 15.5435 16.9181
Si 2.16441 4.15351 12.6259
O 18.931 6.20433 9.33827
C 1.71675 5.80699 13.1428
H 19.7948 5.50743 13.5323
H 1.68038 1.43789 14.803
H 20.0051 6.87179 11.7924
C 15.0896 15.4022 16.6973
H 14.9845 14.2792 16.2608
H 15.4651 15.974 15.8139
H 15.8525 15.3637 17.5304
Si 3.06902 4.50597 9.45784
O 16.5371 3.45767 8.65582
C 2.78358 7.28597 9.74865
H 19.6959 6.42061 2.64367
H 19.1149 12.7773 7.66924
H 19.5156 3.1828 7.71331
C 10.3977 3.58596 2.13417
H 9.47768 4.25024 1.6373
H 13.3127 4.23987 3.27676
H 3.38932 5.64681 5.55274
Si 17.0545 1.73673 8.61615
O 16.5556 17.6889 7.1835
C 19.0197 17.6597 9.05224
H 19.609 1.97388 8.90817
H 19.0073 17.1081 9.96734
H 19.058 17.0701 7.94947
C 16.2841 17.4289 10.0855
H 15.3659 1.5255 9.60965
H 4.46873 1.48205 11.213
H 6.13259 11.7951 5.65867
Si 16.6191 1.84105 5.7978
C 11.3021 17.5535 5.93154
H 12.8888 1.85375 9.91956
H 12.0712 16.9527 8.15629
H 13.048 14.0745 10.0191
C 15.5523 17.768 4.68874
H 9.68638 17.6216 1.68226
H 16.0889 16.8267 4.29801
H 14.4811 17.3216 4.51778
Si 19.199 13.8954 11.3676
O 20.4177 14.8657 11.9693
C 17.7576 14.5456 10.7348
H 5.95021 17.0546 2.19298
H 4.12083 12.7061 7.43983
H 19.7632 12.948 13.3919
C 17.0032 13.2075 10.1071
H 15.858 13.2308 9.82983
H 2.3941 17.0417 6.33131
H 17.5413 12.8454 9.17742
Si 2.9745 15.0697 12.5398
O 2.92177 13.5219 13.3397
C 2.95047 17.2118 14.7158
H 3.27411 16.3096 15.3139
H 3.82637 6.75523 10.0035
H 2.96814 6.80566 18.1105
C 4.27084 14.563 11.4055
H 3.89338 13.7131 10.7838
H 4.5476 15.3306 10.6469
H 5.1588 14.226 11.9429
Si 3.37159 12.3628 14.4143
O 2.89606 10.7913 14.5542
C 3.13007 12.9233 16.2136
H 3.74619 13.683 16.5456
H 2.11923 13.426 16.1454
H 3.46453 12.207 16.9128
C 5.06913 12.0401 13.7766
H 5.30497 11.0963 14.267
H 5.08543 11.9387 12.6858
H 5.67609 13.0309 13.8891
Si 2.14336 9.34672 14.306
O 19.5348 9.71197 14.6389
C 1.71469 7.19589 12.6789
H 20.3298 9.59278 11.3562
H 2.70241 9.20567 12.0477
H 3.12004 8.34895 15.1387
C 18.6117 3.29392 11.9132
H 17.7261 3.74293 12.4882
H 14.5792 1.71067 15.1414
H 19.1349 2.13733 11.854
Si 4.18591 5.28079 15.8344
O 5.74209 5.04831 15.3182
C 3.82899 14.5828 1.62162
H 18.9675 10.257 14.0218
H 5.66079 15.4998 13.8467
H 11.9113 15.6356 9.21982
C 4.52905 4.53284 12.8763
H 4.3696 4.98241 11.9311
H 4.79248 3.51837 12.8875
H 3.74475 4.46479 13.656
Si 6.18801 5.31449 13.657
C 7.72077 4.27633 13.2499
H 7.64932 3.33298 13.7264
H 7.57304 3.86096 12.2206
H 8.67034 4.80321 13.3327
C 6.38127 7.07001 12.972
H 5.434 7.17082 12.3909
H 7.16495 6.89949 12.186
Si 7.29404 17.4355 10.9107
O 7.47971 17.2118 12.5229
C 5.43334 2.12439 11.2107
H 5.40918 2.92961 10.4343
H 10.2928 15.7693 8.0912
H 4.29327 14.6713 17.8525
C 3.02637 5.32126 6.56332
H 10.2191 17.0072 11.5236
H 3.67303 15.9366 2.97889
H 9.87285 14.2413 4.78311
Si 7.88797 17.1168 14.2295
O 9.11079 16.4879 15.2188
C 7.74584 2.14143 15.2488
H 8.41867 2.89191 15.7801
H 6.74425 2.47388 15.4039
H 7.56512 1.4901 16.3525
C 6.26684 16.0852 14.7037
H 3.13387 8.30587 9.48053
H 6.77158 13.7244 1.73263
H 5.37108 2.73988 12.203
Si 10.826 16.3211 15.4702
O 11.1018 14.8637 16.1486
C 11.5367 17.6618 16.3034
H 12.5385 17.6632 16.6786
H 11.2612 2.22841 15.601
H 10.8917 1.97765 16.7098
C 11.5292 15.8129 13.6035
H 12.4837 15.328 13.455
H 10.6003 15.3024 13.344
H 11.5766 16.7172 13.0543
Si 11.398 13.2352 16.047
O 10.0284 12.3649 16.1782
C 7.38463 15.5009 5.05594
H 13.2595 13.3543 6.45759
H 8.08035 3.21891 4.95624
H 6.33077 15.5633 4.56698
C 12.0819 12.5856 14.4338
H 11.3992 11.7508 14.2912
H 12.1146 13.3202 13.5728
Si 8.23512 12.2572 15.6611
O 8.09003 10.7644 14.9254
C 8.40478 13.296 14.1809
H 7.69499 13.9386 13.68
H 9.34222 13.9173 14.3958
H 8.61314 12.6229 13.2658
C 7.05429 12.6834 17.0273
H 7.03867 11.7741 17.6742
H 3.78172 13.3 2.16119
H 5.97888 12.7089 16.5184
Si 8.18783 9.59411 13.8227
C 6.81497 8.30701 13.9465
H 5.94258 8.95876 14.1114
H 7.11934 7.8675 14.9627
C 8.58404 10.2917 12.242
H 8.49375 9.56336 11.4495
H 7.99031 11.0619 11.8512
H 9.53167 10.804 12.2761
Si 16.7445 16.0206 10.929
O 17.5907 16.7986 12.1056
C 8.43843 15.7682 2.98119
H 19.6353 1.89819 5.29072
H 7.79858 14.7649 2.83479
H 4.34241 14.5285 5.53078
C 15.0281 15.7286 11.9283
H 14.3406 15.3956 11.1622
H 15.1538 15.1574 12.8198
H 14.6121 16.7407 12.1032
Si 17.472 16.6614 13.7148
O 17.481 15.0853 13.9086
C 4.46377 15.2273 2.75652
H 4.6805 2.41121 5.42034
H 4.15093 2.15399 1.98737
H 3.48071 6.08968 14.7972
C 19.0983 16.7947 14.8859
H 10.4853 4.03315 18.3887
H 6.54031 15.3835 15.3569
H 20.5622 17.4376 17.1644
Si 17.5004 13.5342 13.8627
O 15.9634 13.1946 13.9983
C 18.7405 12.8006 12.918
H 5.86119 1.24227 2.09844
H 19.743 14.8055 6.67971
H 18.5782 11.8333 12.3743
C 18.3503 12.3576 16.5286
H 18.7414 12.3618 15.4631
H 1.57787 9.49633 16.2896
H 18.9304 11.6322 17.2968
Si 14.863 11.9034 13.6028
O 15.764 10.6261 13.6835
C 13.5175 12.0566 14.7662
H 13.4211 11.0288 15.2973
H 13.9673 12.6063 15.5657
C 14.1059 12.3569 11.8593
H 13.5369 13.1874 12.305
H 15.1256 12.746 11.4596
H 13.7409 11.3409 11.6356
Si 15.1898 9.09155 14.1074
O 16.1174 8.14399 13.1146
C 19.5333 9.73533 10.6067
H 19.1248 8.87217 10.1449
H 3.99462 4.96986 6.58417
H 18.7177 10.3256 11.0371
C 15.9531 9.04499 15.7542
H 16.2336 8.15031 16.2949
H 16.8992 9.27955 15.147
H 15.8068 9.78549 16.4062
Si 17.3185 6.92093 12.8754
C 13.536 5.32041 14.0847
H 14.5617 5.71018 14.0522
H 13.2141 5.07883 13.0605
H 12.9879 6.21018 14.4132
C 16.39 5.81073 11.7332
H 15.4553 6.08776 11.2011
H 17.0798 5.59121 10.8852
H 16.2884 4.7607 12.0165
523
 Atoms. Timestep: 7000
Si 18.0952 12.5289 6.93212
O 19.3155 13.0844 5.98523
C 2.52201 2.06632 3.64629
H 2.40418 17.7743 2.84085
H 3.45946 2.79127 3.42987
H 2.36999 8.33994 10.2101
C 2.22742 14.4268 8.32121
H 1.91776 14.5623 9.33914
H 2.01348 15.7452 8.2473
H 6.3593 1.448 18.3334
Si 20.0655 13.3878 4.59206
O 19.5463 12.1423 3.52801
C 17.2932 11.5352 1.70727
H 12.1694 14.878 5.2649
H 9.24761 17.6011 4.96278
H 8.39635 17.6114 1.71172
C 16.2595 11.7985 18.251
H 7.88593 3.47221 9.82587
H 3.21746 14.7448 7.99647
H 19.6424 13.6468 9.89954
Si 2.41125 8.56987 1.9202
O 4.07548 8.39027 2.33019
C 7.87597 12.6179 17.7948
H 4.85137 9.18289 2.31745
H 2.24702 13.4075 7.94747
H 2.57103 16.331 15.5249
C 2.42272 14.3058 4.26717
H 8.1713 5.06292 9.07174
H 10.7838 17.2751 5.72063
H 2.82673 9.14601 4.37741
Si 18.7776 10.829 3.2645
O 18.6831 10.0663 4.72968
C 5.96299 5.84181 2.40922
H 7.01161 14.4876 12.3082
H 14.5054 1.42452 17.504
H 10.9665 3.27708 14.9034
C 19.2649 2.42449 15.0883
H 20.2787 2.59339 3.54589
H 15.1198 16.662 6.79791
H 16.2407 16.0201 8.18623
Si 19.6366 8.8606 5.18014
O 3.17598 5.11784 3.7251
C 2.66482 16.8145 14.2859
H 17.9869 2.98443 17.9791
H 15.4879 11.3965 1.76945
H 2.46517 7.67752 5.12903
C 2.87566 4.66657 16.9835
H 6.28966 6.21287 3.5293
H 18.7036 7.74143 5.89129
H 14.2737 17.3947 18.3851
Si 4.05405 5.80654 2.56687
C 2.87293 5.86411 18.2967
H 2.97522 1.50735 17.3959
H 19.8223 7.37579 2.67232
H 18.1454 11.0962 18.4576
C 18.5264 17.2488 5.4574
H 16.9283 16.1313 1.99715
H 15.8876 5.47373 9.60704
H 18.2766 16.2807 4.9092
Si 8.69019 14.0974 1.60151
O 10.3928 13.9729 2.08902
C 17.4692 14.2249 7.34175
H 5.88904 10.8961 17.8882
H 7.80732 3.71392 1.44938
H 15.4319 15.0711 17.0675
C 4.66988 16.0017 6.06228
H 6.53082 15.7352 5.85199
H 15.3113 12.5359 16.5172
H 3.53705 15.5916 5.90155
Si 11.254 12.5846 2.2178
O 10.1095 11.1472 2.25102
C 12.0706 12.3713 3.88775
H 12.3062 11.2242 4.1481
H 13.1522 12.7459 3.82925
H 11.7398 13.0817 4.71376
C 12.4354 12.2938 17.8091
H 13.4374 12.7768 17.7348
H 8.646 14.457 3.60325
H 11.3423 17.0893 1.478
Si 9.79577 9.52612 2.28374
O 11.1299 8.83295 1.76919
C 8.16504 8.61709 2.1119
H 8.66447 7.56551 2.09347
H 8.01551 6.09525 18.3575
H 9.79149 4.17915 15.9332
C 10.6279 11.124 6.98811
H 11.5297 11.7077 7.05017
H 10.6931 10.4718 6.04331
H 10.6651 10.4858 7.88765
Si 11.2952 7.32201 18.2986
O 10.7383 6.6303 16.8928
C 11.0872 5.99424 2.48496
H 12.0128 5.54713 2.86969
H 10.7149 6.63999 3.34948
H 10.2376 5.20074 2.35212
C 13.5368 7.42365 18.2974
H 13.7395 8.42653 18.4217
H 15.8172 8.96343 15.9207
Si 11.0362 5.81677 15.4992
O 10.1478 6.43639 14.1763
C 10.7858 3.98006 15.6493
H 12.4313 6.03186 14.9619
H 10.2489 16.8053 3.7007
H 11.1698 3.78477 16.6802
C 8.87186 17.0606 6.77103
H 19.7421 5.50923 12.2033
H 11.4544 2.03175 2.89885
H 14.4635 15.9435 15.9319
Si 10.0795 7.95145 13.5111
C 9.87339 7.24497 11.724
H 10.6442 7.51272 10.9911
H 9.57374 6.21723 11.754
H 9.05394 7.82856 11.2683
C 11.7019 8.75448 14.3409
H 12.2197 7.97088 14.8487
H 12.4209 9.19593 13.6706
H 11.5433 9.62295 14.9853
Si 16.6542 11.7782 5.29305
O 16.1813 10.2842 5.80934
C 15.3843 13.0679 5.25372
H 15.8155 13.9001 4.88857
H 14.4943 12.9985 4.54224
H 5.44332 3.91591 3.86019
C 16.3042 11.844 16.8147
H 19.0901 8.56794 9.39177
H 1.76811 10.3495 2.34418
H 18.3055 2.58572 17.8451
Si 15.9206 9.5369 4.27756
O 16.8684 8.18897 4.31538
C 2.54368 8.71607 5.18207
H 5.63116 6.02978 9.03644
H 3.79415 12.3075 3.94348
H 5.34666 1.61265 6.09583
C 14.1967 9.59636 3.46313
H 14.1994 10.6191 3.0172
H 14.394 9.14719 2.3782
H 13.3227 9.46604 4.02401
Si 16.7697 6.77195 3.46742
O 15.3497 6.39473 3.04224
C 16.8936 11.0149 3.4086
H 14.6998 7.85274 16.2992
H 17.6327 6.29844 2.21504
H 14.773 2.88318 8.1225
C 17.6808 5.7928 4.74349
H 18.5556 6.49986 4.63564
H 17.5242 6.1051 5.72896
H 17.9763 4.87369 4.55648
Si 14.1791 5.82018 1.99758
O 14.995 4.95885 18.0811
C 13.9304 7.0139 16.803
H 17.0918 13.232 9.32776
H 13.2131 7.3432 16.2287
C 17.6858 5.70903 15.1164
H 18.6879 6.1611 14.8014
H 17.9435 4.73048 14.961
H 17.5668 5.95139 16.2257
Si 14.5224 5.31226 16.6219
O 14.9485 5.13351 14.4412
C 13.8051 3.76266 16.1424
H 12.7713 3.56936 16.4582
H 8.23286 11.4554 18.0496
H 14.3323 2.92526 16.644
C 18.8422 1.58407 14.1699
H 6.49308 17.0879 2.74218
H 5.11944 4.0235 4.4861
H 14.9938 13.4652 6.17956
Si 14.3417 3.59174 14.3107
C 15.7659 2.3973 14.4399
H 12.9203 11.4173 18.0544
H 16.1612 2.39967 15.4585
H 15.3963 1.36983 14.3911
C 1.95452 6.97689 18.4336
H 6.10462 6.88932 2.30172
H 9.80266 16.5006 3.16423
H 1.94145 16.3276 17.7844
Si 9.38752 15.158 7.39241
O 8.08946 14.1594 8.09395
C 10.9894 14.9356 8.62135
H 5.76461 15.5818 8.83064
H 10.8585 13.9359 8.9195
H 11.9701 15.4814 8.52892
C 2.96469 2.62911 9.89289
H 3.95105 2.38734 9.66379
H 4.81643 15.9673 12.2617
H 2.57252 1.74154 9.5504
Si 6.32173 14.4649 8.17688
O 5.60648 13.2189 8.9448
C 5.59129 9.91604 17.3392
H 4.61601 9.68722 17.3692
H 5.94324 9.19169 17.9897
H 5.97191 9.99148 16.254
C 4.2114 11.743 3.15956
H 4.61213 12.4333 2.26685
H 3.2737 11.1949 2.76936
H 4.9075 11.0212 3.44395
Si 5.52145 11.9105 9.8542
O 6.30161 10.622 9.07713
C 3.83894 11.3085 10
H 3.49376 11.2773 8.99842
H 3.67697 10.3028 10.4311
H 3.23687 12.0818 10.5357
C 6.79504 12.3808 11.1771
H 7.49831 13.1064 10.7919
H 6.30551 12.8909 11.9663
H 7.38943 11.5062 11.4485
Si 6.67387 10.5661 7.4928
O 7.20885 9.01422 6.93894
C 5.02621 10.8798 6.65164
H 4.50428 9.9798 6.29265
H 4.30501 11.5013 7.16711
H 5.30928 11.2832 5.61239
C 8.89361 12.5731 4.82946
H 9.05897 12.0268 3.85156
H 8.02362 13.296 4.79781
H 9.79563 13.0945 5.11283
Si 7.17562 7.72615 5.98774
O 7.43187 6.2626 6.82104
C 5.43816 7.67586 5.30655
H 5.27975 7.73624 4.24077
H 4.8931 6.68977 5.418
H 4.6228 8.27717 5.84128
C 8.74277 7.45375 4.86367
H 8.98717 6.36851 4.87966
H 8.73377 7.94713 3.78394
H 9.52763 7.93109 5.56186
Si 7.40943 4.8684 7.72151
C 5.50298 4.27092 7.8226
H 4.77611 5.08527 8.04701
H 5.4555 4.22796 6.67608
H 4.95004 3.33282 8.0682
C 7.97757 3.43281 6.84133
H 7.09303 3.00755 6.41593
H 19.5811 10.3924 2.22608
Si 11.296 9.82951 11.3195
O 12.0522 9.3 9.94698
C 13.1575 15.1678 5.67337
H 13.9241 15.1516 4.94783
H 13.2046 16.2149 5.94252
H 13.6169 14.9088 6.68271
C 10.4797 11.3896 10.688
H 9.5785 11.6352 11.2507
H 11.2958 12.1405 10.8724
H 10.4513 11.4941 9.58874
Si 13.4127 8.29832 9.87797
O 13.0951 7.21502 8.60605
C 14.8234 9.34985 9.21138
H 15.0663 9.04067 8.17003
H 14.5917 10.4205 9.13982
H 15.7882 9.19711 9.71338
C 13.3106 7.30592 11.4438
H 13.3654 6.22433 11.1399
H 14.0511 7.55 12.2218
H 12.3322 7.26889 11.9666
Si 11.9377 7.27496 7.45446
O 11.9058 5.77489 6.78588
C 12.8292 8.29342 6.19285
H 13.5585 8.67504 6.91884
H 13.1531 7.82016 5.23034
H 12.2404 9.17701 5.91173
C 10.2369 7.53323 8.11015
H 9.68101 6.80605 7.48206
H 10.118 7.37682 9.18924
H 9.73483 8.49515 7.88067
Si 13.1265 4.62773 6.45138
O 12.8792 3.5518 7.68164
C 14.8183 5.54689 6.38494
H 14.938 5.87298 5.36706
H 14.5642 6.35388 7.08461
H 15.7779 5.11121 6.67847
C 13.2783 3.59826 4.9843
H 12.4981 2.88843 4.75628
H 13.5788 4.02266 4.00334
H 13.9169 2.8088 5.32616
Si 11.7653 3.27438 8.85425
O 10.4439 2.44223 8.25449
C 11.2247 4.71396 9.9771
H 11.7184 5.69912 9.89952
H 10.1578 4.85855 9.7571
H 11.1738 4.24766 10.9735
C 12.395 1.79138 9.69725
H 12.9355 1.8086 10.7178
H 8.42235 17.2116 15.1432
H 12.6492 17.3819 8.94911
Si 8.86216 2.05385 7.92111
C 8.94744 3.96327 5.86269
H 8.53872 4.4875 5.01624
H 9.66944 4.612 6.34322
C 13.5171 13.2006 8.19866
H 13.5606 13.0481 7.14561
H 12.8162 12.4978 8.83055
H 14.4513 12.8468 8.51365
Si 2.21286 9.51111 6.8419
O 3.15984 8.53295 7.95849
C 18.6527 11.4762 8.26989
H 19.684 11.5799 8.46145
H 18.4847 10.4689 7.88331
H 18.1766 11.7443 9.19931
C 2.5841 9.08271 14.6816
H 20.3343 8.69734 14.7837
H 7.71182 11.5811 7.4252
H 8.45121 11.8587 5.4702
Si 3.41329 6.93857 8.8119
O 3.85471 5.36152 11.0047
C 20.0426 16.4342 18.2899
H 19.3831 1.4829 13.3848
H 20.2495 17.1203 1.78814
H 16.0863 2.46561 4.01238
C 2.61801 5.33369 8.39932
H 2.063 5.38542 16.3091
H 9.63203 11.6747 7.10886
H 15.0424 15.6448 2.25279
Si 2.65857 5.83237 11.8444
O 2.76303 7.48607 10.3073
C 2.4482 7.2369 13.1469
H 20.4688 6.84952 13.3744
H 3.82007 1.89895 14.7846
H 4.6108 8.08339 13.4574
C 14.4827 14.8356 2.55118
H 15.1739 14.5774 3.39632
H 13.5612 15.2297 2.78708
H 14.3621 14.0067 1.78777
Si 2.69983 4.34186 9.93294
O 15.2484 3.15083 8.95534
C 5.36804 7.05443 9.03177
H 18.527 3.13571 7.09537
H 17.6334 14.8418 6.34682
H 16.3645 5.80043 9.11915
C 8.52936 2.01686 2.67754
H 7.4265 2.19497 3.14981
H 13.753 4.56318 2.25524
H 2.20673 4.34701 6.83162
Si 16.7314 2.16666 8.56103
O 16.5185 2.03548 7.02657
C 18.4804 2.56039 9.43122
H 18.9712 2.75798 8.4408
H 18.3297 3.72579 9.73088
H 18.8317 1.55015 10.3032
C 16.5739 16.556 9.19125
H 17.7161 16.2999 9.57755
H 7.18313 1.43198 12.5222
H 2.52931 10.3213 1.51257
Si 17.8776 2.26206 5.94741
C 9.81152 17.4634 5.87189
H 11.4367 1.44076 10.2808
H 8.01117 17.0468 5.84943
H 12.6913 14.4952 10.9156
C 16.773 2.40631 3.34474
H 17.4126 16.7567 2.1125
H 16.9671 1.36043 2.84303
H 17.4074 3.19501 2.91294
Si 18.7672 14.6925 11.0314
O 19.4232 15.8579 11.8684
C 16.9163 14.7421 11.0405
H 11.1645 1.40872 18.4721
H 5.98338 16.6764 2.41419
H 19.0143 12.6456 11.4961
C 16.3346 13.7616 9.9702
H 15.9205 12.9877 10.7466
H 15.359 15.9852 7.05033
H 15.3533 13.9425 9.47824
Si 2.50064 15.6793 13.0468
O 2.71425 14.1579 13.4473
C 2.79278 1.8598 14.2222
H 2.79844 2.24088 13.166
H 5.93996 7.82251 8.72816
H 4.01391 4.14892 17.2526
C 3.77465 16.2042 11.7475
H 18.1137 11.9123 12.7454
H 3.56323 15.9993 10.6387
H 3.6605 17.3286 11.9563
Si 3.50532 13.4811 14.8195
O 3.94967 11.937 14.3063
C 2.60627 13.8324 16.1983
H 2.81697 12.9248 17.0189
H 2.56187 14.8103 16.7267
H 20.4026 13.3885 15.7373
C 4.95676 14.542 15.0609
H 4.87787 15.4199 15.7701
H 5.62009 13.7585 15.5258
H 5.35442 15.1694 14.2038
Si 2.36738 10.8483 14.0979
O 2.44567 10.8316 12.3596
C 3.4239 8.1322 13.9156
H 18.0949 9.20493 10.7418
H 2.70218 9.19327 16.005
H 20.1882 11.8423 13.6063
C 20.4195 4.59344 11.8482
H 1.66164 4.03051 12.7836
H 16.4089 2.7155 13.6791
H 19.809 3.74186 11.2451
Si 6.91518 4.824 18.5268
O 6.67402 4.7618 16.6978
C 3.90863 17.2936 17.9593
H 3.3007 10.5711 12.2029
H 7.9411 14.073 13.8253
H 12.1257 14.8538 11.1991
C 5.07223 4.07764 14.4417
H 5.45913 3.22763 13.9357
H 4.27706 3.94603 15.1731
H 4.39296 4.40451 13.6389
Si 6.74161 4.81013 15.0544
C 8.23154 3.8598 14.3346
H 8.34977 3.16366 15.2095
H 8.0817 3.29042 13.3974
H 9.10342 4.50621 14.1932
C 6.74176 6.45121 14.1393
H 5.77382 6.68993 13.6906
H 7.48303 6.33294 13.296
Si 7.7902 16.9708 11.2872
O 9.23887 17.329 11.8727
C 8.1144 2.33112 9.48095
H 7.24777 1.46171 9.3534
H 9.91551 14.1714 6.3401
H 3.46741 17.5012 1.85395
C 1.71536 5.00017 7.42489
H 10.4968 15.6089 9.39136
H 8.73909 15.6449 1.61926
H 11.771 2.81555 2.68385
Si 9.44878 15.3548 12.347
O 10.3841 15.4961 13.8452
C 6.43497 1.53057 16.6529
H 5.04238 2.78058 1.54109
H 6.19723 2.12797 15.7101
H 7.65167 2.06564 17.3882
C 7.58701 14.9102 13.1327
H 5.44084 7.08856 10.1396
H 7.10159 9.58324 2.27894
H 9.17013 2.00073 10.1876
Si 10.8233 15.7976 15.4196
O 10.8214 14.3709 16.2703
C 9.25423 16.939 15.9931
H 9.63975 1.67341 16.1624
H 4.72781 2.68947 16.6896
H 8.93886 16.6715 17.0964
C 12.39 16.664 15.5865
H 12.4592 17.438 14.7918
H 12.0906 17.6469 16.2585
H 13.3596 16.3013 15.8548
Si 11.8245 13.0421 16.2793
O 10.6304 11.9025 16.0743
C 5.8572 14.9827 6.36837
H 13.568 14.274 8.51264
H 9.6047 3.3098 5.33178
H 5.8375 14.1928 5.48947
C 12.9722 13.0881 14.9066
H 12.4606 13.3024 14.0038
H 13.5317 13.9823 15.1788
Si 9.13169 11.6267 15.4037
O 9.02473 9.85861 15.5457
C 9.00334 11.841 13.6676
H 7.99349 12.1157 13.4706
H 9.7899 12.5774 13.421
H 9.20444 10.9858 13.0346
C 7.80883 12.5594 16.2239
H 6.92986 11.8909 15.8699
H 4.59568 16.0957 17.6259
H 7.60032 13.4745 15.6468
Si 8.25781 8.92325 14.4554
C 7.20359 7.55075 15.2686
H 6.27242 7.65866 15.8756
H 7.82678 7.07862 16.0145
C 7.02662 9.45477 13.1154
H 6.44875 8.61926 12.7381
H 6.26565 10.0836 13.5208
H 7.44369 9.96802 12.2323
Si 16.1364 16.4175 10.7866
O 16.9675 17.3005 12.1225
C 5.20034 17.2521 5.95094
H 19.1085 17.2413 6.60605
H 8.02719 14.7912 3.93081
H 3.39069 14.4253 3.73321
C 14.2457 16.6068 11.1684
H 14.2224 17.3655 11.9042
H 13.7881 16.9785 10.2456
H 13.68 15.7911 11.7445
Si 17.891 16.6576 13.113
O 17.3513 15.168 13.8222
C 5.04904 2.06927 17.8748
H 2.62393 1.53043 4.48879
H 2.74787 4.12925 3.68529
H 2.37224 3.55574 15.0429
C 1.62544 2.6809 15.1611
H 9.26656 1.99698 3.52964
H 7.30723 15.9805 13.5679
H 3.13422 16.3225 18.0415
Si 17.045 13.9113 12.8313
O 15.9799 13.0754 13.8831
C 18.6698 12.9915 12.5426
H 18.9225 12.691 17.1517
H 16.5268 14.1211 7.94482
H 19.76 13.341 12.9043
C 15.4826 15.5043 16.0525
H 16.1157 14.8585 15.4117
H 18.9549 12.7318 17.8649
H 16.3097 15.98 16.4186
Si 15.341 11.6113 13.4409
O 15.988 10.1539 13.548
C 13.8147 11.7375 14.8222
H 12.9948 11.1227 14.3459
H 13.8973 11.1001 15.7201
C 14.498 12.0411 11.6656
H 14.8566 11.4164 10.8045
H 13.4471 11.6665 11.6312
H 14.3047 13.1372 11.5073
Si 16.4202 8.95677 14.5297
O 15.8715 7.58861 13.773
C 18.3778 8.21746 10.2334
H 18.7288 7.54832 11.0048
H 19.9682 5.59056 6.91851
H 17.492 7.80487 9.81173
C 18.2973 9.2454 14.5333
H 18.9469 9.42944 13.699
H 17.3564 11.4967 16.6341
H 19.0126 9.45571 15.5336
Si 16.1877 5.97986 13.9126
C 13.1849 3.95998 12.9607
H 12.1598 3.4582 12.8102
H 12.8381 4.97822 12.968
H 13.6393 3.8863 11.9793
C 16.8697 5.29974 12.4397
H 16.4012 4.7696 11.5818
H 16.8933 6.28337 11.9617
H 17.8539 4.94734 12.5968
523
 Atoms. Timestep: 7500
Si 18.3754 13.1179 6.54245
O 19.7239 13.9293 6.0434
C 3.88761 3.55614 5.37193
H 4.04669 2.50791 5.39588
H 3.95478 3.86972 6.21764
H 2.20494 8.12372 10.0804
C 19.7745 15.0508 9.96657
H 18.9684 15.7707 9.66762
H 20.2929 12.6758 16.6738
H 6.43045 16.9108 12.9937
Si 19.8543 14.1634 4.46921
O 1.97346 12.8122 3.47432
C 18.3089 12.5234 1.59724
H 13.1755 14.0857 6.36232
H 10.4059 15.9663 6.83547
H 9.22594 14.244 16.0764
C 16.9727 12.7472 17.9642
H 7.97394 3.53447 9.43162
H 19.1693 14.3834 8.94886
H 20.0988 12.8039 12.0275
Si 19.6599 6.7882 2.41837
O 4.41825 6.99705 16.6338
C 7.63078 12.2062 15.5924
H 3.62737 6.25728 16.3689
H 2.02147 14.7846 9.30047
H 19.3625 1.43919 16.477
C 18.9298 16.026 4.40816
H 8.46722 5.99599 8.61886
H 9.31575 16.3656 5.3506
H 19.4077 8.48411 7.94854
Si 19.6341 11.4902 3.85244
O 19.7426 10.201 4.81385
C 4.78916 5.30289 2.1994
H 10.0192 13.2838 10.5606
H 10.1249 16.943 1.80539
H 10.3566 3.17126 14.6102
C 20.2968 3.35205 13.8459
H 4.66962 4.30281 4.95053
H 14.0895 14.4833 9.25824
H 15.7688 15.8812 9.76429
Si 18.9311 9.17366 5.90943
O 3.94148 8.18729 1.71315
C 20.3329 1.82749 15.9153
H 17.3908 7.35671 17.8031
H 16.284 13.3533 1.7305
H 20.3859 9.98792 7.70141
C 19.9739 3.42181 17.8171
H 4.26021 4.91741 3.17685
H 19.1158 7.72958 5.26745
H 17.7717 16.1801 3.69487
Si 3.87535 6.6633 18.2028
C 1.83817 4.53692 18.196
H 16.3022 3.92413 17.9301
H 2.94961 10.3468 17.6925
H 18.7031 13.549 1.73946
C 19.8766 2.82608 5.59652
H 14.6338 5.35928 3.16202
H 15.7605 9.54869 6.67352
H 3.05812 15.7999 18.1116
Si 8.8256 13.0362 16.7208
O 8.8562 12.5304 18.3865
C 17.1732 14.363 7.04712
H 5.23743 12.1829 18.4496
H 7.77608 2.43336 3.02519
H 14.4645 17.2663 17.8822
C 2.28498 15.7164 7.46053
H 3.82626 15.3923 6.17985
H 17.5926 13.5552 16.2357
H 3.98685 13.7997 6.92045
Si 10.3893 12.1478 2.0088
O 10.0219 10.5749 1.98722
C 10.6793 12.164 3.83054
H 10.1898 11.4156 4.54494
H 11.7407 12.3043 3.93687
H 10.3233 13.1271 4.25769
C 11.6199 13.0394 17.8308
H 12.153 13.9005 18.0916
H 4.49855 2.84368 8.69752
H 10.5325 15.3817 8.84732
Si 9.22816 9.37803 1.49169
O 10.2961 8.11242 1.55274
C 7.17691 9.07251 18.5377
H 7.33088 8.02449 18.2754
H 6.3507 1.78781 18.2546
H 9.36895 3.45724 16.01
C 10.1987 11.2942 7.19984
H 9.54512 10.399 7.28431
H 9.71951 12.081 6.53281
H 10.3494 11.7242 8.23126
Si 11.4372 6.62388 18.2353
O 10.7606 6.19598 16.6804
C 11.4877 5.83264 2.61375
H 11.9922 6.46056 3.37639
H 10.4183 5.73835 3.08733
H 11.6734 4.80099 2.76027
C 12.9996 7.24896 17.8331
H 13.6256 8.02995 1.45551
H 17.5744 9.57495 15.823
Si 10.9508 5.23708 15.29
O 9.72842 5.51956 14.1423
C 10.4077 3.49927 15.6207
H 12.3231 5.40919 14.5086
H 12.7649 1.59229 18.3415
H 11.0554 3.13314 16.3045
C 8.29041 17.3604 7.09122
H 18.664 6.17508 11.8615
H 10.5531 17.2096 2.27418
H 15.5055 15.8887 17.1063
Si 9.56533 6.72841 12.9065
C 8.53249 6.18186 11.4721
H 8.86283 6.36685 10.4635
H 8.40862 5.10626 11.5664
H 7.58495 6.67898 11.6484
C 11.2001 7.53026 12.8509
H 11.0895 8.23247 13.6843
H 12.0031 6.93678 13.3131
H 11.5563 8.15484 12.0052
Si 17.296 12.6625 4.4225
O 16.6177 11.1319 4.82324
C 15.9213 14.0025 4.04361
H 14.8834 13.6962 4.35551
H 16.3614 14.885 4.5418
H 9.31248 4.21885 1.47883
C 16.9115 12.9184 16.5366
H 18.1261 6.39636 8.02921
H 2.4419 10.0987 18.3852
H 18.7263 15.8111 1.66167
Si 16.467 10.5587 3.25005
O 17.259 9.07689 3.37832
C 20.1834 8.94433 7.35614
H 6.28383 8.25255 9.89688
H 5.47059 13.9335 3.50414
H 6.5915 3.89331 10.2497
C 14.9492 10.6645 2.1233
H 15.415 10.9081 18.2765
H 14.4637 9.64009 2.0083
H 14.4166 11.4792 2.6483
Si 17.4263 7.83766 2.25382
O 16.7094 6.67547 3.01135
C 18.2136 11.7426 2.74869
H 14.1365 8.25997 16.1308
H 18.8899 8.69547 1.64105
H 16.5745 3.09659 4.17968
C 18.0535 6.0294 5.8466
H 17.4357 5.66096 4.99203
H 19.0748 5.9602 5.81667
H 17.4153 5.57804 6.63172
Si 15.6403 5.49642 2.072
O 15.8575 5.84439 17.5667
C 13.6979 7.28064 16.3669
H 16.1197 13.8624 6.811
H 12.7647 6.80371 15.7482
C 18.1207 5.25311 14.158
H 18.9838 5.78762 14.0711
H 17.9928 4.32558 13.5835
H 18.094 4.99198 15.1752
Si 14.867 5.73148 16.3111
O 15.14 5.40616 14.593
C 13.7804 4.31815 16.1967
H 12.8027 4.3918 16.6669
H 7.10405 12.8839 14.7409
H 14.0917 3.41064 16.8002
C 20.3315 3.32845 12.4727
H 3.82945 2.84425 8.21843
H 9.44239 4.99148 18.2972
H 15.8146 14.0558 2.98498
Si 14.311 3.79997 14.4099
C 15.5841 2.44116 14.1348
H 12.3721 12.2621 18.1144
H 16.581 2.7206 13.7832
H 15.7987 1.62213 14.9996
C 1.94575 5.86969 18.4289
H 5.27846 6.2649 2.57535
H 12.7959 17.439 1.82202
H 19.1265 5.48856 3.36643
Si 7.31061 15.6487 7.46343
O 6.06695 15.8913 8.61359
C 8.14121 14.16 7.95349
H 3.67222 15.2263 9.77993
H 7.49246 13.3156 7.87861
H 8.85059 13.962 7.07484
C 5.6899 3.79547 11.1639
H 7.88461 17.6074 5.98135
H 3.98731 1.45435 12.7875
H 5.86854 2.67954 11.8135
Si 4.67539 14.9354 8.67773
O 5.21052 13.4554 8.68992
C 4.55002 12.3584 2.09451
H 5.29323 12.3715 2.91681
H 3.99719 11.6308 2.36826
H 4.05466 13.0056 1.55832
C 5.08272 15.0411 3.80716
H 4.02631 14.9339 3.68922
H 5.40768 15.7678 3.02366
H 5.18276 15.434 4.82568
Si 5.13765 11.8935 9.3271
O 4.92294 10.6322 8.3412
C 3.63707 12.2471 10.394
H 2.97388 11.4122 10.4564
H 4.12873 12.3936 11.3934
H 3.19033 13.201 10.1186
C 6.56129 11.3572 10.4043
H 6.84228 12.0213 11.2435
H 6.13118 10.4518 10.8757
H 7.45173 11.1293 9.82072
Si 6.05526 10.3983 7.05179
O 6.55148 8.78506 6.96187
C 5.67043 10.9827 5.32097
H 5.55609 12.0825 5.22902
H 6.48159 10.7942 4.60637
H 4.74708 10.5988 4.84754
C 8.1287 13.7388 4.52544
H 8.29697 12.6914 4.82834
H 7.04675 13.694 4.72578
H 8.34066 13.7634 3.4151
Si 6.98109 7.87777 5.55344
O 7.77859 6.53113 6.16098
C 5.50793 7.85651 4.41094
H 5.18384 6.77967 4.24925
H 4.67054 8.29552 4.75334
H 6.03166 8.31004 3.54674
C 8.42958 8.86723 4.64949
H 8.08668 9.74473 4.06279
H 9.35674 8.89183 5.24475
H 8.63 8.32754 3.65158
Si 7.78756 5.29571 7.33704
C 6.05358 4.99867 7.26124
H 5.56128 5.98353 7.24582
H 5.75854 4.45105 6.29761
H 5.67747 4.3857 8.10309
C 8.74732 3.83935 6.84293
H 8.23333 3.52199 5.9042
H 17.9011 7.07121 6.10262
Si 10.8082 9.837 10.768
O 12.1849 9.08562 10.2462
C 12.5146 13.8291 7.1333
H 11.9752 14.6509 7.447
H 12.1545 12.9599 6.7301
H 13.2241 13.566 7.86573
C 9.45122 9.09325 9.77744
H 8.81624 9.76701 9.18548
H 9.92898 8.37061 9.09862
H 8.84481 8.43449 10.4204
Si 13.4963 8.41696 9.55008
O 13.3589 8.49093 7.89768
C 15.0876 9.5952 9.8073
H 15.6747 9.5677 10.7208
H 15.6805 9.36384 8.90314
H 14.7976 10.6494 9.8508
C 13.2244 6.698 10.1828
H 13.0412 6.00505 9.34696
H 13.9966 6.25051 10.8115
H 12.3071 6.73501 10.7673
Si 13.0609 7.48668 6.4628
O 13.0642 5.91129 6.75052
C 14.2148 7.97552 5.18471
H 14.9801 7.14415 5.26424
H 13.8888 7.99598 4.12406
H 14.8231 8.88589 5.2997
C 11.3851 8.19508 5.94055
H 10.7362 7.68637 5.23364
H 10.8605 8.49937 6.84323
H 11.6531 9.1108 5.36365
Si 13.3836 4.19204 6.5789
O 12.8298 3.60817 8.12676
C 15.2044 4.27295 6.60271
H 15.7452 3.42392 6.11737
H 15.647 5.19074 6.21755
H 15.5267 4.32986 7.65425
C 12.8816 3.0707 5.16031
H 12.4481 2.17759 5.81606
H 11.9371 3.37479 4.73113
H 13.7562 2.87957 4.52225
Si 11.8332 2.69328 9.21552
O 10.8563 1.90111 8.17233
C 10.8214 3.75896 10.5145
H 11.5397 4.55675 10.769
H 10.0391 4.23917 9.87079
H 10.3734 3.40032 11.4644
C 12.4683 17.697 9.99022
H 13.7392 17.6709 10.2821
H 8.80786 17.1308 13.8759
H 13.1914 16.4852 9.01092
Si 9.15673 2.35935 7.86937
C 10.0419 4.26196 5.99835
H 10.5353 3.25542 5.82177
H 9.68815 4.62802 5.02961
C 14.601 11.7515 7.36569
H 14.791 12.0718 6.32905
H 14.624 12.6064 8.04064
H 13.6155 11.2026 7.55006
Si 2.79101 8.64361 6.60496
O 3.8156 7.59493 7.3586
C 18.2708 11.8515 7.85082
H 18.4314 12.5549 8.69789
H 18.7017 10.8703 8.11952
H 17.1749 11.8777 7.98345
C 2.92285 9.8981 15.3369
H 2.22532 10.7851 15.4809
H 7.1163 11.4139 7.21647
H 8.67107 14.5081 5.10502
Si 4.10069 7.39212 9.08269
O 3.83089 5.53937 12.3875
C 19.0711 3.56409 5.07228
H 2.06142 3.00128 11.56
H 19.3091 3.95596 15.1582
H 20.0707 16.7826 14.2369
C 3.50685 5.64563 9.39082
H 18.7436 3.5129 17.2274
H 11.1212 10.833 6.7492
H 11.9757 16.1364 5.75761
Si 2.32829 6.38047 12.7348
O 3.13994 8.13333 10.0995
C 3.08332 7.99192 13.6219
H 4.01861 8.13757 13.1782
H 2.28025 16.6298 16.4344
H 1.76261 7.95864 15.2878
C 12.3981 16.3267 4.86836
H 11.7086 17.0833 4.48846
H 13.337 16.6614 5.30105
H 12.793 15.452 4.33545
Si 4.09335 4.76755 11.0188
O 17.2118 17.5818 7.11427
C 5.84928 7.28492 9.57513
H 18.6313 3.97981 9.69687
H 17.3663 14.8968 7.91109
H 16.5238 9.68236 6.48947
C 8.31474 1.38448 3.3833
H 9.15125 17.3933 3.67352
H 14.0774 6.4126 1.77876
H 2.37638 4.90558 7.68985
Si 17.1601 1.39668 8.88013
O 18.7094 2.0155 8.92469
C 16.0902 2.99404 9.59232
H 16.0965 3.0415 10.8219
H 16.1241 4.10311 9.32247
H 14.979 2.90923 9.28031
C 16.9014 15.9378 9.75331
H 17.6896 15.3837 9.34023
H 2.8968 1.84381 9.90237
H 19.3756 11.9816 1.58141
Si 18.7828 1.83751 7.01397
C 9.42325 16.4415 6.4451
H 11.8247 17.6374 10.8825
H 1.86691 17.6706 6.65041
H 13.1951 12.2469 9.84314
C 16.298 3.82088 1.89986
H 2.66222 12.2074 6.87019
H 16.6233 3.20873 4.84547
H 17.3679 3.76439 2.19737
Si 19.3946 13.9198 11.5524
O 19.7524 15.2388 12.7003
C 17.423 13.6759 11.7782
H 11.2254 15.3072 9.28189
H 19.9172 3.72578 3.02974
H 18.4553 12.048 15.3556
C 16.9302 12.723 10.821
H 16.1324 12.0012 10.7482
H 13.3976 14.8291 9.03705
H 17.5169 12.8073 9.93369
Si 2.50418 15.6792 13.5259
O 3.32104 14.3708 13.9158
C 2.70219 17.3358 15.7506
H 3.74342 17.5499 15.7585
H 5.91823 6.62519 10.4571
H 20.1949 2.68378 16.8604
C 3.46965 16.8038 12.3312
H 19.4552 12.0905 13.882
H 4.33698 16.3497 11.7865
H 2.93022 17.3363 11.5877
Si 4.74743 13.8452 14.9309
O 4.31969 12.253 14.882
C 5.25737 14.8952 16.2834
H 6.16125 14.3617 16.6622
H 5.74204 15.8257 15.5229
H 4.67256 15.4491 17.0976
C 6.00897 14.0861 13.3976
H 5.8916 13.0736 12.912
H 5.48418 14.638 12.633
H 7.07157 14.4183 13.7632
Si 3.96735 10.8242 13.9567
O 2.74466 11.3223 13.0889
C 2.51954 8.50899 14.8329
H 17.4108 6.50821 9.767
H 3.34549 9.38057 16.3535
H 18.9997 9.28097 13.6273
C 19.7417 6.12047 11.5882
H 19.9253 5.12887 11.1394
H 15.2754 2.17978 12.9692
H 19.9863 6.94086 10.89
Si 5.87708 3.79286 1.48
O 5.63664 3.9922 17.0967
C 19.0604 4.09995 3.87515
H 2.70745 11.5287 12.1724
H 10.0167 13.5061 12.3292
H 12.5241 12.2624 10.2186
C 4.13273 4.13545 14.9109
H 3.9387 3.50873 14.014
H 3.7685 3.51854 15.7414
H 3.61788 5.06859 14.9771
Si 6.04311 4.19573 15.5178
C 7.1442 2.56281 15.1233
H 7.55321 2.39681 16.1191
H 6.48945 1.71735 14.9262
H 7.8729 2.57935 14.2845
C 6.82344 5.84577 15.1216
H 6.08527 6.49207 14.6716
H 7.52408 5.58267 14.3359
Si 8.29989 1.59382 11.1247
O 9.78766 16.8721 11.2062
C 8.11234 2.21935 9.40932
H 7.14107 2.4906 9.02387
H 6.41396 15.4228 6.33685
H 3.71514 17.5551 18.1537
C 2.65553 5.00946 8.72124
H 8.63269 13.9927 8.92881
H 15.2851 17.5643 1.97407
H 15.9957 3.28254 2.80643
Si 10.6371 15.5913 11.3707
O 11.5963 15.7951 12.7781
C 5.19601 2.0314 2.10572
H 8.20467 17.2301 2.64201
H 5.64649 16.9704 13.1653
H 9.37052 5.31577 2.09484
C 9.84237 13.9956 11.4024
H 6.46019 6.83761 8.79229
H 5.98956 9.21466 1.77845
H 2.94786 17.4182 9.46793
Si 11.0954 15.7726 14.3571
O 11.1486 14.1258 14.9308
C 9.3326 16.1666 14.554
H 9.03363 16.5176 15.5864
H 3.94671 17.5004 3.22942
H 8.41465 15.3605 14.4305
C 12.3955 16.8062 15.3832
H 12.4679 1.58392 15.2692
H 12.6398 16.0434 16.1727
H 13.3481 16.7611 14.7606
Si 11.5769 12.8889 15.9344
O 10.4752 11.5819 15.4475
C 3.4674 15.1304 7.12434
H 15.3394 11.0529 7.49784
H 10.6511 4.99898 6.51231
H 2.14675 12.0713 6.31899
C 13.4044 12.6993 15.6122
H 13.539 13.0989 14.5989
H 13.837 13.4946 16.2643
Si 9.12594 11.0531 14.807
O 8.60993 9.47598 15.1501
C 8.80912 11.4246 13.0547
H 9.672 11.6901 12.4409
H 8.43227 10.4401 12.6553
H 7.94361 12.1065 12.8493
C 6.75456 11.7147 16.5146
H 7.25395 10.8984 17.1662
H 7.78444 4.70137 4.29795
H 5.65352 11.2527 16.408
Si 7.94641 7.92864 14.3141
C 7.72127 6.92807 15.9639
H 7.07909 7.51072 16.6236
H 8.65173 6.64392 16.4442
C 6.34296 8.15546 13.3811
H 5.94467 7.19318 13.1179
H 5.71025 8.70705 14.0722
H 6.30355 8.71096 12.4555
Si 16.6279 15.5075 11.4341
O 17.467 16.5855 12.463
C 20.2563 16.6628 7.14153
H 18.8178 4.40353 10.191
H 1.832 12.9138 16.1391
H 18.9704 17.0051 3.38875
C 14.9288 15.3979 12.1055
H 14.1777 16.2484 11.9325
H 14.6615 14.265 11.8612
H 15.2047 15.4103 13.2607
Si 18.294 15.8852 13.6249
O 17.2099 14.8546 14.4043
C 4.19135 17.5493 2.19546
H 2.92741 4.01118 4.94698
H 4.67926 8.85674 1.94427
H 18.5517 2.755 14.7962
C 19.602 2.58346 14.8991
H 7.96207 16.5744 3.76767
H 8.78982 13.9658 11.3702
H 7.96828 4.97812 3.68618
Si 17.1363 13.1044 13.6948
O 15.6696 12.3454 13.8152
C 18.4581 11.9028 14.2409
H 20.0675 15.7427 1.79397
H 17.3467 15.1786 6.34392
H 18.2261 11.0083 13.6763
C 14.9955 16.4181 18.0544
H 14.6404 15.5112 1.52833
H 1.90027 15.8054 1.61297
H 15.7765 16.7343 1.91739
Si 14.9679 10.9383 14.3776
O 15.7014 9.53503 14.2435
C 14.0456 11.3438 15.9201
H 13.3104 10.6025 16.1502
H 14.7626 11.1458 16.6933
C 13.8197 10.7784 12.8964
H 13.2066 11.6323 12.5359
H 14.1768 10.1194 12.0517
H 13.0569 10.0764 13.2967
Si 17.0275 8.72404 14.7406
O 16.2377 7.28497 15.3356
C 17.612 7.01299 8.7689
H 16.6616 7.51339 8.52018
H 1.75149 4.46324 9.24409
H 18.3339 7.87082 8.84213
C 18.1655 8.62883 13.3812
H 17.8051 8.94482 12.298
H 16.3783 12.0458 16.3424
H 18.6306 7.61845 13.1269
Si 16.5539 6.17284 14.0439
C 13.6939 4.04407 12.6746
H 14.6647 4.0349 12.1093
H 12.894 3.35513 12.3242
H 13.2659 5.03679 12.5893
C 15.7158 6.57548 12.3396
H 15.5434 7.68072 12.2762
H 16.319 6.35169 11.4337
H 14.8656 5.99469 12.2344
523
 Atoms. Timestep: 8000
Si 16.1126 13.4387 4.48627
O 17.7973 14.0401 4.56875
C 4.96201 3.19927 4.82232
H 5.32373 4.19474 4.3249
H 5.37021 2.13426 4.31894
H 3.44111 8.68609 11.5112
C 19.5039 12.5202 9.54481
H 19.5065 13.5964 9.69119
H 3.05821 13.9153 2.4583
H 5.34576 16.6481 12.2793
Si 19.4589 13.8978 5.22734
O 20.1341 12.8941 3.69647
C 18.1063 12.3771 2.19562
H 11.2271 13.3789 6.78317
H 8.20967 16.9577 7.60346
H 6.83932 12.377 2.72681
C 18.6554 12.3998 17.6893
H 7.80053 1.51114 8.8899
H 19.3559 12.1431 8.55256
H 17.7163 10.6624 11.1583
Si 19.6765 7.66127 5.44539
O 4.27788 8.14662 18.0308
C 8.04137 12.1051 14.8647
H 4.7774 7.45373 17.3945
H 20.2529 11.9053 10.1656
H 18.9457 14.8006 15.9106
C 2.81622 17.2313 7.1058
H 10.1435 6.21392 8.80727
H 10.0388 17.4756 6.77614
H 18.1798 9.7674 8.51763
Si 19.9253 11.3453 4.77354
O 18.9212 12.0888 5.9007
C 4.70987 4.92514 1.88559
H 10.0865 13.6568 10.6592
H 7.95655 2.63722 2.6855
H 9.27879 3.40968 16.5816
C 19.2081 1.58307 14.7463
H 5.42239 3.36434 5.92432
H 13.0061 15.6054 8.00169
H 15.6296 1.54275 10.6879
Si 18.7029 9.52377 6.39548
O 5.38919 8.50994 3.09428
C 18.4002 15.8393 16.2438
H 5.1334 7.83443 6.0068
H 19.7454 12.6543 17.5168
H 18.1982 11.0692 8.80049
C 2.39774 6.94625 4.61424
H 4.73176 4.01463 2.53614
H 17.39 9.22189 5.69228
H 19.1789 4.41638 6.56938
Si 4.36933 7.3842 2.3522
C 3.6243 6.92757 4.60202
H 18.2822 4.6399 1.82064
H 19.058 10.8966 12.6618
H 18.9596 13.1311 2.56948
C 1.94109 16.1674 6.43103
H 14.9791 3.9466 3.82315
H 15.5405 10.088 5.40182
H 3.22931 15.221 9.81935
Si 8.20572 13.4746 16.3376
O 8.37347 12.9138 17.7556
C 15.0121 14.9811 4.29873
H 3.18953 10.8222 16.5673
H 2.5713 2.05824 17.4242
H 15.1539 14.9851 1.56017
C 2.86398 15.8514 7.32159
H 3.4121 13.6758 7.68817
H 16.7981 11.901 16.7717
H 2.6126 14.8165 9.9922
Si 10.0071 12.3854 1.46783
O 10.1745 10.5495 18.2447
C 10.1729 12.3274 3.30495
H 11.1064 12.0905 3.83093
H 9.86668 13.3595 3.44034
H 9.5808 11.48 3.65869
C 11.5562 12.9997 17.757
H 12.1142 14.0595 18.041
H 4.9128 4.95967 7.60247
H 6.65158 15.7093 10.0757
Si 9.22291 9.47363 17.5369
O 10.2987 7.9896 17.8921
C 8.173 9.19451 1.85932
H 7.84849 10.5026 1.72445
H 3.54807 5.12656 16.4479
H 10.8016 3.30352 17.8751
C 10.3184 10.9208 6.80864
H 9.99446 11.3639 7.71809
H 9.93196 11.5268 5.94441
H 11.3989 11.01 6.74233
Si 11.5938 6.99915 17.9476
O 11.2326 5.62049 17.1482
C 11.4661 4.21934 3.6288
H 11.5273 5.37604 3.6487
H 10.4733 3.77473 3.7028
H 12.166 3.74938 4.18427
C 13.1335 7.87575 17.3947
H 12.942 7.82326 16.2429
H 17.1483 9.32386 16.1635
Si 10.861 4.68272 15.9692
O 9.99885 5.73294 15.0197
C 10.3295 3.16073 16.8373
H 12.1556 4.49277 15.1851
H 8.05895 16.0945 17.8431
H 10.7159 2.23454 16.2853
C 8.53984 17.0025 5.38663
H 1.74949 5.55574 11.2771
H 6.26888 12.8443 2.97611
H 14.0871 16.0917 18.3837
Si 9.53806 6.96123 14.0158
C 8.65679 6.72175 12.154
H 7.60142 6.35554 12.1711
H 8.68746 7.79047 11.9087
H 9.27855 6.0228 11.6301
C 11.3218 7.39747 13.2739
H 11.1559 7.87702 12.3183
H 11.9406 8.07067 13.8676
H 11.7957 6.39919 13.0528
Si 16.1059 12.1211 2.48461
O 16.1855 10.6024 3.1576
C 14.5446 11.8692 18.5251
H 14.1162 10.8861 1.63688
H 13.8148 12.5953 1.93776
H 20.244 6.18861 17.3752
C 17.8208 12.0699 16.5279
H 17.9803 5.96236 9.50063
H 18.9465 11.0442 13.3761
H 19.1591 16.6115 3.73885
Si 17.6456 9.84775 3.03458
O 17.6105 8.40136 3.92077
C 18.3581 10.4868 7.72279
H 6.66658 8.52141 8.67159
H 2.8348 16.4911 2.48582
H 5.35549 3.40785 11.4448
C 17.9606 8.777 1.5389
H 17.3803 8.00792 18.1962
H 17.2313 9.59378 18.255
H 18.8694 8.89229 17.9358
Si 17.6022 7.14315 4.98279
O 17.3916 5.92798 3.91851
C 18.9619 11.2971 2.71573
H 15.8068 7.71646 17.6284
H 1.96917 5.71245 4.25398
H 7.5277 3.5423 9.4325
C 17.9819 16.7367 3.96434
H 18.1202 17.2419 5.05861
H 17.3929 15.8508 4.00358
H 17.5846 17.0966 2.99433
Si 16.4134 4.17626 3.03817
O 15.4126 4.95487 1.84446
C 14.8606 7.16522 17.3245
H 13.9606 14.6182 4.66541
H 14.506 7.45107 16.2525
C 18.3286 5.67429 15.8561
H 19.2412 5.30766 15.4118
H 18.3282 4.98983 16.7098
H 18.6044 6.73451 16.1828
Si 14.9511 5.36228 17.5542
O 15.6993 4.57511 16.1004
C 14.0852 2.52873 17.1636
H 13.0463 2.6962 17.058
H 8.37727 12.4707 13.8932
H 14.1911 2.16121 18.1564
C 1.74351 1.88129 14.7502
H 5.15487 4.71945 6.9583
H 4.09899 5.55386 2.7895
H 14.5059 12.2004 17.4423
Si 15.1262 2.95817 15.7741
C 16.7299 2.32705 15.2307
H 12.198 12.0511 17.955
H 16.9967 3.44198 15.3383
H 17.6747 1.74156 15.5127
C 4.36597 7.04039 5.72439
H 5.78378 5.27638 2.18768
H 8.4025 15.5749 18.3627
H 17.2173 7.50706 6.35384
Si 7.57118 15.5691 5.04619
O 6.05582 15.5698 6.03947
C 8.80908 14.4005 5.68632
H 5.48199 16.8376 8.12309
H 9.35265 14.745 6.58548
H 8.50592 13.3985 5.97059
C 4.61683 3.78892 10.6838
H 9.05065 17.1906 4.53124
H 2.65669 17.6158 9.9813
H 4.24144 3.11719 9.95806
Si 5.30131 15.3951 7.58477
O 6.04572 14.3052 8.45717
C 4.1839 10.6014 16.9022
H 4.56317 11.485 17.053
H 19.6312 11.1178 2.10195
H 4.4461 10.347 18.0326
C 2.842 17.2792 3.25313
H 2.37286 16.8774 4.38813
H 20.1277 1.5405 3.31432
H 3.5899 1.52179 3.91104
Si 6.12821 12.6213 8.6187
O 6.16019 11.6834 7.06696
C 4.82405 12.2006 10.0381
H 4.31073 11.2639 9.79174
H 5.37567 12.0451 10.9687
H 4.1086 13.0221 10.1074
C 7.70659 12.2828 9.41716
H 7.61369 11.4694 10.189
H 8.36905 11.849 8.60464
H 8.21947 13.0401 10.0479
Si 6.34523 10.744 5.74699
O 6.59062 9.19937 6.36976
C 4.46491 10.2448 4.77998
H 4.97402 9.00261 3.96185
H 3.73887 10.6469 5.50394
H 5.23897 11.0184 4.47735
C 4.1594 13.4421 4.7132
H 3.44677 12.7421 5.20661
H 4.48245 13.2602 3.69948
H 5.18544 13.3998 5.13556
Si 7.68957 7.88512 5.99202
O 8.58917 7.43137 7.22378
C 6.8115 6.26238 5.27094
H 6.09832 5.67071 5.90065
H 6.23409 6.80991 4.52851
H 7.4283 5.5047 4.76976
C 8.6319 8.4818 4.54525
H 7.95836 8.2286 3.66616
H 8.59798 9.56842 4.37276
H 9.63932 8.07575 4.52282
Si 8.84946 5.95665 7.85233
C 7.36042 5.54041 8.76386
H 6.62961 6.40883 8.73655
H 6.90192 4.55425 8.41642
H 7.52525 5.25667 9.82128
C 8.81818 4.50402 6.55236
H 7.80401 4.27433 6.19112
H 16.6793 17.4061 5.69042
Si 11.5591 10.7843 9.74852
O 12.6236 10.091 8.76865
C 11.7532 14.124 6.24617
H 11.6077 15.1698 6.61729
H 12.7888 14.0378 6.21386
H 11.424 14.125 5.18217
C 9.97108 9.61634 9.62249
H 10.2193 8.5358 9.54564
H 9.13151 9.67188 10.3281
H 9.51546 9.8113 8.65857
Si 13.8672 8.94039 8.9659
O 13.9321 8.23434 7.49575
C 15.4503 9.82671 9.20191
H 15.3636 10.9072 8.88127
H 15.7159 9.73022 10.2753
H 16.337 9.56955 8.54306
C 13.5267 7.63351 10.2822
H 13.0498 6.70044 9.95107
H 14.4738 7.47768 10.8541
H 12.8447 8.07873 11.053
Si 13.4047 7.30909 6.19197
O 13.226 5.64799 6.72212
C 14.591 7.2187 4.69257
H 13.9877 7.62992 3.88325
H 15.4426 7.85897 4.88548
H 15.1383 6.27425 4.58628
C 11.8895 7.90658 5.49202
H 11.8242 7.35692 4.5543
H 10.9732 7.65844 6.07972
H 11.6721 8.96575 5.31644
Si 13.8291 4.49211 7.68949
O 12.9854 4.21297 9.11843
C 15.5479 5.14107 7.99278
H 15.8322 5.54798 7.01801
H 15.7318 5.75949 8.88421
H 16.1954 4.19472 8.07087
C 14.1248 3.00356 6.6712
H 14.6318 2.20888 7.22889
H 13.2966 2.38576 6.36587
H 14.6729 3.07906 5.72545
Si 11.7292 3.28991 9.84695
O 10.808 2.86631 8.56105
C 11.0431 4.40905 11.0777
H 10.3593 4.85672 10.3788
H 10.6884 4.00421 12.0525
H 11.9479 5.07084 10.9675
C 11.6151 16.1907 10.1813
H 11.6366 16.9184 9.38994
H 9.26571 17.5702 16.0901
H 11.0131 15.5231 9.60594
Si 9.16842 2.91212 7.64775
C 9.72131 4.43435 5.32985
H 9.45921 3.46878 4.9056
H 9.5821 5.20412 4.57478
C 12.8737 11.1764 4.75452
H 13.3957 10.4329 5.35492
H 12.834 12.2081 5.12595
H 13.2706 11.3856 3.7096
Si 2.54044 7.82362 7.14305
O 3.39281 9.07083 7.98467
C 15.7551 12.512 6.07525
H 16.7679 12.0489 6.306
H 15.0509 11.801 5.47522
H 15.186 13.082 6.92404
C 2.15043 10.1736 14.7729
H 2.91867 10.3541 2.35525
H 7.4023 11.5761 4.91615
H 3.88194 14.5408 4.71141
Si 4.14886 8.30207 9.18051
O 4.74439 6.61809 11.8921
C 1.6304 3.4127 7.26031
H 1.63447 2.94703 14.7717
H 2.58237 10.0625 2.87978
H 17.0641 3.26688 3.98843
C 3.77176 6.62418 9.24894
H 18.5865 2.72576 2.28361
H 9.96463 9.88922 6.76956
H 11.3038 15.8928 4.35435
Si 3.31462 6.78569 12.6977
O 3.6503 9.14491 10.6589
C 3.3513 8.24218 13.6093
H 4.26091 8.96787 13.3677
H 17.6591 16.6798 18.3594
H 1.89803 8.43096 15.5556
C 11.4379 16.0809 3.28354
H 12.2581 16.7894 3.41256
H 11.9902 15.3343 2.75862
H 10.696 16.2765 2.52708
Si 4.19276 5.41839 10.7518
O 17.889 16.6176 7.28953
C 6.01823 8.81073 9.44937
H 1.94483 17.6592 13.7382
H 15.1983 15.5065 5.25216
H 15.8635 9.37415 5.28722
C 7.7264 2.50587 1.72206
H 6.66734 3.15324 18.4881
H 13.1017 8.94965 17.8413
H 20.2777 4.12204 5.26731
Si 17.4599 1.4139 9.11755
O 18.4729 16.2602 9.64102
C 17.8032 3.25208 10.5527
H 18.9532 3.27039 10.3006
H 17.3518 3.86362 9.77002
H 17.082 2.92355 11.1189
C 15.7828 16.8415 10.3033
H 15.1284 16.7684 9.51794
H 3.70028 17.1887 6.8355
H 7.13969 1.79729 1.70831
Si 18.6357 15.4464 8.10829
C 8.97738 17.3728 6.81545
H 12.3087 15.4188 10.028
H 1.85746 2.41136 6.53937
H 14.1302 14.0925 10.8789
C 17.6638 3.63322 1.69334
H 17.4779 10.6324 7.44406
H 13.0525 2.25166 10.3764
H 17.1608 3.86499 17.8915
Si 18.0153 11.8615 10.3277
O 20.1291 15.9855 12.7281
C 16.6809 14.1283 10.9487
H 6.15738 16.2024 10.2172
H 14.9555 16.1787 7.88087
H 3.7679 15.207 1.68234
C 16.4453 13.1708 9.97228
H 15.6433 12.4102 10.1645
H 13.4325 15.8204 8.61328
H 15.8111 13.4542 8.98582
Si 2.70314 16.3263 12.0943
O 3.76118 15.006 11.7816
C 18.2696 15.8439 17.8248
H 17.3291 15.2107 17.8853
H 6.32752 9.84959 9.69575
H 3.74905 10.3355 3.74141
C 2.34034 17.6366 10.9175
H 2.22569 14.1343 18.2332
H 16.8272 16.576 10.2538
H 20.163 1.78273 11.0561
Si 4.47287 14.1353 12.9953
O 3.32257 12.8394 13.5546
C 4.63213 14.9298 14.8304
H 5.6055 15.3516 14.7866
H 3.9431 15.5569 15.1042
H 4.89136 14.0381 15.4771
C 6.2071 13.766 12.3266
H 6.30356 13.0123 11.5383
H 6.0678 14.7524 11.721
H 7.02477 13.8202 13.168
Si 2.50109 11.3829 13.4801
O 2.57534 10.8317 11.9599
C 2.3244 8.86776 14.5213
H 18.94 7.18362 10.2309
H 19.9926 10.6094 15.1703
H 16.9136 7.98463 12.6015
C 2.19009 5.53292 12.4118
H 20.2626 5.96867 13.1905
H 17.099 2.22661 13.887
H 2.60412 4.66588 13.0095
Si 3.69149 4.21092 17.5915
O 5.10101 3.78278 16.738
C 20.3356 4.32467 6.23431
H 2.86078 11.3932 11.2129
H 11.1051 13.5503 12.1356
H 13.7864 14.0752 10.1941
C 4.15114 3.99657 14.1442
H 3.18559 4.2603 14.5822
H 4.40248 4.47197 13.1404
H 4.22133 2.93328 14.2354
Si 5.49773 4.47085 15.2699
C 7.14874 3.48806 14.6154
H 6.78197 2.57641 14.0539
H 7.60484 3.90837 13.7607
H 7.94228 3.18644 15.3437
C 5.72879 6.35306 15.3656
H 4.70445 6.74495 15.6168
H 5.8837 6.42364 14.2414
Si 7.75401 1.47138 11.8382
O 9.16842 16.8307 11.8944
C 8.18578 2.60077 9.11352
H 8.75598 2.30693 10.1968
H 7.47252 15.7661 3.52619
H 2.09917 3.96968 17.5476
C 3.04965 6.11274 8.20338
H 9.42302 14.0117 4.80394
H 8.413 1.93515 18.2209
H 13.533 4.73226 17.395
Si 10.5232 15.8818 11.7204
O 11.3505 15.957 13.147
C 2.91849 2.54797 18.2651
H 6.89974 14.2187 16.7481
H 5.01253 17.4768 12.5189
H 12.1678 4.13363 2.68995
C 10.2582 13.9973 11.6896
H 6.47926 8.33339 10.4293
H 5.01774 10.104 16.7621
H 2.59491 1.83887 7.90381
Si 10.8163 15.8976 14.7813
O 10.675 14.117 15.0818
C 9.09294 16.8487 15.0576
H 8.32951 16.2517 15.0613
H 3.57206 5.71043 7.4317
H 8.8799 17.4709 14.1088
C 12.212 16.7344 15.7931
H 12.2011 1.53271 15.2868
H 12.4231 17.5695 12.6786
H 12.0109 17.1847 16.78
Si 11.66 12.8429 15.8416
O 10.9017 11.5095 15.1697
C 3.84256 14.6271 7.62046
H 11.8925 10.7813 4.5985
H 10.6179 4.48222 5.94493
H 15.152 16.2862 7.07603
C 13.3635 12.7586 15.0122
H 13.1634 13.0575 13.9842
H 14.0662 13.5264 15.3592
Si 9.52279 10.9748 14.3051
O 8.79233 9.63751 15.8402
C 9.96928 9.96017 12.7495
H 9.31689 10.4452 12.0274
H 11.0026 10.2372 12.7056
H 9.80247 8.9078 12.979
C 6.62013 11.8087 14.9835
H 5.6559 12.3198 14.6754
H 8.56633 6.22537 2.59244
H 6.33595 10.82 15.4807
Si 7.70416 8.31013 15.0621
C 6.87822 6.94423 16.2419
H 6.64532 7.28422 17.2571
H 7.59912 6.14923 16.335
C 6.8783 8.90626 13.3583
H 5.98744 9.43841 13.6254
H 7.45246 9.62681 12.7946
H 6.64102 7.98986 12.8501
Si 16.0749 15.7641 11.7679
O 17.4436 16.1955 12.6199
C 20.039 15.3577 5.69176
H 18.3386 2.05268 14.388
H 18.9939 8.70967 4.82099
H 1.68153 5.74348 16.7953
C 14.8702 15.382 13.1872
H 15.2355 14.3259 13.0016
H 15.6695 15.6078 13.888
H 13.7753 15.609 13.3138
Si 18.6928 15.3588 13.3112
O 18.7702 13.6478 13.281
C 2.18324 2.03194 2.41634
H 3.69567 3.27757 4.79943
H 7.89515 8.19128 1.974
H 17.4791 16.3831 15.8311
C 18.9277 16.533 15.0029
H 12.8855 16.0996 15.8483
H 9.29596 13.7178 12.0925
H 8.56826 6.08454 3.40912
Si 17.3062 13.0858 12.3741
O 16.1314 11.9905 12.8774
C 3.2597 14.2235 1.50869
H 19.1418 15.4842 18.2144
H 14.9312 15.63 3.47058
H 3.79701 13.5977 18.1221
C 15.0584 15.8501 17.9426
H 14.5492 15.7672 16.9394
H 1.79527 3.6636 8.36192
H 15.3254 16.7764 18.3059
Si 14.8605 11.0028 13.5523
O 15.4239 9.61775 14.212
C 13.7404 11.2549 14.9713
H 12.7924 10.8634 14.5561
H 13.861 10.7128 15.8725
C 13.9072 10.5002 11.9496
H 12.818 10.5155 12.2063
H 14.1578 11.2673 11.1839
H 14.0432 9.45645 11.493
Si 16.7957 8.80373 14.6964
O 16.2336 7.19904 15.0726
C 18.0757 6.9947 9.61294
H 17.2237 7.59458 9.86345
H 1.86672 5.70758 7.96058
H 18.2873 7.38627 8.5146
C 17.6764 8.55272 13.1312
H 18.7199 8.15704 13.056
H 18.2141 12.2404 15.5814
H 17.6154 9.37594 12.4115
Si 16.6976 5.59623 14.9232
C 13.8639 3.0582 14.2255
H 14.0664 2.0394 13.8382
H 12.7405 3.05359 14.2355
H 14.1567 3.6433 13.3159
C 16.7137 5.15013 13.0577
H 15.7107 4.84277 12.7939
H 17.0841 5.93693 12.4046
H 17.3815 4.35554 12.8581
523
 Atoms. Timestep: 8500
Si 16.248 14.2168 5.0085
O 17.5442 15.3618 5.35866
C 4.50167 3.33778 6.00318
H 4.66003 4.42318 5.58694
H 5.17797 3.02594 6.85707
H 2.01071 9.59541 9.80933
C 18.0177 11.7048 9.62158
H 18.2476 12.7286 9.08434
H 8.75303 16.8455 16.812
H 3.94447 1.56089 10.6065
Si 18.9556 14.9768 6.17749
O 1.61261 14.6305 5.09455
C 18.5245 13.5653 2.61248
H 10.7859 12.9254 4.53756
H 7.36535 17.4504 8.30897
H 2.39303 16.5415 14.0228
C 19.2889 11.9287 15.8578
H 7.254 5.14663 10.6028
H 17.688 11.0336 8.83967
H 16.3059 10.4158 11.1661
Si 20.2832 6.87916 2.81677
O 2.97453 7.37161 1.84294
C 7.26924 11.2629 14.5752
H 6.13544 10.4078 1.89436
H 18.9882 11.5813 10.2489
H 19.5141 15.6065 14.9951
C 3.0352 16.4785 8.42018
H 10.3088 7.53731 7.98433
H 9.64424 17.3198 9.48821
H 2.09384 11.0879 6.12261
Si 20.314 12.7223 2.21947
O 19.31 13.4911 6.84832
C 7.37318 3.59873 4.17859
H 8.56022 13.9056 10.7359
H 10.9065 4.77996 3.43966
H 8.12452 3.85167 17.8259
C 19.713 17.4246 13.4349
H 3.68191 3.27677 6.67235
H 14.6483 16.0656 7.71894
H 17.1408 15.1567 7.86244
Si 1.64605 13.0035 5.20163
O 2.4284 9.81156 2.47739
C 17.9565 16.4999 15.9022
H 5.17097 6.17032 4.79072
H 18.6262 11.5206 14.742
H 19.9399 10.6096 6.15504
C 2.50544 6.04442 4.25037
H 7.05035 2.43751 4.60909
H 20.2348 10.2866 2.16256
H 2.61876 2.52321 7.52196
Si 3.78002 8.6046 2.74724
C 3.73422 7.2052 4.42489
H 2.58507 5.04739 3.58549
H 17.1321 11.9296 12.4804
H 20.1791 11.3769 16.0041
C 1.70422 16.818 8.01635
H 17.4332 4.32287 2.494
H 12.4128 10.7061 5.35846
H 2.6404 13.6381 9.35108
Si 7.07257 12.6108 15.7641
O 8.0991 13.0039 16.9081
C 14.4382 15.142 5.02585
H 4.81765 11.5896 3.03644
H 19.3772 2.8747 16.8957
H 14.1 14.5453 15.6556
C 4.12968 15.3245 7.59576
H 9.46252 2.07651 6.08636
H 19.2651 13.0545 17.5272
H 3.08216 13.1081 8.88619
Si 8.79934 11.8982 18.0409
O 8.18594 10.2909 17.9129
C 8.41482 12.2934 2.54766
H 8.85564 13.2145 2.51249
H 7.35552 12.2149 2.95417
H 8.96254 11.8357 3.45929
C 10.5463 11.9087 17.3806
H 11.4231 12.6233 17.7238
H 8.56611 1.89896 12.7749
H 9.87833 12.236 6.66666
Si 8.63282 9.00057 17.457
O 10.2625 8.7274 17.6817
C 7.53705 7.36369 17.8174
H 3.24281 10.6298 2.81471
H 19.6757 4.92882 16.0357
H 9.38726 3.025 1.59002
C 12.3871 12.6338 8.06702
H 13.4765 12.5979 8.30224
H 12.0628 11.5825 7.89321
H 11.9334 12.9784 8.98305
Si 11.3166 7.35815 18.0466
O 10.8507 5.78248 17.5388
C 11.722 16.4553 2.24929
H 11.028 16.8271 2.97567
H 12.8171 16.7843 2.39895
H 11.366 16.8344 18.3567
C 12.722 7.49653 16.8971
H 12.1394 8.17194 15.9279
H 15.9834 8.09442 16.6656
Si 10.4316 4.37131 16.8975
O 10.0956 5.01076 15.271
C 9.13029 3.41286 17.7209
H 11.7149 3.7077 16.4595
H 4.71683 15.7507 5.15139
H 8.87995 2.74494 16.8095
C 9.83659 17.4707 8.19282
H 20.088 8.2682 13.0269
H 1.84434 16.927 13.4167
H 15.6134 14.3844 16.0878
Si 9.40528 6.15854 14.1142
C 8.22042 5.49511 12.9144
H 7.27293 5.19977 13.2974
H 8.1221 6.19349 12.0724
H 8.49145 4.56314 12.3905
C 10.9508 6.97726 13.3016
H 10.9072 6.5474 12.249
H 11.0436 8.0725 13.411
H 11.8905 6.48934 13.6782
Si 16.7212 13.1304 3.21641
O 17.0534 11.4182 3.47057
C 15.2685 12.8063 1.84193
H 14.8069 13.7174 1.60921
H 15.7913 12.1396 18.0877
H 1.83643 5.55253 8.30877
C 18.8614 12.9406 16.6016
H 18.1291 6.34161 6.99942
H 2.46572 12.1431 12.9168
H 16.4594 17.4788 3.5778
Si 18.0809 10.2404 3.21742
O 17.9651 9.08458 4.35601
C 20.2928 10.8679 5.13021
H 6.38472 8.41505 10.1287
H 4.12207 1.75752 16.867
H 4.54089 3.10638 11.7247
C 18.2337 9.82501 18.5118
H 18.1219 10.7473 17.9052
H 19.3889 9.74542 18.2518
H 17.1674 9.53315 18.3489
Si 18.2939 7.43284 4.16777
O 17.3895 6.86949 3.05388
C 18.5028 14.8033 2.23465
H 14.2185 6.5761 15.772
H 2.41883 5.6802 5.44523
H 6.83052 3.36611 10.2697
C 17.2146 1.65929 3.04771
H 18.2958 4.57144 4.62777
H 17.1416 1.52724 1.94822
H 17.8369 17.1433 3.23575
Si 17.4242 5.64655 1.82231
O 15.969 5.71091 17.8741
C 13.4497 6.17031 16.3165
H 14.3175 16.1193 4.51734
H 12.9391 5.55229 15.4222
C 17.7148 5.76931 14.5742
H 18.5986 5.03226 14.3777
H 17.6449 5.75286 15.6668
H 18.369 6.60199 14.4142
Si 14.4306 4.89059 17.3953
O 15.0207 4.79878 14.0251
C 14.5341 3.29164 16.5211
H 13.5652 2.77407 16.4922
H 6.72886 11.5725 13.664
H 15.1177 2.61115 17.2877
C 20.0346 2.0452 14.5993
H 7.85232 2.28115 12.8141
H 8.31979 3.52884 3.52196
H 14.2763 12.2452 2.11234
Si 14.9411 3.21945 14.6139
C 16.3427 2.35293 14.1238
H 11.0403 10.9398 17.6495
H 15.9802 17.4576 14.1913
H 16.0202 2.57495 12.9655
C 4.66874 6.85286 5.55743
H 6.27577 3.84542 3.72756
H 5.31436 15.4139 5.77887
H 18.7009 7.00383 5.58752
Si 9.31123 16.5404 6.61104
O 8.24497 15.3261 7.15314
C 10.7129 15.4847 5.87974
H 8.04404 15.0687 9.72524
H 11.5001 15.0402 6.53114
H 10.196 14.8336 5.10246
C 5.31141 3.91112 12.2865
H 10.7389 2.07448 8.23429
H 3.32826 15.3428 6.6295
H 6.2041 3.59259 11.9896
Si 7.10919 14.9088 8.16026
O 6.78329 13.3073 8.14151
C 5.22594 10.7041 2.24467
H 3.19166 13.9749 16.0324
H 2.23149 8.47381 18.5105
H 4.49638 8.95308 18.0908
C 3.28878 17.6313 17.8214
H 19.0592 15.5428 1.42693
H 7.69864 4.2227 4.93207
H 3.99253 16.8894 18.0746
Si 6.53317 11.6755 8.52488
O 7.38332 10.9586 7.23917
C 4.72064 11.531 8.37541
H 4.53385 10.668 7.7071
H 4.14926 11.1787 9.25454
H 4.27959 12.5429 8.12945
C 7.46144 11.2915 10.1129
H 7.88003 12.1282 10.6326
H 6.85816 10.6608 10.7403
H 8.36639 10.961 9.57671
Si 6.76103 11.023 5.63195
O 6.66501 9.34066 5.29863
C 5.57853 12.4489 5.38207
H 5.28485 7.74016 5.44983
H 4.68184 12.2139 5.91477
H 6.23063 12.7955 6.14074
C 5.33933 14.4274 2.15075
H 6.06311 13.6819 2.53417
H 4.34482 13.9492 2.36152
H 5.59113 14.5383 18.1399
Si 7.90648 8.29736 5.51093
O 7.76863 7.6775 7.04941
C 7.62998 7.04318 3.99875
H 6.71289 6.58171 3.69711
H 7.50631 7.93117 3.38804
H 8.40426 6.39006 3.63527
C 9.58227 9.26067 5.14826
H 10.3934 9.15214 5.87847
H 9.8918 9.59749 4.13577
H 9.01973 10.0817 5.54288
Si 8.79942 6.94023 8.20807
C 8.5381 7.59629 9.9974
H 9.37848 7.43698 10.792
H 8.24015 8.62058 10.0865
H 7.63368 7.08862 10.3486
C 8.60262 5.20679 7.63315
H 7.54326 5.20603 7.32839
H 17.678 2.2086 10.5038
Si 11.6545 8.76454 8.8911
O 13.0771 8.73248 8.21109
C 11.104 13.2336 3.45825
H 11.9995 13.8103 3.43062
H 11.1357 12.2957 2.92914
H 10.3847 13.9389 2.97573
C 11.8652 7.79494 10.4062
H 12.3704 8.15843 11.3089
H 10.9227 7.58065 10.9684
H 12.2761 6.80576 10.1448
Si 14.6673 8.27149 8.20506
O 14.6815 7.25933 6.97096
C 15.5494 9.6764 7.32323
H 14.6492 9.93271 6.68659
H 15.6728 10.6399 7.87172
H 16.4431 9.4942 6.59505
C 15.0678 7.35666 9.78145
H 14.2475 6.72866 10.1239
H 15.9867 6.76694 9.63922
H 15.3241 8.05887 10.599
Si 13.6492 6.52606 5.89063
O 13.8861 4.84577 5.99838
C 14.103 6.67699 4.12249
H 13.115 6.53623 3.62123
H 14.3971 7.64597 3.72569
H 14.8592 5.94948 3.85655
C 11.9794 7.32151 6.04616
H 11.568 7.20749 5.02819
H 11.4608 6.78138 6.78556
H 11.9926 8.39741 6.34698
Si 13.7973 3.82938 7.42968
O 12.5778 4.52756 8.45022
C 15.1713 3.8397 8.53718
H 15.4273 4.8567 8.26539
H 14.825 4.22138 9.55045
H 15.9241 3.02419 8.31041
C 13.1257 2.2124 6.66056
H 13.666 2.07675 5.69141
H 13.7513 1.63202 7.31034
H 12.0676 2.16953 6.41818
Si 11.5912 3.85755 9.70007
O 10.1207 4.35193 9.57145
C 12.6585 4.20335 11.2123
H 11.9987 3.55335 11.9835
H 13.7331 4.08615 11.3816
H 12.5762 5.27597 11.4535
C 12.2077 14.9844 10.0307
H 12.1932 14.9491 8.92926
H 10.1353 3.16376 14.1059
H 12.9159 14.2167 10.3593
Si 8.79753 3.92646 8.85937
C 9.44449 4.98195 6.33755
H 10.5243 4.99939 6.55926
H 9.14431 3.98871 5.91271
C 13.2016 10.3272 2.68647
H 13.2291 9.33233 3.08409
H 13.5634 10.7474 3.57989
H 13.8997 10.4127 1.92455
Si 3.80589 6.56455 7.20151
O 3.83273 8.21381 7.92496
C 16.4368 12.8117 6.5021
H 15.5285 12.5603 7.06985
H 16.9638 13.2401 7.31132
H 16.7785 11.9191 6.01897
C 3.93792 11.1662 15.4678
H 17.0448 8.06614 11.5827
H 7.97701 11.7003 4.81933
H 5.41188 15.1243 3.02416
Si 3.66676 7.9859 9.59276
O 4.03871 6.57595 12.8383
C 19.1827 2.7581 7.02288
H 1.66478 1.7854 15.5679
H 16.8701 8.56875 10.6972
H 18.9158 4.76576 5.07808
C 3.35959 6.26108 10.1748
H 19.5116 6.89635 18.2535
H 12.1323 13.1991 7.16072
H 8.49587 16.8319 3.50868
Si 3.06323 7.14899 14.0931
O 2.57453 9.02399 10.3489
C 3.20431 8.99091 14.5219
H 3.76448 9.27732 13.493
H 17.7125 1.88738 17.5235
H 3.05855 9.22935 16.5959
C 8.22912 16.3858 2.67198
H 8.92213 16.6913 1.79141
H 7.81459 15.3037 2.5738
H 7.26713 17.3118 2.64453
Si 4.48352 5.5976 11.45
O 16.7198 14.991 8.87147
C 5.28943 8.45948 10.4219
H 18.8327 2.41171 15.19
H 13.617 14.3201 4.92146
H 12.1897 10.8927 6.05251
C 11.4415 3.97541 3.94095
H 12.2785 4.421 3.55335
H 13.4282 8.13283 17.3581
H 2.72241 17.0297 4.20674
Si 18.6834 1.60464 11.3202
O 19.0998 14.8223 10.3765
C 19.6975 3.29177 11.4179
H 2.43834 3.62188 11.3021
H 18.72 3.7979 10.954
H 19.6288 3.19594 12.4607
C 15.3662 17.4036 10.3917
H 14.5302 1.40614 9.73511
H 3.75057 16.6902 4.64223
H 11.1886 2.86539 3.46383
Si 18.6343 14.8339 8.84845
C 8.64283 2.03627 8.33564
H 12.8414 15.9324 10.1495
H 18.6654 2.7908 5.98632
H 10.8448 12.1029 11.8308
C 19.5323 5.63857 1.51611
H 2.26666 10.3476 4.59538
H 7.81168 15.9718 12.6512
H 19.2931 5.08555 2.41095
Si 16.5431 11.863 10.6852
O 19.2107 14.3781 12.9691
C 15.7279 13.9248 11.3637
H 9.30954 12.7517 6.79943
H 19.7595 3.52807 7.55005
H 7.49515 1.47744 16.9746
C 15.1162 12.9652 10.2928
H 14.2705 12.236 10.7734
H 14.1008 15.7377 8.11553
H 15.1767 13.102 9.17335
Si 20.3475 14.6368 11.8263
O 3.00731 15.2129 11.6216
C 18.2509 17.333 17.0933
H 17.8356 16.5112 18.1495
H 5.12531 9.57468 10.3065
H 5.58507 12.8553 4.37538
C 3.87669 17.1244 9.46397
H 7.14456 16.3354 16.2314
H 16.3364 17.1877 9.57181
H 3.65463 15.9655 9.98303
Si 4.33383 14.634 12.3816
O 4.47864 13.4901 13.5579
C 5.13316 16.1904 13.2284
H 5.57115 16.5472 12.3625
H 4.677 17.0752 13.5987
H 6.10344 16.0786 13.8681
C 5.33983 14.0284 11.0503
H 5.91053 14.7525 10.4595
H 6.13845 13.2443 11.4493
H 4.68246 13.2535 10.728
Si 3.71462 11.9634 13.7589
O 4.59734 10.9959 12.5304
C 3.37662 9.78321 15.6893
H 17.2834 5.97645 8.54902
H 3.80209 12.0271 16.2
H 18.3102 9.31222 16.0777
C 20.2382 7.1694 13.0639
H 19.4882 6.54513 13.3999
H 17.3152 2.59567 14.0379
H 1.59857 6.54691 11.9754
Si 20.2903 4.50842 17.3076
O 3.07702 4.72581 17.0543
C 1.62491 1.95312 7.44734
H 3.75382 10.5086 12.321
H 9.44544 14.0503 9.12633
H 11.4838 12.4269 12.0909
C 5.84238 3.59248 15.7797
H 6.82984 4.08749 15.477
H 6.10134 2.70726 16.3091
H 5.31121 3.29032 14.8474
Si 4.86651 4.76018 16.936
C 5.46215 4.3256 1.55821
H 5.26192 3.19694 1.65511
H 6.35008 4.61746 2.16176
H 4.54906 4.93467 2.04786
C 5.36069 6.52799 16.6129
H 4.91686 7.40772 17.1959
H 5.12278 7.15614 15.7123
Si 10.0704 16.9842 13.2531
O 10.7402 16.4967 11.6753
C 7.34037 4.28977 9.91326
H 6.38626 4.71388 9.36858
H 8.24061 17.1022 5.70512
H 19.7443 3.13458 2.43346
C 2.8819 5.57492 8.61955
H 11.0573 16.3661 5.3025
H 11.3167 3.91005 4.94213
H 13.7708 4.47646 18.3264
Si 10.8701 14.9388 11.1663
O 11.0605 14.133 12.7041
C 20.267 2.67941 1.6942
H 6.78057 13.9673 15.4497
H 5.31309 3.96325 13.5458
H 11.3268 15.5784 2.63146
C 9.52894 13.9855 10.2468
H 5.27808 8.2478 11.5213
H 4.54686 10.1853 18.4387
H 5.14123 16.7448 7.4073
Si 9.8468 14.4684 14.0051
O 9.65317 12.962 14.3276
C 8.44742 15.603 13.4885
H 8.28257 16.0012 14.4032
H 3.41039 4.59361 8.59625
H 9.84592 2.82203 13.1739
C 10.8948 15.4245 15.2218
H 11.964 15.1733 15.3267
H 11.8844 2.45647 9.65469
H 11.0366 16.5256 15.416
Si 10.6012 11.9609 15.3633
O 10.2869 10.4944 14.5604
C 5.52363 15.9001 7.31957
H 12.1615 10.5689 2.44068
H 9.01673 5.67179 5.63613
H 17.3696 2.57283 3.23454
C 12.2119 12.4806 15.0529
H 12.2886 12.9001 14.0399
H 12.3142 13.425 15.6292
Si 8.67844 10.1178 14.411
O 8.45435 8.77934 15.5592
C 8.80088 9.79589 12.6558
H 8.91803 8.74657 12.6237
H 7.97365 10.1829 12.0624
H 9.81627 10.2296 12.5405
C 6.30299 11.0081 15.9715
H 4.94387 10.9643 15.4071
H 16.7156 3.38876 6.11415
H 6.7536 10.0784 16.0676
Si 7.73846 7.40014 14.8245
C 6.91724 6.6125 16.6931
H 6.90882 7.67621 1.53319
H 7.46726 5.63069 16.6359
C 6.53733 8.04102 13.5709
H 5.72641 8.66543 13.9076
H 6.8493 8.38278 12.5943
H 5.90854 7.14914 13.4732
Si 15.4732 15.7586 11.3054
O 17.1278 16.2232 12.0646
C 19.4241 15.8878 7.74782
H 19.8921 3.50347 14.6597
H 2.57772 13.1743 3.9564
H 3.53864 14.684 16.2011
C 14.2102 15.6619 12.8305
H 14.1131 14.579 12.9138
H 14.4919 15.9388 13.8583
H 13.2853 16.2413 12.6375
Si 17.8353 15.3616 13.1417
O 16.8445 14.1986 13.904
C 1.95191 1.67536 18.1018
H 4.4321 2.8233 4.95564
H 8.73708 6.98863 18.1376
H 17.5823 15.4935 16.1485
C 18.5784 16.3397 14.5057
H 10.3673 14.8649 16.1651
H 9.70413 12.8884 10.2219
H 16.6046 3.82823 6.79539
Si 16.0001 13.1805 12.9359
O 15.1396 11.9266 13.3316
C 7.82865 17.1386 16.1926
H 19.7295 1.63304 18.3891
H 14.3054 15.2419 6.08486
H 7.81752 1.66226 15.4797
C 14.7816 14.8954 16.4386
H 14.2545 14.7846 17.3218
H 18.2451 2.28991 7.57009
H 14.9318 15.9077 15.9639
Si 14.2825 10.5745 14.138
O 15.5439 9.87985 14.7229
C 13.3151 11.485 15.5561
H 12.7347 10.6473 15.8987
H 14.0483 11.9025 16.2516
C 13.698 9.20953 12.9983
H 14.3208 9.48416 12.0932
H 14.2063 8.27638 13.3017
H 12.6222 9.05871 12.7403
Si 16.103 8.44097 15.2103
O 15.8093 7.32925 13.9855
C 17.6316 6.76065 7.92045
H 16.9608 7.56912 7.5566
H 2.27253 6.29315 10.2715
H 18.3693 7.32577 8.36498
C 17.9665 8.8343 15.1957
H 17.9769 9.30461 14.189
H 17.8249 13.4695 16.4062
H 18.701 8.02168 14.9963
Si 16.2446 5.86231 13.5017
C 13.2677 2.65015 13.9049
H 12.8825 2.0904 14.8246
H 12.4687 3.41358 13.8471
H 13.2895 1.83442 13.1324
C 16.5751 5.30327 11.7529
H 17.604 4.9164 11.7217
H 15.9819 4.43387 11.4682
H 16.5592 6.06788 10.9687
523
 Atoms. Timestep: 9000
Si 16.4072 14.5125 5.78987
O 17.7493 15.4552 6.05475
C 4.94649 15.2828 5.35692
H 5.8521 16.039 5.14034
H 5.6906 14.254 5.65686
H 19.4926 7.64593 9.79543
C 16.6242 10.9063 8.89358
H 16.3758 10.3374 8.01954
H 7.78291 15.6136 17.8618
H 2.61039 4.48143 7.08729
Si 19.2342 15.1034 6.74637
O 19.9975 13.7665 6.28736
C 18.6467 13.9308 3.06952
H 12.3806 13.7641 3.54563
H 10.4041 15.1362 7.88957
H 2.18429 3.87078 14.074
C 19.9297 12.0184 16.7361
H 7.06071 4.10129 9.99664
H 16.7793 10.4363 9.93623
H 14.3766 12.3964 8.44221
Si 1.95481 6.71931 18.257
O 2.49993 8.29763 1.56862
C 7.35926 11.5099 13.9873
H 5.60124 9.39779 2.39916
H 17.3713 11.6589 8.80378
H 18.944 16.0312 15.2643
C 5.30582 1.61402 8.82086
H 10.8821 6.57886 7.30723
H 8.51879 2.58669 6.34152
H 19.7319 17.6657 7.76244
Si 19.8044 12.4654 3.0976
O 19.0621 15.5608 8.33782
C 5.27837 2.93973 5.42908
H 8.5426 12.8024 10.4474
H 8.42132 1.9933 4.18452
H 9.84262 2.10997 1.69847
C 2.36298 2.24716 12.2746
H 4.65226 15.507 6.46378
H 10.4701 16.3318 3.33285
H 13.399 15.7551 10.2653
Si 20.2922 12.4514 5.30254
O 3.02631 9.49187 4.09113
C 17.6505 15.8809 16.9973
H 4.47959 5.60431 4.81966
H 19.6811 11.2675 16.3422
H 19.9626 10.6618 5.68782
C 2.2251 5.91393 2.91377
H 5.54709 3.40885 6.42392
H 20.1081 10.896 7.75382
H 6.2213 2.70011 4.75589
Si 3.24776 8.41666 3.04864
C 3.34214 6.60929 3.52456
H 2.22429 4.98267 3.16959
H 14.1173 10.6015 9.89365
H 18.9158 12.2885 16.2875
C 2.07497 1.42955 7.46774
H 17.8849 5.19696 3.12252
H 14.1545 9.86811 4.34973
H 20.283 12.1589 9.71814
Si 6.27087 11.7983 15.6266
O 7.28419 12.2274 16.9565
C 15.0129 15.737 5.71959
H 4.95532 7.78369 2.05022
H 3.23798 1.80163 2.28287
H 13.1126 16.5711 17.0753
C 6.37776 17.3323 8.5211
H 7.45055 4.80439 2.57108
H 19.544 12.8888 14.556
H 2.17074 12.268 10.0442
Si 8.38424 11.5753 17.9397
O 8.29188 9.81199 17.6702
C 8.56059 11.6545 2.76536
H 8.03647 11.1097 3.45787
H 9.56668 11.6807 2.85618
H 8.25146 12.624 3.01142
C 10.1644 12.3248 17.6154
H 10.4088 13.0734 18.3818
H 8.34911 1.95284 13.4827
H 9.5279 12.4073 8.09468
Si 8.57057 8.72052 16.5173
O 9.58042 7.62024 17.0125
C 6.89307 7.92628 16.0716
H 2.19024 8.98446 4.6332
H 3.60012 7.61273 14.8944
H 9.61063 1.363 17.1955
C 12.6243 13.3057 6.35789
H 12.7794 12.1997 6.14914
H 11.7319 13.3019 6.98899
H 13.5284 13.7996 6.74066
Si 10.0426 6.75486 18.4309
O 10.2624 5.07986 18.0312
C 13.3056 16.8196 2.44098
H 13.0675 15.7921 2.42467
H 14.3505 17.046 2.29424
H 12.8113 16.9774 3.44082
C 11.9311 6.86442 1.51849
H 11.7409 7.78063 17.8075
H 16.1536 7.97794 16.6521
Si 10.3276 3.62659 17.1311
O 9.8408 4.18637 15.6873
C 9.29504 2.36284 17.8942
H 11.6795 2.97554 17.3506
H 3.39369 11.9055 5.03696
H 8.317 2.69572 17.8118
C 9.74156 17.4179 7.10133
H 19.9865 6.93774 11.9327
H 20.4068 4.60941 10.0419
H 14.3672 17.4908 16.4512
Si 9.96958 5.41399 14.6166
C 10.3486 4.58952 12.9115
H 10.7062 5.37832 12.2647
H 11.0187 3.74897 12.7479
H 9.37193 4.1522 12.6517
C 11.5781 6.43657 14.7719
H 12.5603 5.92315 14.6478
H 11.5569 7.20119 13.9445
H 11.6842 7.20532 15.5697
Si 16.9448 14.0925 3.62946
O 16.2593 12.6285 3.35955
C 14.6748 13.2365 17.3751
H 13.5906 13.8328 17.1093
H 14.0435 12.4469 17.629
H 5.13931 4.81637 8.81813
C 20.2274 12.8471 15.5067
H 17.9457 6.75494 7.4658
H 2.16446 13.6992 12.9253
H 13.458 10.7775 16.3188
Si 17.5341 11.5276 2.69352
O 17.2494 10.234 3.92519
C 19.5228 11.13 6.84601
H 3.21114 9.90734 8.91838
H 1.88426 17.42 15.9518
H 4.31045 4.76327 13.043
C 17.203 11.5111 17.7967
H 16.3164 10.7288 18.043
H 16.7579 12.3712 16.9999
H 18.1265 10.9107 17.7213
Si 18.1147 8.87747 4.11468
O 17.571 7.87155 3.06944
C 19.7952 15.0346 2.6328
H 12.552 6.24144 16.5393
H 20.0645 6.42277 3.22074
H 8.46431 4.37743 10.7842
C 17.3659 2.8395 3.94494
H 15.6881 16.254 8.83818
H 16.4283 2.80691 3.72892
H 18.1263 2.58966 3.0549
Si 17.0655 6.20133 2.80458
O 15.6731 6.34946 1.88937
C 12.761 5.9505 17.6814
H 15.4101 16.0532 4.7576
H 12.272 4.99551 17.8271
C 18.3514 4.71981 14.4098
H 19.3267 5.06226 14.7359
H 18.327 4.04891 13.6233
H 17.7762 4.2132 15.111
Si 14.7359 6.09218 17.5752
O 15.6185 5.54194 14.5595
C 15.2048 4.27108 16.9858
H 14.2007 3.88318 17.3639
H 7.54352 12.5446 13.6244
H 16.0074 3.6462 17.4172
C 2.18383 2.87865 13.4829
H 6.36099 17.3165 12.4191
H 4.87287 3.70891 4.85843
H 15.0513 13.9464 18.2172
Si 14.9159 4.00278 15.2679
C 16.1548 2.57448 14.8887
H 10.7998 11.4594 17.7922
H 2.95181 2.89933 14.2093
H 15.5684 1.66033 15.3768
C 4.02314 6.5817 4.7329
H 4.77988 2.06643 5.46722
H 3.89165 11.4856 4.52894
H 19.4069 8.82522 4.85171
Si 9.27104 15.7116 7.10841
O 8.46894 14.8737 8.54443
C 8.22142 14.9408 5.86102
H 6.70012 15.236 10.0193
H 8.13933 13.8162 5.98792
H 7.24921 15.2333 6.28429
C 5.07714 4.94637 12.286
H 10.9619 1.55322 7.29812
H 3.23613 17.5003 9.97769
H 5.28399 3.97889 11.7775
Si 6.83405 15.5235 8.63344
O 5.85386 14.3409 7.90937
C 5.09892 8.53071 2.84356
H 3.17018 11.6243 17.642
H 16.9639 11.1524 12.7966
H 6.4974 9.82235 13.1192
C 19.9016 16.1753 2.1784
H 2.13605 14.6478 3.04091
H 2.51881 2.36146 5.16985
H 15.3952 13.542 16.5481
Si 5.34729 12.7853 8.10733
O 6.5109 11.8291 7.27019
C 3.86478 11.9572 7.29601
H 4.13003 11.0942 6.76664
H 3.59587 11.4166 8.23468
H 2.91963 12.4091 6.90578
C 4.97132 12.4508 9.89658
H 4.58378 11.4152 9.86134
H 5.76497 12.506 10.7045
H 4.24095 13.141 10.2397
Si 6.34055 10.492 6.3654
O 7.96473 10.2896 6.0939
C 5.67461 9.17179 7.4507
H 4.68024 7.52537 4.87092
H 4.6019 8.99097 7.37885
H 6.06135 8.19219 6.90879
C 3.70497 14.2774 17.3714
H 4.54685 13.8252 16.9686
H 2.84856 14.1153 16.7677
H 4.12166 15.4184 17.3236
Si 9.04693 9.06924 5.61122
O 8.95555 7.90653 6.71591
C 8.54925 8.57502 3.88265
H 7.48246 8.33486 3.61092
H 9.11911 9.1745 3.19266
H 9.09135 7.63499 3.76191
C 10.9052 9.29602 5.61714
H 11.2579 8.41532 5.04163
H 11.1654 10.2249 5.02618
H 11.6128 9.37828 6.4144
Si 9.44754 6.76016 7.82375
C 8.87813 7.78802 9.32467
H 8.95395 8.85921 9.47336
H 7.8891 7.68444 8.87509
H 8.95478 7.2963 10.3061
C 8.29027 5.32008 7.74446
H 7.55536 5.58302 8.49293
H 18.406 1.64226 12.5506
Si 12.8258 10.0892 8.50986
O 13.4958 8.84142 7.55737
C 11.6403 12.954 3.32616
H 11.3716 12.2838 4.17544
H 10.6273 13.4197 3.05335
H 11.9498 12.2867 2.45559
C 12.337 9.34851 10.1461
H 13.1628 8.9303 10.7131
H 12.0149 10.2005 10.789
H 11.4528 8.72765 10.1361
Si 14.6515 7.71659 7.42385
O 14.0451 6.20024 6.97843
C 15.7734 8.20603 5.90733
H 16.2508 7.34265 5.41086
H 15.3247 8.71182 5.08584
H 16.5303 8.85878 6.40454
C 15.739 7.17827 8.92842
H 15.9132 6.0823 9.10814
H 16.5572 7.9102 9.09023
H 15.0067 7.49598 9.70568
Si 13.5132 5.08658 5.81602
O 13.5834 3.69409 6.66077
C 14.6752 5.16956 4.45178
H 14.4215 5.55532 3.44429
H 15.6945 5.45531 4.77511
H 14.713 4.06638 4.18666
C 11.7553 5.04445 4.99152
H 11.0939 5.06618 5.90551
H 11.3603 5.87603 4.3502
H 11.4515 4.10196 4.39677
Si 14.055 3.28849 8.11029
O 13.2002 4.28724 9.0676
C 15.961 3.40144 8.2654
H 15.9927 4.43607 7.90935
H 16.1709 3.25791 9.38173
H 16.783 3.0718 7.70563
C 13.2195 1.57533 8.61508
H 12.4315 1.98001 9.17642
H 13.0552 17.3291 7.81936
H 13.998 17.1907 9.17427
Si 11.9165 5.28506 9.72077
O 10.6741 3.7631 9.43418
C 12.7566 5.13724 11.4786
H 13.6983 5.56416 11.2947
H 12.4235 5.74662 12.3192
H 12.7206 4.07723 11.4363
C 11.7895 15.4266 10.6864
H 11.8445 15.9552 9.76579
H 16.954 16.6235 10.1461
H 12.4133 14.5585 10.7696
Si 9.16324 3.81547 8.59577
C 7.62203 5.31113 6.27886
H 8.29675 5.4863 5.41295
H 6.86692 4.54243 6.00311
C 14.955 9.16321 1.75059
H 14.4166 9.98268 18.3606
H 15.7383 9.56752 2.39051
H 14.0926 8.75626 2.3173
Si 4.042 5.87843 6.9872
O 2.97316 7.1507 7.26644
C 16.0987 12.96 6.59181
H 14.9613 12.9414 6.97756
H 16.9424 12.5365 7.11933
H 16.0872 12.3702 5.61572
C 2.70634 12.2779 14.7407
H 18.8479 10.4137 11.4085
H 5.42898 10.889 5.33476
H 3.30561 14.0989 18.4715
Si 2.8193 7.36095 9.07134
O 4.07188 7.57842 12.0232
C 1.92363 2.16858 4.46835
H 20.3076 1.89671 15.9249
H 18.3773 9.71104 11.0696
H 16.148 15.8846 7.88571
C 4.0753 6.31857 9.67739
H 18.6237 5.92582 18.2044
H 12.3822 13.713 5.37519
H 2.88387 13.1728 18.4962
Si 3.15321 7.90411 13.3892
O 20.0997 6.94107 9.60029
C 2.879 9.62511 13.6323
H 2.57557 10.1562 12.6918
H 16.5776 17.274 17.7155
H 2.89434 10.064 15.5813
C 5.28875 12.6166 3.21069
H 4.45266 12.8737 3.71607
H 4.77744 11.6131 3.07297
H 5.16858 12.8973 2.16717
Si 5.11321 6.47209 11.31
O 18.0709 17.1735 10.2541
C 2.96154 9.19589 9.74948
H 2.66636 1.83948 11.2184
H 14.0686 15.3452 5.45256
H 13.7948 10.2846 4.92246
C 9.08454 2.863 3.97188
H 9.11991 3.00428 5.07399
H 12.2356 7.13132 2.6885
H 17.9764 2.85091 6.41681
Si 2.54955 2.89665 8.32405
O 20.2189 15.3074 10.5599
C 20.1067 3.24318 9.87528
H 19.2901 6.0886 16.3766
H 19.237 3.44336 9.25138
H 19.4471 2.7096 10.5706
C 15.3917 16.2101 10.865
H 17.0408 2.52192 15.6423
H 18.8051 3.32456 6.61277
H 8.51551 3.75898 3.62702
Si 19.4532 16.6108 9.77402
C 8.96462 2.17819 7.35486
H 11.984 16.0713 11.5416
H 2.96394 2.53989 4.31695
H 12.4396 12.885 9.54247
C 19.1118 6.50191 17.4266
H 18.352 10.4133 6.95701
H 7.4333 14.2662 13.7367
H 18.3979 7.39188 17.483
Si 15.1231 11.8262 9.69712
O 18.6551 14.6468 13.0859
C 15.7566 13.5127 11.7027
H 9.82864 11.9732 7.57573
H 19.6184 2.76505 4.39
H 8.46114 16.6081 2.57153
C 16.0731 13.3146 10.1821
H 15.7799 14.3445 9.84993
H 11.2469 16.1404 3.18348
H 17.1659 13.1377 10.2598
Si 20.1381 15.2451 12.169
O 2.4277 16.1642 13.167
C 17.6458 16.9961 17.9652
H 17.9022 16.8135 1.84201
H 1.99936 9.21148 10.3165
H 6.11834 8.93493 8.38349
C 3.84095 1.92292 9.331
H 8.91847 15.1192 2.24821
H 14.8745 17.0991 10.8132
H 4.11928 2.31355 10.2229
Si 3.86366 15.4271 12.9848
O 4.81354 13.8107 13.0778
C 4.48163 16.0794 14.5107
H 5.13101 16.9917 14.5854
H 3.56562 16.4399 15.0713
H 4.87984 15.1703 15.0868
C 4.56438 15.6123 11.305
H 4.47418 16.659 10.8198
H 5.5954 15.3983 11.4654
H 4.369 15.04 10.3598
Si 3.45067 12.9772 13.1877
O 3.35277 11.7774 12.1309
C 2.75131 10.6519 14.6791
H 18.3433 6.14059 5.87553
H 3.34712 12.5425 15.6131
H 18.6562 9.67941 16.3412
C 20.3267 7.07002 12.798
H 19.5052 7.27829 13.6424
H 16.531 2.27666 13.9398
H 2.41426 6.01338 13.1299
Si 3.2013 3.39844 17.4041
O 3.88383 3.28603 15.8829
C 2.18236 16.9811 4.86888
H 2.67907 11.4294 11.5698
H 9.77717 13.5345 9.51664
H 12.4217 13.6258 9.49405
C 6.95586 2.78517 15.1754
H 6.69809 1.70237 15.1078
H 7.23969 3.16709 14.1844
H 7.83522 2.75546 15.8363
Si 5.50622 3.72256 16.1032
C 5.20122 3.22449 17.9129
H 6.12957 3.27338 1.5768
H 4.27035 3.90763 1.51009
H 5.11234 2.11376 18.0276
C 5.31665 5.6623 16.014
H 4.99539 6.26492 16.9371
H 4.71161 5.90128 15.1636
Si 8.04346 16.6473 12.9708
O 8.8401 16.0282 11.5064
C 8.06855 3.62183 10.0657
H 8.04814 2.51826 10.3677
H 7.3213 5.32651 3.05586
H 2.433 5.43347 17.8338
C 5.05888 5.67624 8.41842
H 8.40654 15.3796 4.80229
H 10.1241 2.70388 3.50077
H 17.1399 1.64488 3.56815
Si 10.038 14.7931 11.5606
O 10.4758 14.1446 13.0837
C 2.55326 1.77223 18.1398
H 5.25175 12.8052 15.5531
H 5.777 4.71675 13.0408
H 12.8411 17.4452 1.64399
C 9.60897 13.2193 10.5688
H 3.53371 9.53237 10.6621
H 5.65364 8.29751 3.57673
H 7.20099 17.0066 6.47976
Si 9.99873 15.1515 14.3984
O 10.8238 14.2436 15.5232
C 8.16474 15.1786 14.1413
H 7.5858 15.6544 15.0585
H 5.92593 6.38986 8.698
H 11.1827 1.6563 11.8734
C 10.5741 16.9171 14.6871
H 9.65536 17.4483 14.8049
H 10.6044 2.13689 11.7012
H 11.1368 16.8498 15.6647
Si 10.9128 12.8279 16.0691
O 10.2704 11.9686 14.874
C 7.08359 16.9148 7.42786
H 15.4111 8.4828 18.0944
H 7.06696 6.25893 6.30343
H 17.4555 2.58332 5.09074
C 12.5528 12.0248 15.8103
H 13.2802 12.7495 15.4387
H 12.9631 11.7281 16.7915
Si 9.20527 10.925 14.2475
O 9.15957 9.61696 15.2333
C 10.1311 10.2479 12.6895
H 11.0773 9.87029 13.1217
H 9.44366 9.46329 12.3408
H 10.3426 10.862 11.7963
C 6.87228 10.7937 12.807
H 7.43525 10.9475 11.8126
H 12.6587 16.9617 5.33713
H 6.13852 11.6953 12.3856
Si 7.99183 6.3917 14.4126
C 6.71777 6.34364 15.7644
H 6.73546 8.2003 15.116
H 7.46382 5.99831 16.5078
C 8.26915 7.56564 12.9961
H 7.83591 8.50055 13.3595
H 9.28555 7.738 12.7002
H 7.94113 7.2227 12.0307
Si 15.2773 15.1024 12.2159
O 16.2417 15.7352 13.5989
C 2.02224 16.9433 6.26181
H 18.3616 1.49459 17.4737
H 20.0363 12.416 17.4999
H 4.04244 11.587 17.5124
C 13.8196 15.0286 13.3283
H 13.927 14.5384 14.2809
H 13.0917 15.7594 13.6479
H 13.2623 14.1651 12.9945
Si 17.4706 14.7497 14.0832
O 16.8015 13.1949 14.2421
C 20.2695 17.3955 1.80368
H 4.4585 15.0956 4.38237
H 5.94243 8.20689 16.7383
H 16.8714 15.3203 17.503
C 18.0895 15.4655 15.8025
H 11.3468 17.4082 13.9897
H 10.0532 12.2627 10.7918
H 12.3729 17.592 5.4995
Si 16.16 12.3182 12.9752
O 14.8937 11.276 13.4094
C 7.95203 15.3758 1.90088
H 6.18982 12.1339 3.68969
H 15.0008 16.6046 6.4663
H 7.14911 14.6673 2.4136
C 13.7376 16.6252 16.1458
H 13.197 16.638 15.2999
H 2.20207 16.0947 4.52196
H 14.3311 15.7775 16.1769
Si 14.2844 10.0729 14.4171
O 15.6495 9.70633 15.142
C 12.5926 10.6112 15.1027
H 12.2113 10.8603 14.0491
H 12.018 9.90427 15.6991
C 14.1319 8.69965 13.0916
H 15.1546 8.54456 12.7476
H 13.7308 7.87577 13.7213
H 13.3354 8.79688 12.3448
Si 16.689 8.49398 15.2721
O 16.8108 7.64141 14.0477
C 18.784 6.42239 6.81671
H 19.1021 5.48393 7.30843
H 3.20905 5.70296 10.048
H 19.4884 7.26737 6.71778
C 18.4622 8.92362 15.5093
H 18.8023 9.45136 14.5645
H 19.9558 14.1366 15.4989
H 18.8619 7.9766 15.8082
Si 16.9595 5.96473 13.8172
C 13.2449 3.35999 14.4724
H 12.4285 2.91048 14.9521
H 12.9546 4.17469 13.7604
H 13.624 2.72512 13.685
C 16.6052 6.12355 11.8606
H 17.4092 6.17859 11.0884
H 16.0003 5.28189 11.5111
H 15.9915 7.0003 11.5797
523
 Atoms. Timestep: 9500
Si 16.3275 14.166 4.1695
O 17.1102 14.4457 5.60034
C 6.16192 13.6549 4.3786
H 5.08617 13.6119 4.77175
H 6.98073 13.7758 5.0579
H 18.7471 7.53809 10.0646
C 14.5733 11.742 8.55162
H 14.036 12.6295 8.36997
H 7.34145 1.78256 3.72076
H 2.70535 4.80072 7.14609
Si 18.5978 14.3986 6.60108
O 20.2211 13.7729 6.31085
C 19.6629 13.6276 2.24221
H 13.0984 13.5613 2.51022
H 11.4764 15.6133 6.16655
H 16.6876 1.58717 14.2864
C 20.1128 13.8209 15.5682
H 8.08617 2.06591 10.2517
H 14.1234 11.0002 7.94385
H 13.4703 12.4758 10.9164
Si 2.07734 6.29464 2.59332
O 2.3342 7.85147 2.88213
C 7.19799 10.9745 14.4294
H 5.73259 9.43531 4.224
H 15.6507 11.7246 8.08953
H 19.2957 16.1501 16.5642
C 4.86851 16.3686 7.82147
H 9.76055 7.22137 9.7851
H 11.5287 2.76665 7.50178
H 17.8009 17.0999 6.1582
Si 1.73219 12.1815 2.1122
O 17.9459 13.9366 8.13243
C 3.96184 2.96052 4.79378
H 8.75612 12.6395 12.0251
H 6.80087 4.98501 5.5957
H 10.1311 1.59556 17.2142
C 18.5461 2.06641 10.5001
H 5.79328 12.651 3.78064
H 8.80525 15.9672 17.8198
H 16.6726 16.2596 10.9107
Si 1.81493 12.2076 5.94599
O 2.62482 9.175 5.15545
C 17.4395 17.5017 16.7637
H 5.32475 5.94796 5.76072
H 19.5107 13.2389 16.1484
H 19.5013 10.023 6.81907
C 2.79337 5.75849 4.45432
H 3.75953 3.35375 3.87718
H 20.3197 10.9843 8.31718
H 3.34996 3.45019 5.48929
Si 3.47802 8.4665 4.09226
C 3.70438 6.89912 4.93483
H 3.39696 4.99642 3.86781
H 11.2557 10.3803 9.91118
H 20.1567 5.6436 12.2315
C 19.3459 15.8312 7.65353
H 18.0238 5.40141 3.06099
H 14.0261 9.38839 2.99558
H 2.49171 13.2694 12.296
Si 7.56845 12.3717 15.4469
O 8.29913 11.8136 16.779
C 15.4822 15.9535 4.20305
H 4.78645 10.5626 3.17954
H 16.6692 4.05842 1.61748
H 16.1888 3.30458 4.23388
C 6.02883 16.3789 6.96012
H 8.23248 6.94746 2.44207
H 4.6907 14.4319 11.7976
H 18.414 10.3423 11.2015
Si 9.1801 11.1504 17.9455
O 8.74498 9.62805 18.2837
C 9.14193 12.2313 2.49053
H 9.44052 11.4305 2.97096
H 9.67344 12.9821 2.95621
H 8.16608 12.2803 2.90636
C 10.7631 11.3827 16.8731
H 11.4196 12.2141 17.2557
H 10.0734 17.3887 14.2963
H 10.0484 11.6585 11.3207
Si 8.96781 8.50329 17.0012
O 10.4493 7.80675 17.2185
C 7.6506 7.31456 16.8847
H 2.89838 9.41849 6.1073
H 2.7543 7.90794 14.418
H 8.82075 2.66194 16.2932
C 12.3063 12.3004 6.73339
H 11.5932 11.9879 5.9606
H 13.2816 11.9961 6.38604
H 12.145 13.3651 6.66175
Si 10.9009 6.27909 17.6726
O 11.2807 5.12195 16.5381
C 11.3442 3.67288 3.26175
H 10.8366 3.75282 2.27342
H 10.6708 3.51123 4.03935
H 12.0962 4.55541 3.52256
C 12.5106 6.57263 1.48868
H 12.0324 7.43893 2.19477
H 16.3379 6.79407 15.9572
Si 10.9788 3.66527 16.0434
O 10.5216 4.00091 14.501
C 9.71968 2.72834 17.0688
H 12.1538 2.81326 15.4133
H 6.01881 13.5606 1.67147
H 9.11225 3.06118 17.9131
C 9.73891 1.74225 6.54296
H 4.75574 10.1409 10.6893
H 19.8617 3.74823 8.83482
H 15.0322 2.38388 3.11122
Si 9.89722 5.55856 13.9664
C 8.96732 5.18034 12.3238
H 8.01779 4.66603 12.4174
H 9.04881 6.00007 11.6524
H 9.62129 4.41127 11.9175
C 11.5108 6.80821 13.7765
H 11.2784 7.7966 13.2672
H 11.4767 7.12707 14.8512
H 12.5369 6.47547 13.5185
Si 17.6481 14.0509 2.19184
O 17.4004 12.538 18.189
C 14.6802 14.9305 17.1032
H 14.4034 14.025 16.5155
H 15.4855 15.5418 16.8084
H 4.4131 4.56807 9.0424
C 2.73744 13.1286 15.7972
H 18.1566 7.3558 6.82701
H 19.7165 13.6595 12.0071
H 12.3866 10.0071 15.2799
Si 16.8582 11.107 18.2661
O 17.1649 10.7277 2.72778
C 19.8242 10.8581 7.2661
H 5.69729 9.21514 9.57819
H 2.77968 2.11221 10.0489
H 3.24085 4.61525 13.8066
C 14.8632 11.046 18.1658
H 14.8145 11.8041 17.3523
H 14.3955 9.91283 18.0506
H 14.9383 11.7757 2.00927
Si 17.6509 9.57571 3.73659
O 17.4341 7.74292 3.26197
C 1.83784 14.6351 1.94869
H 13.5561 8.55073 17.58
H 2.0076 5.39872 5.14072
H 9.12784 2.53297 11.3632
C 19.5634 2.48436 3.7004
H 14.5349 14.9969 8.56875
H 19.4092 1.79625 2.86943
H 13.203 1.61053 17.5745
Si 16.8296 6.36717 2.83891
O 16.021 6.36822 18.5179
C 13.2846 7.48167 17.3708
H 15.5499 16.4019 3.23621
H 12.7818 7.61612 16.2834
C 18.6049 4.95186 15.2479
H 19.7476 4.98904 15.3792
H 18.0969 3.96739 15.3523
H 18.3261 5.52907 16.1383
Si 14.8024 6.46451 17.3712
O 16.3021 5.02312 14.3284
C 14.381 4.84916 16.4353
H 13.2645 4.71548 16.6296
H 6.76244 11.2163 13.4469
H 14.8622 3.95121 16.8678
C 19.5882 1.88687 9.88556
H 7.48498 1.99872 13.4515
H 4.93337 3.14919 5.24738
H 14.9662 14.2383 18.0728
Si 14.9363 4.2447 14.7213
C 15.3372 2.40522 14.7761
H 11.4161 10.5785 16.9385
H 16.7687 3.33452 1.51271
H 14.3716 1.51986 14.6905
C 4.57667 6.77496 6.06266
H 3.6273 1.84946 5.35556
H 5.43516 13.3971 1.94565
H 18.4594 9.64644 5.07936
Si 10.1137 16.0985 6.25861
O 9.46542 15.2381 7.52318
C 9.30873 15.1498 4.90467
H 7.54895 15.4025 9.46666
H 10.2067 14.4658 4.69165
H 8.63752 14.2349 5.16802
C 3.88436 5.11017 12.9052
H 9.63135 2.23729 5.72426
H 3.90889 16.3363 9.73519
H 3.99439 4.33258 12.0771
Si 7.93047 15.3355 7.90173
O 7.40705 13.7754 7.50358
C 4.90196 9.51812 3.29287
H 4.73867 8.39843 15.6511
H 18.2008 12.5589 11.7277
H 6.66117 10.2073 16.3703
C 2.38351 15.8391 1.90447
H 3.21366 15.3378 2.60015
H 1.67129 17.584 5.20988
H 13.8182 15.6398 17.3801
Si 7.52909 12.1576 7.59801
O 8.69134 11.6221 6.46159
C 3.60067 13.0809 8.6499
H 2.85554 13.7187 9.1671
H 4.00025 13.733 7.99248
H 4.08229 12.4578 9.47559
C 7.73196 11.4266 9.27671
H 8.57839 12.1304 9.67445
H 6.94777 11.5736 10.0574
H 8.11855 10.4203 9.11554
Si 7.5005 10.724 5.70643
O 7.79107 9.2609 6.33488
C 5.83671 11.4372 7.08422
H 5.14824 7.55132 6.69729
H 5.05657 12.1467 6.73015
H 5.32077 10.4283 6.74621
C 4.54244 16.1027 16.1019
H 3.39719 15.8623 15.976
H 5.02347 15.8003 17.1637
H 4.50456 17.0467 16.1273
Si 9.27069 8.20049 6.24092
O 8.80806 7.10362 7.29422
C 9.50754 7.49368 4.54087
H 9.11099 8.02865 3.71196
H 10.5528 7.37593 4.25836
H 8.99734 6.54118 4.52683
C 10.8044 9.05286 6.71773
H 11.7372 8.47649 6.47754
H 10.926 10.0761 6.45025
H 10.7871 9.11543 7.84459
Si 8.67319 6.68359 8.92407
C 7.01733 7.39923 9.37636
H 6.19155 7.36607 8.64037
H 6.8614 6.77128 10.3131
H 7.16155 8.32315 9.90407
C 8.50943 4.87168 8.87304
H 8.12363 4.80374 9.87218
H 2.66812 12.3321 8.42357
Si 12.638 9.76914 9.8152
O 13.0679 8.8512 8.54615
C 12.5028 14.459 2.71591
H 12.5524 15.0667 1.8409
H 11.4683 14.1967 3.01644
H 13.0138 15.129 3.43515
C 11.8821 8.62167 11.0802
H 11.2743 9.3114 11.6731
H 11.2367 7.7775 10.7916
H 12.524 8.26364 11.8937
Si 14.3415 8.0755 7.83224
O 13.8196 6.5887 7.64731
C 14.8442 9.17675 6.38311
H 15.9642 9.38075 6.63805
H 15.0702 8.92883 5.29123
H 14.3771 10.2073 6.35369
C 15.8927 8.0237 9.07867
H 16.2091 8.974 9.52457
H 15.863 7.24843 9.82746
H 16.6325 7.84046 8.29168
Si 13.6174 5.7026 6.21288
O 14.1762 4.21278 6.60368
C 14.908 6.13714 4.89981
H 15.8839 5.63352 5.11437
H 14.4075 5.96304 3.97599
H 15.0683 7.20032 4.9755
C 11.7618 5.78377 5.89939
H 11.3163 5.03976 5.27829
H 11.4433 5.56069 6.93248
H 11.4037 6.69164 5.51327
Si 14.3475 2.85016 7.44886
O 13.4334 2.99112 8.8282
C 16.2215 2.75671 7.28077
H 16.6264 2.60019 6.31024
H 16.4368 3.82336 7.49373
H 16.7423 2.16415 7.96778
C 14.0816 17.401 6.70242
H 14.7329 16.7584 7.22171
H 13.0876 16.9099 6.88232
H 14.0379 17.3162 5.37717
Si 12.4595 3.99256 9.73312
O 11.058 4.21425 9.06037
C 13.1933 5.27366 10.7515
H 12.3484 5.69234 11.2936
H 13.842 4.84235 11.484
H 13.6868 6.08573 10.2146
C 10.7822 15.7152 10.7492
H 11.7202 15.2816 10.473
H 15.2398 17.613 11.7718
H 11.1907 16.5823 11.3582
Si 9.65372 3.57509 8.87287
C 7.37024 4.46901 7.89371
H 7.64438 4.11435 6.86809
H 7.00414 3.51561 8.34406
C 11.4296 10.5632 3.43029
H 11.2558 9.67864 2.8456
H 11.7798 11.298 2.66939
H 10.5313 10.8944 3.97024
Si 3.44342 6.10116 7.30352
O 2.19553 7.14804 7.36636
C 15.2578 12.4859 4.27083
H 15.2712 11.8834 3.39899
H 14.2991 12.7134 4.50712
H 15.7134 12.0883 5.15186
C 3.303 12.3096 14.6986
H 19.4924 8.71741 11.9006
H 7.0275 11.1118 4.31411
H 5.10684 15.7942 15.1351
Si 20.3235 6.54256 8.98444
O 3.01949 7.78208 12.6099
C 20.2848 2.36279 7.23874
H 3.30975 12.6869 4.928
H 15.3042 11.3587 11.7325
H 14.2014 15.4475 8.35793
C 3.05237 5.91581 9.90567
H 19.9621 6.5052 17.7181
H 11.9616 11.8274 7.68455
H 19.6879 11.3036 2.86595
Si 3.80876 8.54179 13.653
O 19.7045 7.7097 9.89351
C 3.71036 10.2567 13.2207
H 4.14941 10.4831 12.2067
H 17.336 17.6333 1.62598
H 2.17554 11.9291 13.1006
C 2.36413 10.9279 18.0286
H 20.0879 10.7811 17.4482
H 2.45227 10.0616 1.8796
H 1.87825 10.7892 14.3065
Si 2.90827 6.345 11.9233
O 17.2263 16.4681 8.76418
C 4.69793 9.43319 9.89493
H 2.53109 3.24873 11.6427
H 14.5263 15.8951 4.62654
H 13.899 8.65946 2.93047
C 7.43887 4.5142 4.84514
H 7.7385 5.17216 3.81214
H 13.2843 6.25274 2.27085
H 18.6184 3.84859 6.148
Si 2.0846 16.8098 8.22188
O 18.7784 14.9839 10.4487
C 1.97704 2.77433 10.6611
H 18.5928 5.98907 1.48026
H 17.7524 2.66464 10.7583
H 1.97628 3.56189 9.92022
C 15.9224 16.726 11.6244
H 15.8744 2.18899 15.7528
H 18.6185 3.95761 5.24986
H 8.99625 3.86413 2.68083
Si 18.3937 15.2234 8.87575
C 10.3824 2.47427 7.39919
H 10.3147 15.8728 9.76957
H 19.7031 3.27754 7.77489
H 11.5782 12.9149 9.41345
C 19.6078 5.88364 18.5083
H 18.8245 11.6636 7.59154
H 6.99421 15.3499 15.073
H 20.0751 4.9434 18.1429
Si 14.6365 11.6097 10.4735
O 18.4192 15.625 12.9782
C 16.1061 13.7088 11.8403
H 10.6248 11.2655 11.0717
H 13.0297 1.53879 18.2224
H 7.55648 2.0515 7.73284
C 15.9296 13.492 10.4463
H 15.2633 14.4201 10.2324
H 8.35324 15.5295 18.391
H 16.7901 13.2535 9.82811
Si 19.6019 15.0566 11.9874
O 2.3376 15.747 11.8204
C 16.676 1.53718 17.9437
H 20.1612 3.20385 2.71239
H 4.10714 8.54278 10.397
H 5.44155 11.1551 8.09022
C 4.03737 16.4536 8.73662
H 5.46036 1.69634 3.53744
H 16.5755 16.4725 9.42163
H 7.12263 15.9625 5.92575
Si 3.5656 16.6212 12.7687
O 4.04385 15.1966 13.6094
C 2.46311 17.4196 13.91
H 20.2949 17.1421 14.0418
H 2.69015 17.4692 14.9741
H 2.54129 2.20592 13.8992
C 5.12802 17.3715 11.9987
H 5.8559 16.2892 12.6165
H 5.00315 16.818 11.0999
H 5.63696 2.11696 12.503
Si 3.43581 13.6997 13.3101
O 4.99602 13.531 12.1366
C 2.70712 11.2401 13.7723
H 18.7622 7.67406 5.25215
H 4.25809 11.965 15.1438
H 19.3376 7.7382 16.4197
C 18.4383 9.41082 11.7481
H 17.7854 8.77536 10.8452
H 2.12592 3.84169 15.5306
H 17.9854 9.70897 12.5282
Si 2.67378 3.04204 16.8361
O 4.18557 3.54562 17.4486
C 19.9122 1.70941 6.11629
H 5.55865 13.8905 12.7243
H 7.60248 13.3195 13.0863
H 11.7332 13.5903 9.63295
C 5.7959 3.35318 15.1219
H 5.89587 4.42608 14.7168
H 6.4951 2.57239 14.6595
H 4.73995 3.18965 14.7135
Si 5.80395 3.3304 16.8796
C 6.24029 2.34215 18.3423
H 5.48624 1.61124 1.89616
H 7.26953 1.86908 18.4003
H 6.79364 3.09674 1.77978
C 6.01365 5.17883 17.0456
H 5.72374 5.94483 17.9341
H 5.23292 5.4215 16.2814
Si 8.61734 17.047 13.903
O 8.41506 16.4633 12.3697
C 9.2128 2.36707 10.1885
H 9.80655 1.58147 10.2734
H 7.72755 7.26075 2.91264
H 3.10142 5.06067 1.75139
C 4.37124 5.72201 8.98653
H 9.25981 15.8293 3.98347
H 8.19262 3.64569 5.2317
H 20.2552 2.54725 4.59794
Si 9.39613 15.0164 12.1422
O 10.3443 14.7769 13.3876
C 20.3517 1.97301 17.4695
H 6.40444 13.3158 16.1824
H 4.95234 5.04104 12.8727
H 12.1424 2.92985 3.41103
C 8.15503 13.5465 12.1933
H 4.35964 9.51401 8.93743
H 5.18698 9.10825 2.22381
H 2.72065 4.95321 5.91654
Si 9.5717 14.7463 14.963
O 9.32577 13.004 14.8716
C 8.02462 15.9661 15.1286
H 8.49593 16.15 16.1242
H 5.08618 6.40762 8.94385
H 17.0941 4.41478 10.0331
C 10.7927 15.0236 16.3338
H 10.6343 14.4598 17.2109
H 16.3764 4.20201 9.88063
H 11.735 14.8819 15.6324
Si 10.6043 11.8355 15.0367
O 9.93085 10.8498 13.6618
C 7.11927 16.9381 7.61918
H 12.2007 10.3911 4.20183
H 6.51236 5.07015 7.92153
H 18.8374 3.32496 4.19498
C 12.41 12.2117 14.7291
H 12.4904 12.6202 13.6949
H 12.7777 12.8934 15.5132
Si 8.70198 9.79256 14.0511
O 8.96753 9.31093 15.6032
C 8.46659 8.50098 12.7969
H 8.25905 7.50782 13.1951
H 7.4858 8.79517 12.3796
H 9.21243 8.39738 11.9923
C 6.34267 10.1302 15.3522
H 6.35923 9.02127 15.1325
H 11.4457 17.3856 2.84176
H 5.41429 10.6471 15.6465
Si 7.85736 6.54355 15.1772
C 7.49663 5.78566 16.8463
H 6.6196 7.52553 17.2561
H 8.2794 5.27721 17.4149
C 6.34651 6.58954 14.1795
H 6.56208 5.50634 13.9883
H 5.39766 6.78649 14.6454
H 6.61216 7.18515 13.2922
Si 15.4644 15.3091 12.5859
O 15.7942 15.3937 14.1329
C 18.7948 16.5491 6.5838
H 15.8418 16.757 17.9232
H 3.1337 13.0943 16.8471
H 4.22956 8.58418 16.3617
C 13.7168 14.843 12.372
H 13.1065 15.6975 12.6688
H 13.5491 14.8485 11.2911
H 13.7333 13.858 12.9726
Si 17.6419 15.381 14.421
O 17.6803 13.5516 14.5502
C 1.72684 17.3677 18.434
H 6.23167 14.2887 3.5489
H 8.20645 3.46813 2.45726
H 18.5355 17.5331 17.2905
C 18.3968 16.5977 16.0108
H 10.6742 16.0118 16.5538
H 7.29402 13.8095 11.5232
H 11.021 16.7278 2.24284
Si 16.9978 12.9747 12.9675
O 16.1132 11.6511 13.694
C 6.49172 17.6718 4.34112
H 3.33938 11.1323 17.5254
H 16.0836 16.4568 4.95705
H 6.21056 1.91527 5.40958
C 15.221 3.4032 3.55114
H 15.5056 4.10712 2.75439
H 6.20968 2.51154 12.0303
H 14.1316 3.31976 3.95161
Si 15.4999 10.2339 13.9726
O 16.0366 9.38276 15.2621
C 12.9575 10.8121 14.7558
H 14.0428 10.8169 15.4805
H 13.0524 10.726 13.5731
C 14.6906 8.92277 13.1124
H 14.2776 9.11906 12.1013
H 15.3582 8.03604 13.1189
H 13.8354 8.78784 13.7343
Si 16.9254 7.98612 15.4286
O 17.6809 7.48649 14.0097
C 18.5222 6.8774 5.94068
H 17.7873 6.30659 5.43094
H 2.75476 4.99064 10.2049
H 19.4067 6.20761 6.17322
C 18.3987 8.42739 16.6054
H 18.2463 8.12621 17.6109
H 20.3521 15.2377 14.9561
H 18.7522 9.47994 16.4846
Si 17.6969 5.84847 13.8679
C 13.3822 4.28614 13.5909
H 12.6194 3.53095 13.9557
H 12.5973 4.99245 13.1703
H 13.6105 3.72469 12.7104
C 17.7843 5.75857 11.9764
H 17.6951 4.67172 11.6041
H 16.9621 6.42999 11.5364
H 18.8457 6.17763 11.7323
523
 Atoms. Timestep: 10000
Si 16.2891 14.7439 4.20975
O 16.9899 15.204 5.63178
C 4.37083 12.2238 5.67544
H 4.91577 11.5768 6.31077
H 3.33276 11.8692 5.83218
H 18.643 5.3231 10.3074
C 14.4357 13.771 8.81236
H 13.938 14.617 9.28686
H 9.90742 1.47075 2.87523
H 2.03016 5.10678 6.34606
Si 18.7277 14.8132 6.30542
O 19.0253 13.7879 4.89827
C 19.8745 14.0414 1.99395
H 11.4387 15.0692 1.71063
H 11.9474 16.5403 7.53709
H 17.3338 4.15342 17.5608
C 2.26309 13.1391 16.1292
H 6.79125 17.5645 7.77133
H 13.6244 13.5771 8.1106
H 15.3602 11.7312 8.81825
Si 2.36614 8.02522 1.60601
O 3.40845 7.24661 2.721
C 7.16173 11.6224 15.4552
H 3.60818 9.91633 5.14313
H 15.3797 14.2142 8.42209
H 19.1212 14.6551 16.3725
C 4.84486 16.4376 5.66083
H 9.45721 6.48115 10.2203
H 11.0521 2.76751 8.49466
H 19.872 2.38681 2.56123
Si 2.7761 13.4387 2.88661
O 18.6207 14.4225 7.96413
C 6.75336 2.29011 4.64853
H 8.44005 14.0202 10.9868
H 9.96765 6.31194 2.68703
H 9.88999 1.82709 16.4519
C 19.9983 16.4083 8.72737
H 4.50579 13.26 6.07878
H 6.10348 14.2292 3.34656
H 14.4321 17.1595 11.9179
Si 20.3333 12.562 4.59143
O 1.77238 6.69054 4.25672
C 17.9872 16.563 16.6867
H 5.45136 6.19912 7.19166
H 2.06601 13.7183 15.298
H 19.2606 9.99666 4.81358
C 5.40379 5.38037 4.68011
H 6.22134 2.18081 3.66546
H 18.4779 11.6369 5.71447
H 2.5613 2.68013 17.6341
Si 3.22043 7.34677 4.42892
C 4.64672 6.36402 5.01442
H 6.30766 5.43196 4.22204
H 12.7482 11.0088 9.86823
H 2.27925 4.86993 12.806
C 20.0826 16.354 6.07463
H 18.6063 7.80354 7.64155
H 14.359 8.90202 16.3847
H 4.89808 13.522 12.2154
Si 6.74249 12.1998 17.1282
O 7.43864 11.2789 18.3252
C 15.6112 16.3608 3.43923
H 2.21925 8.84342 6.11269
H 18.9628 17.5261 13.7451
H 14.5225 3.70025 3.38959
C 5.97392 15.6526 5.71138
H 4.89738 7.56621 18.5061
H 6.30774 13.4338 15.054
H 19.027 10.3614 8.75482
Si 8.7291 10.4958 1.51041
O 8.11212 9.12606 18.0227
C 8.96773 10.287 3.36236
H 9.08645 9.25507 3.77765
H 9.78168 11.0191 3.59014
H 8.11261 10.7274 4.01699
C 10.3593 11.1464 18.0216
H 10.6219 11.8959 1.77631
H 8.00316 12.4675 10.959
H 10.4117 12.1621 12.7805
Si 8.22665 8.09024 16.7987
O 9.57654 7.10747 17.1857
C 6.85223 7.03226 16.0678
H 19.6511 6.87373 4.84443
H 20.0302 7.95663 10.9204
H 8.68825 2.71606 16.1508
C 11.6409 12.4808 6.08065
H 12.2108 13.1188 5.40352
H 10.984 11.7854 5.54284
H 12.3325 11.9207 6.72599
Si 10.841 6.19237 17.7321
O 11.4578 5.04924 16.8025
C 11.9137 2.60134 3.61585
H 10.8235 2.25417 3.80506
H 12.5677 1.6647 3.60417
H 11.9145 2.84108 4.71864
C 12.1956 6.47938 1.97747
H 11.8665 7.28565 2.78294
H 16.287 7.81909 15.9822
Si 10.5308 4.13351 15.7209
O 9.19449 4.80796 15.0441
C 9.51465 2.79762 16.7903
H 11.5186 3.46707 14.8228
H 7.16586 7.26572 3.40212
H 9.2438 3.42254 17.6622
C 9.95331 2.13095 6.74675
H 4.3623 9.41214 8.56716
H 17.9595 8.20355 7.83277
H 15.2653 2.47127 2.54554
Si 9.51345 6.17839 14.0525
C 10.3572 5.19102 12.629
H 10.9185 5.81164 11.9288
H 7.51646 8.48844 12.6782
H 9.82705 4.34811 12.1541
C 10.7449 7.52837 14.3578
H 10.302 8.10386 13.4941
H 10.6768 8.27333 15.1876
H 11.744 7.52654 13.863
Si 18.3532 14.0567 2.86584
O 17.8675 12.674 2.13589
C 14.8274 14.8307 17.3768
H 14.1735 14.2127 16.8384
H 15.5113 15.268 16.5992
H 3.94641 3.70668 8.56747
C 2.88557 11.9069 15.572
H 18.0158 4.68048 6.37131
H 19.8828 13.2261 12.3355
H 13.1011 10.3138 16.3378
Si 17.1677 11.376 18.5361
O 17.6588 9.96022 2.20015
C 18.9132 11.1412 4.83797
H 3.21353 10.1712 9.45445
H 18.4088 2.40893 10.7123
H 4.92026 4.1927 12.4648
C 15.2949 11.8181 1.84287
H 14.5709 11.0336 1.73432
H 15.2073 11.9389 2.99909
H 15.3451 12.695 18.248
Si 16.7679 8.59606 2.7757
O 17.374 7.4061 1.99789
C 19.5726 15.3822 1.83375
H 13.6593 7.80778 1.91306
H 19.3837 6.78487 17.3115
H 11.1708 4.84695 13.2271
C 18.6783 4.05653 3.61796
H 13.594 15.4123 5.66433
H 19.6838 4.60294 3.3679
H 12.5346 1.79968 17.4306
Si 17.2707 6.24775 17.9365
O 15.7312 6.1521 17.5149
C 13.19 7.18602 18.1498
H 15.7064 16.5158 2.36982
H 13.1184 8.10376 17.3278
C 19.1326 3.87667 15.2165
H 19.335 3.99628 16.2737
H 20.0071 4.17176 14.6871
H 18.836 2.9431 14.8088
Si 14.2545 5.54101 17.9429
O 16.3011 5.05256 14.9613
C 14.233 4.17798 16.5916
H 13.2598 3.67527 16.5832
H 7.90177 12.3439 15.0221
H 14.9411 3.46095 16.9985
C 19.2754 1.45794 9.32878
H 4.80824 15.9737 10.7287
H 9.1621 1.48475 2.38965
H 15.6596 14.1984 17.9371
Si 14.7664 4.48631 14.9383
C 14.7141 2.6788 14.1488
H 10.8356 10.0899 17.9583
H 18.4645 17.4662 13.3155
H 15.2377 2.14151 14.9585
C 4.53451 6.57454 6.68247
H 6.12382 1.53065 5.38648
H 7.9703 15.035 2.8364
H 15.3314 8.23405 2.37526
Si 10.683 16.543 6.73171
O 9.48728 15.6833 7.56492
C 10.4342 16.0535 5.08082
H 6.91888 16.1098 8.19822
H 11.1744 16.2933 4.24127
H 10.4112 14.9013 5.18659
C 4.65508 4.73993 11.5384
H 8.87436 1.96468 6.42474
H 2.89876 16.2065 7.01452
H 4.75344 4.01336 10.7006
Si 7.95359 15.2221 7.71886
O 8.20526 13.9711 8.69157
C 2.86197 9.16835 5.25809
H 7.32981 8.70149 5.56424
H 18.0846 12.6336 12.4299
H 6.90316 7.66328 2.86324
C 19.2044 16.5775 1.56929
H 5.14484 8.93006 16.5803
H 2.2507 2.60704 4.18936
H 14.3125 15.4339 18.1623
Si 7.95691 12.2725 8.63119
O 8.09253 12.2511 6.89611
C 3.42868 13.725 8.99306
H 2.62949 12.9699 8.59819
H 3.70866 13.1819 9.86841
H 4.25852 13.7608 8.10114
C 9.01544 11.2029 9.5583
H 8.93351 11.6617 10.6015
H 8.86264 10.1344 9.31949
H 10.0031 11.676 9.24728
Si 7.64387 10.8012 6.13885
O 8.60717 9.63727 6.91872
C 6.25542 12.1235 9.38089
H 4.26665 7.58302 6.7007
H 6.4191 12.3896 10.3987
H 5.73541 12.9318 9.01944
C 7.37501 16.5815 1.76072
H 6.18466 17.5905 18.5035
H 7.22132 16.5006 2.76227
H 7.99042 16.9328 18.2203
Si 9.72225 8.35047 6.88005
O 8.88794 7.20073 7.81304
C 9.54025 7.38084 5.3239
H 9.52181 7.64109 4.27767
H 10.5088 6.7767 5.19449
H 8.66333 6.78388 5.44054
C 11.3746 8.79302 7.43523
H 12.1343 8.59827 6.67676
H 11.3678 9.91972 7.56336
H 11.5851 8.21488 8.32017
Si 8.42121 6.47327 9.17771
C 7.03564 7.56391 9.68529
H 6.07712 7.23314 10.1316
H 7.30354 8.01925 10.586
H 6.83826 8.33657 8.89548
C 7.93213 4.54727 8.88059
H 7.22442 4.2089 9.65609
H 2.89406 14.5929 9.11424
Si 14.1382 10.2397 9.73489
O 14.4744 9.41008 8.40227
C 11.4979 14.0534 2.01091
H 11.9079 14.3272 2.98032
H 10.5182 13.6509 2.2667
H 12.1934 13.2562 1.7147
C 14.4049 9.32282 11.2107
H 13.6625 9.50257 12.0354
H 14.2495 8.21353 10.9877
H 15.3562 9.45819 11.7915
Si 14.7704 8.83867 6.83762
O 14.387 7.1441 7.07715
C 13.5969 9.35083 5.51789
H 14.1875 9.57156 4.59369
H 12.9968 8.51872 5.20499
H 13.0606 10.2824 5.67518
C 16.4809 9.66856 6.59918
H 17.2164 9.63464 7.38134
H 16.8943 9.52559 5.61741
H 16.2854 10.736 6.53118
Si 13.6497 5.65063 6.76401
O 14.6443 4.43337 7.31253
C 13.5229 5.47285 4.94065
H 13.3454 4.38065 4.87262
H 12.7676 6.01007 4.3794
H 14.538 5.5885 4.38331
C 11.9954 5.4055 7.49744
H 11.4921 4.41837 7.46641
H 11.6316 6.03594 8.34648
H 11.31 5.81234 6.72555
Si 14.6887 3.06265 8.25571
O 13.1417 3.05285 8.97869
C 15.7661 3.21203 9.8251
H 16.7959 2.75545 9.48661
H 16.1227 4.20943 10.1194
H 15.4676 2.72744 10.8034
C 14.7517 17.6609 7.3634
H 15.0995 1.56052 6.35133
H 15.6488 17.4006 8.08647
H 13.8925 17.2384 7.66143
Si 12.1844 4.34841 9.33499
O 10.7122 4.09096 9.90505
C 13.1462 5.40921 10.3496
H 13.7345 4.87458 11.0046
H 13.6544 6.27205 9.90166
H 12.5181 5.82126 11.1274
C 11.3606 15.6501 11.283
H 10.6964 15.5091 10.4461
H 15.7957 16.2219 11.0143
H 12.1665 14.955 11.1312
Si 9.21669 3.3303 9.37305
C 7.43591 4.50977 7.36908
H 6.94479 5.48047 7.15331
H 8.28553 4.3688 6.67306
C 12.2822 10.6596 3.34194
H 13.1555 9.9907 3.44169
H 12.0479 10.9473 4.33766
H 12.5938 11.4776 2.65394
Si 2.85644 5.9345 7.29516
O 2.23795 7.26689 8.05701
C 15.0188 13.4405 4.7511
H 15.6825 12.8912 5.39345
H 14.5036 12.7457 4.03976
H 14.3571 13.8745 5.46419
C 3.34964 12.1817 14.26
H 19.3303 11.6729 9.41599
H 8.15939 14.2011 3.01565
H 6.68064 16.2324 18.1749
Si 20.3294 6.59182 9.693
O 2.97182 6.955 12.0871
C 19.972 2.5448 6.0744
H 2.27907 12.7804 6.51416
H 16.4303 13.1605 10.4169
H 12.9712 15.8062 5.47937
C 2.49467 4.67401 9.99071
H 19.3434 3.20431 18.2843
H 10.907 12.9566 6.75
H 4.52734 9.77223 16.8053
Si 20.3471 7.55191 12.5964
O 18.4698 6.17902 9.79814
C 1.70369 9.43279 13.1996
H 2.47009 10.0793 13.7353
H 4.79436 16.2816 15.1587
H 19.0503 10.8165 12.0334
C 2.73294 11.8526 2.40178
H 3.77172 11.6439 2.91054
H 3.54262 11.9331 18.3977
H 19.0494 11.284 13.8068
Si 3.02431 5.41464 11.5709
O 17.1987 15.972 9.47269
C 4.01634 9.40726 9.57988
H 20.3419 2.2409 11.165
H 14.7034 16.9577 3.67007
H 14.1019 8.57373 15.735
C 9.00021 5.54756 2.60892
H 8.69169 5.17817 1.53327
H 12.1413 5.41567 2.34909
H 17.2099 2.34083 7.16864
Si 19.6632 1.96748 7.61155
O 19.2739 14.3492 10.6007
C 19.1769 1.56646 10.6698
H 1.70818 8.84424 2.59643
H 2.09058 16.4454 9.52645
H 18.7702 16.7896 11.3567
C 14.7881 16.2753 11.4814
H 14.7609 1.82611 13.4344
H 16.8103 2.42197 6.65855
H 6.54485 13.6186 17.4717
Si 18.7422 15.46 9.35816
C 10.0809 2.67673 8.02145
H 11.8003 16.596 11.5552
H 19.5346 3.24936 5.48023
H 11.3118 13.0196 9.09209
C 1.7753 7.0995 17.229
H 18.359 11.1826 3.95633
H 7.78571 14.8676 15.2906
H 2.27888 6.20853 16.8736
Si 15.0677 12.5887 10.183
O 18.6068 15.2163 13.1067
C 15.1194 13.2532 12.7842
H 10.3556 12.6307 13.3402
H 12.4725 17.3537 17.4782
H 7.64859 14.3409 5.49264
C 14.2235 12.6385 11.8517
H 13.9796 15.8455 10.689
H 5.54098 14.4888 2.89745
H 13.1479 12.6807 12.2428
Si 19.6322 14.5221 12.1126
O 2.09828 15.4696 11.8492
C 17.9033 1.61711 17.1472
H 18.8854 3.29488 4.15308
H 3.71069 8.43745 9.66591
H 5.64588 11.2663 9.45084
C 1.7723 16.5688 7.23932
H 11.0392 2.21087 6.00549
H 17.0915 17.0083 9.52807
H 4.49007 16.5934 6.6218
Si 3.34677 16.2983 12.5603
O 3.50198 14.9787 13.6158
C 2.84565 1.65629 13.3453
H 3.51283 2.50576 13.3838
H 1.77096 1.8662 13.0199
H 2.9555 1.77358 14.5519
C 4.63746 16.7853 11.5733
H 4.60032 1.71379 11.5223
H 5.66844 17.4435 12.0378
H 2.2616 15.9378 5.29194
Si 4.40671 13.5403 13.6678
O 5.64399 14.2077 14.722
C 19.4788 10.4042 13.0558
H 17.9469 6.22072 5.58072
H 3.44024 11.3045 13.5497
H 18.9607 9.96365 15.2264
C 18.7651 11.3996 8.65355
H 17.6677 11.6232 9.28182
H 5.54911 16.5773 14.5038
H 18.9438 12.0202 7.80114
Si 2.22096 17.6368 16.7163
O 3.23548 2.97517 15.7082
C 1.88772 1.96647 4.92963
H 9.69161 1.40533 10.3782
H 8.41425 13.2787 12.4958
H 11.966 13.1015 9.45378
C 6.10603 3.36775 14.9807
H 7.10016 3.86258 15.3238
H 6.31909 2.40009 14.4472
H 5.82167 3.93674 14.0229
Si 4.67134 3.55548 16.2555
C 5.20415 3.42717 18.0741
H 2.00367 4.31158 4.2008
H 5.08431 2.4139 18.3116
H 5.49472 4.63124 18.1954
C 4.78158 5.4403 16.1962
H 4.05704 5.62438 17.0305
H 4.41521 5.52268 15.1566
Si 8.23803 17.1298 13.7962
O 9.69875 17.1227 12.9354
C 8.66954 2.02838 10.5698
H 8.07526 17.5525 9.81465
H 5.0862 8.00865 18.0452
H 2.82738 9.47852 18.2949
C 3.6181 4.80438 8.79727
H 9.46689 16.3615 4.77267
H 8.10337 6.10892 2.80497
H 17.9258 3.88272 2.66486
Si 10.0479 15.3737 12.5292
O 10.7555 14.6041 13.8189
C 19.9707 2.38529 18.3295
H 5.25352 11.8945 16.9971
H 5.47821 5.49908 11.5377
H 11.7757 3.2813 2.83839
C 8.53299 14.2842 12.0066
H 4.74857 9.48595 10.294
H 2.10301 9.56987 4.44037
H 5.05459 4.3531 5.03579
Si 10.1837 14.8562 15.3746
O 9.92939 13.5028 16.4199
C 8.53015 15.7209 15.2323
H 8.21525 16.4307 15.9619
H 4.40362 5.37376 9.18927
H 15.9475 7.28826 10.0679
C 11.3475 16.1218 16.2161
H 10.8352 16.5937 17.1105
H 16.3182 7.07923 10.6882
H 12.2607 15.5909 16.4195
Si 10.4129 11.9066 16.4099
O 9.5357 11.136 15.1655
C 6.99089 15.0086 5.97993
H 11.3268 10.2778 2.85358
H 6.68664 3.66156 7.0756
H 18.6115 4.72114 4.74502
C 12.133 12.0234 15.5567
H 12.0934 12.4568 14.5519
H 12.864 12.5782 16.2085
Si 8.25287 10.1922 14.5254
O 8.05351 8.68938 15.0875
C 9.09251 10.0524 12.7309
H 9.45381 11.0423 12.4798
H 10.0017 9.45519 12.7908
H 8.63188 9.47093 12.0395
C 6.49985 11.1988 14.2059
H 5.61027 10.7557 14.2144
H 17.3138 3.87176 18.2865
H 6.66335 11.8409 13.4008
Si 7.37369 7.35401 13.8241
C 6.14763 5.80579 16.4429
H 5.99003 7.63385 16.0666
H 6.76424 4.92975 16.7961
C 5.49825 7.43615 13.6673
H 5.30959 7.07331 14.633
H 4.9621 8.36305 13.4124
H 4.95947 6.59129 13.2274
Si 14.7721 15.1481 13.053
O 16.1525 15.7763 13.9756
C 1.88818 16.9483 4.94852
H 17.8866 2.687 16.5643
H 2.2066 11.0497 15.5538
H 7.28771 8.03 5.42382
C 13.6084 15.568 14.4063
H 13.8231 15.5655 15.5782
H 13.5116 16.7073 14.3583
H 12.5369 15.171 14.3024
Si 17.6179 15.0775 14.4401
O 17.2825 13.4204 14.6778
C 19.4335 1.54553 2.15098
H 4.68998 11.8894 4.75938
H 6.63855 15.1732 11.8179
H 2.60314 4.08215 3.73188
C 18.4585 15.5033 16.0387
H 11.7207 16.852 15.36
H 7.49664 14.8585 12.1849
H 3.78689 3.54549 18.2566
Si 16.6134 12.5628 13.3059
O 16.5012 10.7298 13.7944
C 8.07154 2.09926 4.11359
H 2.61809 13.8032 17.0351
H 16.4672 17.0826 3.67459
H 9.38443 4.69559 3.23479
C 15.5091 3.42766 3.0917
H 16.342 3.50531 3.86634
H 4.39558 16.5347 4.86192
H 16.005 4.09894 2.29208
Si 17.565 9.65873 12.9443
O 17.3149 8.21314 13.5113
C 12.6969 10.6247 15.3788
H 13.4975 10.7858 14.6683
H 12.0345 9.84601 15.0498
C 17.3997 9.58373 11.1743
H 16.8368 10.4317 10.7836
H 18.3645 9.5584 10.6366
H 16.995 8.61252 11.0867
Si 17.6424 7.73517 15.0959
O 18.4336 6.43011 14.6169
C 17.6286 5.68965 6.43236
H 18.247 6.08343 7.25919
H 20.3512 3.9545 10.0028
H 16.5406 5.6047 6.37931
C 18.5683 9.07258 15.8126
H 19.4479 8.34468 15.5534
H 19.9383 12.8963 16.7211
H 18.4116 9.18787 16.9478
Si 17.8956 4.99461 14.2089
C 13.7129 5.61116 13.8475
H 13.1383 5.02554 13.1413
H 13.0854 6.21481 14.6204
H 14.3731 6.16553 13.1281
C 17.8869 4.55937 12.4871
H 17.363 3.60921 12.5506
H 17.3232 5.28661 11.8093
H 18.8703 4.39786 12.0345
523
 Atoms. Timestep: 10500
Si 14.9476 14.315 5.39281
O 16.1967 15.4986 6.05948
C 5.32792 12.1341 5.79198
H 6.21034 11.5727 6.21699
H 4.97567 11.5882 4.91057
H 18.6536 4.03048 10.2954
C 13.937 13.5927 9.26909
H 13.6674 12.4835 9.39795
H 6.13916 16.3388 3.0279
H 2.63086 2.10061 4.57048
Si 17.7758 14.8194 6.19826
O 17.5001 13.6625 4.85083
C 18.1643 14.3624 2.51164
H 14.5167 13.8834 2.40216
H 10.8738 16.6718 7.06059
H 2.00385 1.45758 1.44135
C 4.01721 12.2283 15.7651
H 5.02443 17.0913 6.24953
H 13.6504 13.749 8.25501
H 13.0061 10.5181 7.93928
Si 1.83307 9.86094 2.20909
O 2.36567 8.95281 3.58905
C 6.4495 10.0288 15.0788
H 4.12282 8.68373 6.74314
H 13.2785 13.9589 10.0127
H 20.0577 14.299 16.0585
C 4.25122 15.354 5.33339
H 7.64269 6.55762 9.99922
H 10.4275 3.71925 6.20446
H 14.0121 17.3879 3.03247
Si 18.8732 15.9659 3.10616
O 17.7109 12.6988 6.93439
C 6.31578 2.44937 4.18015
H 12.2822 13.9259 12.1085
H 6.58801 6.43821 5.11653
H 9.32703 3.64942 2.628
C 19.4629 17.3846 7.06196
H 4.47827 12.1041 6.47325
H 6.80592 14.7957 4.212
H 16.3141 17.3903 11.7627
Si 2.00441 13.3679 3.5815
O 19.8942 8.13532 5.61942
C 19.183 16.5986 16.4818
H 20.1253 4.16653 6.47299
H 4.72828 12.1486 16.531
H 3.0277 11.8558 5.10368
C 2.86172 6.51076 4.33603
H 7.30867 2.27556 1.99393
H 20.2951 12.1199 5.81548
H 1.77735 17.4032 3.38455
Si 2.58082 8.20806 4.9873
C 2.17978 5.41081 4.9954
H 3.30225 6.42823 3.29178
H 12.5206 8.61655 8.84081
H 2.75407 6.08619 16.3186
C 20.06 14.7321 5.8239
H 18.5506 10.2427 4.91974
H 12.3454 8.17473 14.4056
H 5.71524 14.4099 11.8864
Si 6.67483 10.2354 16.7913
O 7.71012 11.3778 17.486
C 13.4068 15.2148 6.14963
H 4.04744 10.0863 6.17263
H 14.1653 4.27799 10.6683
H 13.6488 2.47527 4.4308
C 5.29777 16.0904 6.40861
H 3.32495 8.73589 15.3796
H 8.77675 13.0842 13.9703
H 2.13186 11.6484 7.84251
Si 8.98028 10.2853 18.1016
O 7.65684 9.0485 17.6481
C 9.07108 9.79928 2.81266
H 9.33825 8.63983 2.82949
H 9.84793 10.4305 3.21535
H 8.1305 10.1481 3.25981
C 10.5007 10.6613 17.1726
H 11.1056 11.4244 17.7954
H 12.6733 15.4772 11.7539
H 10.6142 12.3256 12.3324
Si 8.54058 7.9698 16.2862
O 9.76129 7.35815 17.2438
C 7.04192 6.8035 16.0923
H 20.0145 8.26514 6.59282
H 2.89836 8.12233 9.17872
H 11.081 2.94947 2.05817
C 11.7388 11.9391 6.02169
H 11.8583 12.664 5.20021
H 12.1074 12.3083 6.97531
H 10.6515 11.8548 6.0424
Si 10.8066 6.41256 18.1994
O 10.4938 5.08719 17.0322
C 9.30275 6.21307 4.49011
H 8.66064 5.3653 4.74379
H 9.32038 7.18652 4.98931
H 8.98057 6.49936 3.5428
C 12.0916 7.50029 18.4935
H 11.2829 8.41074 1.59497
H 16.8326 7.72701 14.3957
Si 10.0418 3.45498 17.0639
O 8.88512 3.07128 15.926
C 10.1381 3.03848 1.9544
H 11.3453 2.62306 16.8898
H 5.2636 8.40539 18.1698
H 9.74161 1.95549 1.93405
C 9.31154 2.13994 5.77429
H 6.61142 8.71021 10.9115
H 18.34 10.4912 5.66758
H 12.2057 2.32607 5.66754
Si 8.82286 3.88079 14.3484
C 7.92164 3.00386 12.9778
H 7.24066 3.7522 12.4627
H 9.12215 6.76655 14.7957
H 7.06739 2.22673 13.3583
C 10.6602 4.32913 14.1476
H 10.909 4.79223 13.1729
H 11.0787 4.95511 14.9387
H 11.2974 3.42324 14.2759
Si 18.5658 12.9814 3.89373
O 17.6703 11.5926 3.22384
C 15.8809 16.9419 18.1599
H 15.4222 1.42397 18.3839
H 16.4814 9.55587 16.8421
H 20.1112 3.91966 8.78747
C 4.15785 13.1481 14.7211
H 16.8652 5.07774 5.89221
H 1.95907 13.4451 10.288
H 12.59 9.71342 14.7067
Si 17.8864 11.3251 1.63041
O 17.3674 9.65248 18.3902
C 1.8958 11.9468 4.71623
H 5.45482 8.48824 9.63831
H 17.6219 2.68273 9.13837
H 5.35487 4.9383 12.5762
C 16.6335 12.2381 17.4095
H 17.3852 12.7751 16.6571
H 16.2715 11.1867 16.9214
H 15.8297 12.8437 17.8935
Si 17.4404 8.80043 2.77693
O 16.9522 7.29303 2.97525
C 16.9441 17.4316 17.2442
H 13.6046 8.63011 17.394
H 18.0073 5.81868 17.8063
H 8.48189 2.51314 12.1848
C 16.3594 4.11682 2.32476
H 10.4076 13.1688 3.37249
H 16.152 3.83036 18.5389
H 16.6276 1.37032 16.3826
Si 16.6312 6.0587 1.79964
O 15.6227 6.84875 17.8764
C 12.9469 7.80349 17.3756
H 12.6307 14.5795 6.659
H 12.5362 7.9651 16.2646
C 18.8096 3.49751 16.1497
H 18.5809 2.42036 16.2106
H 18.5085 3.59402 17.1533
H 19.8487 3.30536 15.736
Si 14.1361 6.56027 17.3478
O 16.2704 5.07166 15.3472
C 13.7438 4.62962 16.7875
H 12.7546 4.61042 16.2338
H 5.71822 9.36603 14.7589
H 13.8004 3.80183 17.5861
C 18.6601 1.99465 7.48803
H 4.66856 17.2397 9.29131
H 5.85661 16.3936 2.23119
H 14.8955 16.7041 17.2999
Si 14.6034 4.26983 15.1787
C 14.6649 2.87718 13.9558
H 11.1666 9.87435 17.1287
H 20.084 16.4127 7.22952
H 13.6564 2.67374 13.6336
C 2.36791 4.79759 6.32794
H 5.49012 2.63295 4.93914
H 7.84619 13.0892 1.63776
H 16.1959 9.27271 3.7488
Si 10.0717 16.8846 5.77603
O 8.75902 15.7682 6.1734
C 10.4491 16.4267 3.98734
H 3.57645 15.0599 8.71904
H 10.3683 15.4633 3.64829
H 9.94064 16.9641 3.23266
C 5.10174 4.6923 11.5547
H 8.22575 1.80986 5.91987
H 18.8443 15.3009 7.78085
H 5.43905 3.6736 11.3536
Si 7.68327 15.3966 7.19717
O 8.28398 14.1646 8.10345
C 4.13315 9.14993 5.79569
H 5.62286 10.7083 3.1059
H 18.0495 13.0374 11.9438
H 5.03515 7.8928 2.04165
C 18.3721 17.3736 17.6763
H 3.70322 9.62984 1.88417
H 2.82351 15.8269 3.37357
H 16.2282 16.9293 2.10236
Si 8.86613 12.7843 8.84653
O 9.07698 11.769 7.67506
C 4.37398 11.7985 9.98053
H 3.83299 12.4634 9.2854
H 5.34523 12.3167 10.1712
H 3.91649 11.6436 10.95
C 10.5019 13.4404 9.48126
H 11.4527 12.9399 9.2734
H 10.63 14.4665 8.99521
H 10.3175 13.6671 10.5202
Si 8.09379 10.8865 6.61049
O 7.96972 9.44694 7.51607
C 7.98136 12.3004 10.4278
H 3.03852 3.84643 6.38654
H 7.62478 13.1448 10.8306
H 7.08458 11.8047 10.2616
C 4.94516 14.2569 18.1073
H 3.92626 13.8483 18.0582
H 5.15325 15.2218 18.2545
H 16.4392 8.79038 16.6287
Si 9.29269 8.45977 7.79412
O 8.80993 6.87926 7.73492
C 10.5273 8.99173 6.42212
H 11.3162 9.59871 6.82846
H 10.7447 8.20336 5.62652
H 9.82806 9.74121 5.99279
C 9.77641 8.74222 9.44724
H 10.831 8.57451 9.45777
H 9.60797 9.7382 9.82519
H 9.32902 7.99162 10.1207
Si 7.41203 6.24446 8.57208
C 5.83848 6.87067 7.69771
H 5.7974 6.23765 6.78461
H 4.86425 6.69362 8.25879
H 5.79527 7.85834 7.27161
C 7.29024 4.29417 8.43115
H 7.04224 4.09731 9.47588
H 4.64371 10.9036 9.51566
Si 13.3489 9.85004 9.12777
O 14.9271 9.42439 9.01218
C 13.4967 13.8245 2.09474
H 13.3214 12.8689 18.4137
H 13.0597 13.49 3.05306
H 13.1808 14.7331 1.65876
C 13.1218 10.0358 10.9552
H 12.4851 9.19965 11.2874
H 13.9911 9.93328 11.6939
H 12.5113 10.8536 11.3248
Si 15.496 8.51402 7.77579
O 15.0369 6.96966 7.88565
C 14.5789 8.9676 6.20301
H 14.2657 8.23163 5.446
H 13.6062 9.37312 6.57501
H 15.007 9.81869 5.66627
C 17.2726 8.52777 8.16114
H 17.7034 7.70542 8.70595
H 17.8438 8.30755 7.23454
H 17.6102 9.4536 8.67316
Si 14.2747 6.04116 6.86385
O 14.6123 4.57437 7.71662
C 14.8095 6.22182 5.09194
H 14.0119 6.45666 4.36158
H 15.5091 7.02946 4.94359
H 15.2368 5.22317 4.80579
C 12.4619 6.28768 6.48522
H 12.042 5.21964 6.36186
H 11.9341 6.47405 7.50157
H 12.1905 7.00273 5.7424
Si 14.0804 3.35982 8.67849
O 12.4734 4.05602 9.10774
C 15.1675 4.68707 11.0427
H 15.5717 3.56861 11.3472
H 15.279 5.4551 11.8173
H 16.0603 4.55168 10.3093
C 14.3047 1.58935 8.21604
H 13.3087 17.0277 8.39579
H 15.4603 1.49965 7.77516
H 14.7229 1.57174 9.31498
Si 11.2598 4.93116 9.45484
O 9.84091 4.3927 9.16793
C 11.7412 6.22519 10.7766
H 10.804 6.56569 11.2267
H 12.1823 5.67569 11.5977
H 12.4793 6.93239 10.4855
C 11.9188 2.09755 11.7653
H 12.7971 1.45553 12.0141
H 15.5385 16.1343 11.3937
H 12.7558 2.8124 11.4379
Si 8.83685 3.28149 8.20007
C 6.21211 3.6615 7.58155
H 6.05218 4.32263 6.68729
H 6.54878 2.84544 6.95543
C 13.4531 10.26 3.23919
H 13.8941 9.26399 3.29639
H 13.2533 10.4737 2.15607
H 12.6257 10.3303 3.92108
Si 2.64591 5.72357 7.86766
O 19.7543 6.43433 8.31565
C 14.6689 12.5333 5.84885
H 15.56 11.9905 5.82038
H 14.2537 12.3707 4.8769
H 13.9687 12.5019 6.67512
C 5.12123 14.2196 14.6311
H 19.7603 10.4675 7.75118
H 8.36196 13.4632 1.87578
H 5.46093 13.519 1.89058
Si 19.4745 6.06064 9.87029
O 3.96838 7.24113 11.3704
C 3.26377 17.6112 4.41393
H 3.61564 13.5278 3.31844
H 15.921 11.8176 9.405
H 10.5039 12.8266 3.95968
C 1.91049 4.9422 10.5312
H 19.7725 4.44389 2.7512
H 12.1588 10.9868 5.67242
H 2.8226 9.91346 18.4248
Si 2.36055 8.18268 10.5905
O 18.2418 4.88812 10.033
C 1.67191 9.65625 11.1858
H 4.80147 9.35379 12.7324
H 6.64519 1.49408 15.1748
H 19.5234 11.6486 11.3966
C 18.9216 14.3259 18.3115
H 19.0803 14.1121 17.3487
H 16.9802 14.5447 2.73579
H 1.7744 11.1813 12.7983
Si 3.46195 5.57456 11.3021
O 16.9766 14.1008 9.23393
C 6.12448 9.09613 10.0354
H 18.686 1.44699 9.95508
H 13.7333 16.0559 6.69858
H 12.5815 8.10884 13.6615
C 6.41986 6.9492 4.15197
H 6.93266 6.18188 3.44218
H 12.6031 7.34723 2.203
H 16.3025 2.76921 5.77986
Si 19.1399 1.62495 5.75201
O 19.4424 15.6044 9.9587
C 18.4234 2.01017 9.02822
H 18.8056 8.76259 3.53124
H 1.70071 14.5213 7.9495
H 16.9928 16.4698 9.30779
C 15.5404 16.6991 12.2977
H 15.3308 3.08356 13.1416
H 16.8623 2.76243 5.3955
H 5.40057 13.8292 17.2094
Si 17.9349 15.205 9.09715
C 9.63654 3.21087 6.58585
H 11.5466 1.59934 10.6766
H 4.18311 2.32411 4.26134
H 11.4037 16.7543 9.56821
C 20.1676 5.26304 2.01695
H 1.77627 11.0396 4.22422
H 8.04405 14.3552 15.7027
H 20.2027 6.41613 1.90437
Si 15.5099 13.1006 9.99775
O 19.6284 14.5386 12.7743
C 15.856 13.5719 12.8701
H 10.8335 11.8831 11.773
H 18.2769 17.1205 5.09737
H 5.61874 14.4771 7.91462
C 15.0469 13.2139 11.789
H 14.5848 17.3545 12.2272
H 6.74125 14.9194 3.47324
H 13.9904 12.8732 11.9386
Si 20.1251 14.7617 11.2166
O 2.68336 15.6835 11.6933
C 20.1376 16.5554 15.3917
H 17.1164 3.51627 3.02849
H 5.51416 9.73734 10.6417
H 8.74 11.9276 11.2241
C 1.74872 14.1021 6.93211
H 9.26449 2.3152 4.60542
H 17.8683 12.7333 7.83214
H 5.09748 14.7975 4.61661
Si 3.84624 16.862 11.8484
O 4.98228 16.6058 13.0824
C 2.84776 2.08614 12.458
H 2.28427 2.38864 11.5588
H 3.21625 2.91653 12.8125
H 2.33439 6.752 16.0966
C 4.4125 17.5962 10.1381
H 4.26488 2.15627 10.0616
H 3.46178 15.5076 8.12951
H 15.1713 14.3108 3.99795
Si 5.8621 15.0399 13.1642
O 8.75168 13.4914 13.0103
C 19.8651 10.7333 12.017
H 17.9372 6.33958 6.15975
H 5.36603 14.7893 15.6163
H 18.4709 9.073 16.7292
C 20.268 11.2542 8.47187
H 19.2735 12.045 8.72232
H 7.56474 17.6225 15.5541
H 2.21654 10.9684 9.38221
Si 2.06623 3.57928 1.62054
O 3.18573 3.82492 17.5583
C 3.47449 16.2626 4.32203
H 7.5767 2.10126 9.96782
H 11.0326 14.876 11.2039
H 11.6696 16.0311 9.47728
C 4.72582 3.72096 15.0727
H 5.38667 3.03743 14.6842
H 3.69861 3.39907 14.9144
H 4.89282 4.74621 14.5552
Si 4.89224 3.72568 16.9765
C 5.01719 1.81221 17.1661
H 14.4894 1.45065 2.26368
H 4.1873 1.43696 16.3523
H 5.21968 1.75903 18.3408
C 5.76814 5.28205 17.4741
H 5.62862 5.66752 1.55226
H 5.17318 6.33065 17.3435
Si 8.06373 15.0196 13.5919
O 9.19743 16.2496 13.1681
C 8.3843 1.67359 9.11443
H 9.23471 17.1772 9.68961
H 3.87348 8.32434 15.188
H 20.24 8.85601 18.1275
C 2.31163 4.45219 9.21172
H 11.5315 16.603 3.84671
H 7.05467 7.84563 4.13679
H 15.4378 3.8989 3.07103
Si 10.9384 15.9662 13.3537
O 11.4527 15.4251 14.8649
C 19.9132 1.9667 1.85916
H 5.79725 10.6448 17.7138
H 5.8418 5.42962 11.1409
H 10.294 5.85201 4.34772
C 11.8339 14.9343 11.9551
H 6.7288 9.63415 9.17636
H 5.01304 9.10621 5.24929
H 3.74236 6.50918 4.9506
Si 10.2951 15.0259 16.0622
O 10.6698 13.486 16.313
C 8.49188 15.1992 15.3986
H 8.03212 16.0194 16.013
H 2.78348 3.49746 9.14149
H 15.5502 6.7358 13.1131
C 10.9116 15.9469 17.4956
H 12.074 16.3242 17.3326
H 15.7565 7.2633 12.6167
H 10.2768 16.9224 17.6818
Si 10.9022 11.9245 15.7873
O 9.70751 11.6765 14.6956
C 6.05077 15.2454 7.26188
H 14.3348 10.8187 3.64023
H 5.2987 3.51948 8.20319
H 19.8232 11.0381 15.5907
C 12.637 11.8837 14.9029
H 12.3358 12.2235 13.8763
H 13.3668 12.5377 15.3824
Si 9.04824 10.2761 14.1208
O 9.16093 9.24876 15.5572
C 9.75939 9.38316 12.7249
H 10.7394 9.59214 12.4621
H 9.76566 8.28158 12.7207
H 9.15809 9.56153 11.8177
C 7.23856 10.8242 14.1031
H 6.80128 10.9408 13.0617
H 3.01972 3.50834 2.85174
H 7.1755 11.9242 14.3605
Si 7.80988 6.0451 14.5833
C 7.12778 5.75145 16.9835
H 6.08944 7.44154 16.0586
H 8.03763 5.48144 17.5034
C 6.91696 7.03304 13.2174
H 7.38896 6.75898 12.2194
H 5.80805 7.09103 13.107
H 7.2335 8.03774 13.5709
Si 15.8854 15.3465 13.5465
O 17.474 15.8715 13.5274
C 19.9915 14.8348 4.16051
H 2.32737 16.7137 15.817
H 3.55623 12.9153 13.8705
H 4.87001 10.4039 2.8944
C 14.7998 15.5502 14.9343
H 14.9495 14.8383 15.7237
H 15.2127 16.5423 15.0923
H 13.7336 15.7443 14.7059
Si 18.6686 14.8462 14.0419
O 18.0872 13.212 14.5219
C 18.4901 17.5822 2.19229
H 5.75505 13.1824 5.51449
H 4.02476 8.99724 13.1116
H 1.67639 4.86485 4.08861
C 19.6232 15.1896 15.6764
H 10.8652 15.2206 18.358
H 11.2686 2.82844 12.7225
H 5.23507 16.8505 16.9542
Si 17.2522 12.4884 13.2527
O 17.4913 10.8356 13.3118
C 6.70513 2.23392 3.00594
H 3.58289 11.1631 15.7802
H 13.0186 15.545 5.14191
H 5.5304 7.4979 3.71384
C 12.6789 2.83135 4.76875
H 11.7057 2.91073 4.08369
H 3.6085 14.4242 5.50736
H 12.9797 3.83826 5.10636
Si 18.4096 9.59515 12.4049
O 19.0501 8.48139 13.5023
C 13.3536 10.4915 14.7883
H 13.9313 10.3121 15.7122
H 14.0804 10.5651 13.907
C 17.2112 8.99262 11.2287
H 16.2631 8.9168 11.7188
H 17.1262 9.71125 10.403
H 17.538 7.96899 10.8942
Si 18.4392 7.51523 14.6635
O 18.9427 5.91295 14.8169
C 17.7804 5.28934 6.35361
H 18.7173 4.81339 5.97789
H 1.67649 4.08625 11.26
H 17.7394 4.95282 7.41557
C 19.1712 8.35236 16.2857
H 20.0216 8.95026 15.8178
H 19.6595 11.7057 15.9432
H 19.4436 7.73709 17.0129
Si 17.8397 4.59467 15.0331
C 13.8993 5.81795 14.4453
H 13.0524 6.09682 15.1107
H 14.6816 6.49791 14.4675
H 13.5565 5.87731 13.4349
C 17.7327 3.69287 13.3142
H 17.6685 4.29256 12.3654
H 18.6903 3.01987 13.3045
H 16.8208 3.04552 13.4412
523
 Atoms. Timestep: 11000
Si 14.1934 16.1654 6.04102
O 14.5543 14.5453 5.78572
C 3.56162 12.8734 6.49906
H 2.60049 13.4601 6.16504
H 4.20437 13.4535 7.23161
H 16.8479 6.41319 11.4646
C 14.9142 14.4007 10.15
H 14.7668 14.3771 11.2342
H 4.03313 16.1624 1.94464
H 4.22992 2.62962 3.22409
Si 15.794 13.5501 5.62605
O 15.873 12.6437 4.28277
C 16.7631 13.7604 1.85162
H 12.8268 14.7925 18.4589
H 10.7142 14.8897 6.61058
H 3.50652 12.8421 17.366
C 4.54707 12.4732 14.8497
H 4.09649 17.0393 6.56323
H 14.3074 13.5876 9.60413
H 15.4176 11.0521 9.44794
Si 2.44409 9.08544 2.68044
O 3.24751 7.75637 3.60579
C 7.15815 10.2555 15.7652
H 3.88397 10.4603 6.38346
H 14.7483 15.2994 9.53852
H 2.83289 17.0869 18.1999
C 4.93017 16.5478 4.82035
H 9.16665 6.15523 9.70927
H 11.5429 2.36417 7.52575
H 14.614 17.4302 2.23743
Si 18.2224 16.0911 1.97945
O 15.6773 12.6528 6.86167
C 6.35762 6.35805 5.51114
H 12.0812 13.0559 12.2909
H 6.78847 9.49031 2.19259
H 8.01472 1.61645 2.066
C 20.1254 4.27197 8.08616
H 3.06775 11.999 6.99791
H 5.38477 11.9482 3.95106
H 14.4372 16.6078 12.8996
Si 19.6738 15.5807 6.15645
O 19.8882 8.92139 5.03849
C 19.7287 16.1509 16.1865
H 3.92356 6.55156 7.03275
H 4.53363 12.0786 15.9834
H 18.6988 13.1462 5.23319
C 1.63415 5.16784 5.64631
H 4.21268 6.08922 5.16999
H 19.3491 14.5096 4.10917
H 19.4456 16.8838 1.5553
Si 2.84103 8.08489 5.26504
C 2.00546 6.43526 6.25354
H 1.94678 4.10477 5.97657
H 12.9744 11.6451 9.43777
H 1.79277 7.33464 15.6491
C 17.2219 15.5454 4.43261
H 18.3917 11.3523 6.40638
H 12.7838 7.80697 15.2481
H 6.71131 14.5705 10.515
Si 7.40018 11.7401 16.6831
O 8.99631 11.6359 16.9268
C 15.3027 1.57067 5.89273
H 4.91064 9.1157 6.03494
H 15.006 5.22521 10.0658
H 13.3632 3.27143 3.00887
C 4.90815 16.4276 6.41487
H 4.55142 8.10315 13.3397
H 8.62972 12.2455 12.3248
H 19.6434 11.1312 9.10578
Si 9.87547 10.4596 17.6992
O 9.25788 9.0011 17.4381
C 10.2183 11.0843 2.26986
H 11.3073 11.0514 2.62861
H 9.9733 12.1796 2.31006
H 9.48851 10.8848 3.07713
C 11.5883 10.4354 16.9522
H 12.0339 11.2035 17.5665
H 12.7797 13.9213 11.2497
H 10.7346 10.9935 10.0801
Si 9.27657 7.85475 16.3475
O 10.512 7.00686 16.9031
C 7.78981 6.93521 16.2296
H 19.7908 9.68872 5.82707
H 19.4634 10.8791 11.5019
H 9.37859 3.10018 2.28765
C 12.2354 12.346 4.81862
H 11.1921 12.6001 4.51294
H 12.3435 11.5509 5.55488
H 12.7464 12.0921 3.86925
Si 11.7357 5.9961 17.0971
O 10.9672 4.76209 17.8549
C 9.13273 5.67276 3.6574
H 8.4386 4.75189 3.57936
H 10.1617 5.47545 3.23574
H 9.17301 5.8988 4.71564
C 13.135 6.7468 18.1749
H 12.9727 7.85298 18.2021
H 15.4704 7.33213 14.2636
Si 10.4012 3.05925 17.7384
O 9.76151 3.26352 16.1636
C 8.35546 2.76911 1.55666
H 11.4664 2.26266 17.3293
H 2.75007 11.2297 17.1704
H 7.19117 2.35618 18.198
C 10.5204 1.47043 6.19601
H 6.02133 8.71808 10.6274
H 18.1371 10.9878 5.71158
H 11.6578 2.85937 2.54227
Si 8.45653 3.49604 15.2217
C 6.43378 16.5092 16.4254
H 5.96509 15.7763 17.126
H 9.84195 5.7674 14.4361
H 6.04413 16.0899 15.293
C 8.11988 2.31498 13.6706
H 9.1864 2.24968 13.4108
H 7.88031 1.54662 14.4373
H 7.37772 2.74819 13.0684
Si 16.5307 12.2941 2.97204
O 17.5881 10.9932 3.41925
C 16.1054 15.8005 16.5615
H 16.1058 17.0378 3.11509
H 16.2673 12.2363 16.538
H 19.7354 3.10824 12.9095
C 5.36913 13.4908 14.0753
H 18.1993 5.99076 6.1178
H 20.2321 13.9447 11.5498
H 14.9799 11.0724 15.2144
Si 18.8381 9.91351 2.49158
O 18.15 8.4968 2.63783
C 18.9497 14.1966 5.01143
H 6.27695 10.0866 11.847
H 19.3236 17.145 4.9714
H 4.45206 4.04658 11.2102
C 18.6436 10.5747 17.8423
H 18.0575 11.3379 17.4838
H 19.6122 10.6155 17.7569
H 18.3011 9.9975 17.1534
Si 16.703 7.67707 2.98107
O 17.3557 6.20333 3.4101
C 17.0986 16.4802 17.2163
H 15.1761 7.36237 17.5991
H 19.1721 3.68397 8.36802
H 7.57801 16.6209 16.5548
C 18.4331 3.53832 2.51379
H 7.81034 14.1122 2.57512
H 18.1421 3.63503 18.6432
H 16.2746 17.3643 17.1992
Si 17.8881 5.18202 2.26127
O 16.2857 4.95236 1.52684
C 14.3751 6.63521 17.2048
H 14.3752 2.25491 5.58044
H 14.4448 6.57508 16.2398
C 17.8708 3.54908 15.2862
H 17.3958 3.1718 16.198
H 18.3605 4.59318 15.4157
H 18.5478 2.96304 14.6991
Si 14.954 5.11315 17.8661
O 15.1804 4.45037 14.8931
C 13.9847 3.76718 17.0906
H 12.9781 3.92539 17.5359
H 7.64299 9.33109 16.024
H 14.2403 2.96118 17.7743
C 1.7379 2.78195 8.15183
H 3.64705 2.04142 9.81984
H 4.37071 15.9844 2.86411
H 16.6585 15.986 15.3187
Si 13.7747 3.73561 15.17
C 13.7358 2.07702 14.52
H 12.3313 9.68471 17.1702
H 4.98348 3.47841 4.68531
H 12.8083 1.63318 14.7261
C 2.84231 6.91401 7.4557
H 7.22556 5.97013 5.87776
H 5.44491 9.27633 16.0229
H 15.794 8.23133 1.71528
Si 9.81087 15.9416 5.97659
O 8.23587 16.0322 6.25933
C 10.3684 16.2435 3.89962
H 1.91881 14.7115 9.97122
H 11.0582 15.5231 3.43486
H 9.46201 16.3946 3.45677
C 4.75582 4.79275 10.4252
H 10.2684 2.37546 5.32328
H 17.3558 1.40733 10.555
H 4.88008 4.15691 9.56719
Si 7.2562 15.8243 7.58016
O 7.73738 14.2105 7.7389
C 3.98892 9.45099 6.50175
H 7.75786 13.0264 4.4339
H 20.0563 12.2373 13.3072
H 2.57814 15.8119 17.4573
C 18.5889 16.6278 17.1468
H 20.1414 12.9153 2.54121
H 6.66757 17.2994 4.22007
H 15.8175 14.6837 16.6132
Si 8.49591 12.8379 7.93201
O 8.16218 11.5823 6.69422
C 4.40883 12.3678 9.93914
H 4.03916 11.4713 9.47184
H 5.45703 11.9557 10.3426
H 4.51046 13.1407 9.18011
C 10.3874 12.7705 7.61422
H 10.5663 11.83 7.06859
H 10.4921 13.498 6.79129
H 11.1478 12.8894 8.35656
Si 6.88867 10.5306 6.90333
O 7.82624 9.18982 7.5281
C 7.90201 12.0149 9.49894
H 2.4698 7.87563 7.85109
H 8.32904 12.6251 10.4096
H 6.79683 12.0397 9.49247
C 3.86795 13.3385 18.2962
H 3.58103 14.2199 18.3358
H 3.68325 13.5395 2.30368
H 15.676 11.7542 16.3147
Si 9.11134 8.37504 6.78802
O 8.98671 6.76022 7.32512
C 8.82004 8.49637 4.929
H 8.8636 9.63231 4.87362
H 9.64896 8.20075 4.25052
H 7.8167 8.18501 4.64881
C 10.6059 8.89436 7.76146
H 10.6572 8.16054 8.56622
H 11.5943 9.25726 7.48034
H 10.2729 9.80512 8.2776
Si 8.18867 5.80117 8.50179
C 6.69022 6.81749 8.73719
H 6.42191 6.97716 7.72615
H 5.95683 6.35223 9.33144
H 6.86105 7.9615 8.98741
C 7.765 3.91402 7.95988
H 6.77179 3.72855 8.37066
H 3.94867 12.6361 10.8751
Si 14.0492 10.711 9.40865
O 13.7815 9.57879 8.04936
C 12.9869 13.9398 17.7041
H 12.0759 13.3238 17.763
H 13.2834 14.2178 16.6815
H 13.7918 13.3583 17.9212
C 13.8936 9.82178 10.9971
H 14.3681 8.83443 11.0818
H 14.1291 10.5231 11.8113
H 12.7817 9.54925 11.058
Si 15.0564 8.72242 7.46644
O 14.67 7.04627 7.05919
C 15.12 9.2851 5.64773
H 15.3713 8.26228 5.27897
H 14.3073 9.72682 5.03459
H 15.8692 10.0698 5.55389
C 16.6392 8.49964 8.27464
H 17.0614 9.44738 8.6764
H 16.4427 7.80759 9.13187
H 17.4222 8.09825 7.59438
Si 13.7419 5.79759 6.5458
O 14.0082 4.68126 7.71743
C 14.4097 5.32324 4.94829
H 13.7304 5.76387 4.1253
H 15.4842 5.22981 4.58221
H 13.9989 4.27899 4.92093
C 11.9581 6.17734 6.06113
H 11.6917 7.21574 5.96872
H 11.9706 5.71207 4.96897
H 11.176 5.61239 6.54885
Si 13.3717 4.69394 9.23575
O 11.7493 5.12673 9.18007
C 14.586 6.0921 10.1396
H 13.7832 6.47009 9.52185
H 15.5344 6.49205 9.68154
H 14.1286 6.28449 11.1262
C 13.3633 3.2394 10.203
H 13.2437 2.2867 9.52532
H 14.5721 3.14764 10.6854
H 12.9645 2.7553 11.2272
Si 10.4641 4.82792 10.1483
O 9.9812 3.32039 9.86021
C 10.5088 5.37054 11.9319
H 10.9504 4.74381 12.7125
H 11.2235 6.20016 11.8952
H 9.61952 5.71603 12.4024
C 11.9092 17.0753 11.7736
H 6.34881 17.5575 16.712
H 15.846 17.1341 12.0733
H 11.0759 1.61638 11.4852
Si 8.99867 2.3558 8.80559
C 7.58391 3.7067 6.41269
H 6.56335 3.81721 6.12903
H 8.07597 4.48776 5.83105
C 12.3413 8.50786 4.01208
H 12.3088 9.3232 3.30281
H 11.6878 7.67058 3.68853
H 13.3289 8.0857 3.95894
Si 2.31073 5.96776 8.77599
O 19.3955 6.39221 9.11459
C 13.2407 15.7685 7.75624
H 12.2358 16.0879 7.47814
H 13.4425 16.4204 8.60358
H 13.6216 14.746 7.94293
C 5.95325 13.16 12.8766
H 19.8709 12.9008 9.44444
H 4.81809 8.87258 15.797
H 3.75534 13.2552 15.1385
Si 19.248 6.4974 10.7415
O 3.03837 7.4514 11.0146
C 5.09604 2.86885 3.95641
H 1.47286 12.4318 3.05782
H 16.9004 13.7721 8.26918
H 8.45864 15.2978 1.94981
C 2.11718 4.42562 11.791
H 19.4081 6.61185 1.57262
H 12.722 13.2922 5.13541
H 1.89083 14.6468 7.19269
Si 20.3463 8.22051 11.4501
O 17.5302 6.27033 10.8352
C 19.7793 9.88148 12.3088
H 3.49545 9.32509 12.9137
H 8.00667 3.82813 1.96948
H 2.02983 8.81632 13.946
C 18.116 14.219 1.62115
H 19.0476 13.2523 1.57311
H 16.3092 13.3614 17.8545
H 2.19303 10.6873 13.7348
Si 3.14055 5.64625 10.6836
O 17.6403 15.3998 9.63555
C 6.7217 9.28192 11.245
H 19.8571 17.1101 8.24878
H 15.2737 2.15111 6.83979
H 12.0502 7.76663 15.3028
C 6.84572 10.54 1.99921
H 6.52093 10.8965 18.0283
H 13.4537 5.99256 1.97377
H 16.5859 3.69365 9.28378
Si 1.7224 17.1362 4.57844
O 19.999 16.7695 11.2444
C 1.82115 1.52592 7.72755
H 16.074 8.47251 4.03627
H 2.02497 15.7454 4.0847
H 17.9941 16.2338 12.6154
C 15.3987 16.1098 12.5032
H 14.3857 1.52515 15.2349
H 16.4204 2.90717 9.0934
H 4.90825 13.2456 17.8165
Si 18.3694 16.4916 10.8953
C 10.4721 2.1459 7.39483
H 12.6 17.2821 12.4778
H 6.22773 3.20463 3.15596
H 10.1878 14.792 9.11096
C 19.3778 5.66579 18.5642
H 3.24648 12.4398 4.21838
H 8.4966 13.2746 15.0967
H 2.82024 2.96237 15.4925
Si 16.8288 14.0468 9.83144
O 20.3964 14.8618 13.8488
C 17.4809 13.4995 12.5392
H 10.1058 11.3123 10.3496
H 2.29351 12.3263 3.73968
H 4.97647 15.3672 8.26384
C 17.3829 12.9237 11.301
H 14.7433 15.486 11.8525
H 4.77092 11.5761 3.85993
H 17.6731 11.9125 10.9523
Si 1.75759 15.3899 12.1593
O 3.29053 15.9119 12.4467
C 3.41029 1.46568 17.2637
H 19.4882 3.41848 2.92414
H 7.35832 8.73087 11.9054
H 8.18439 10.9435 9.47181
C 16.9638 16.4836 3.52621
H 11.6964 1.58657 6.0804
H 15.7241 13.0367 7.87039
H 5.08461 15.2791 4.80922
Si 4.66509 16.7329 11.8152
O 6.07365 15.8933 12.2434
C 4.99094 1.99963 12.3782
H 4.06584 2.42553 12.544
H 5.55224 2.81713 11.6318
H 19.9785 7.80439 15.8886
C 4.42448 17.4667 10.0643
H 5.5203 16.9637 9.52463
H 2.42499 14.7518 9.27977
H 13.0128 16.557 4.94387
Si 6.66533 14.5188 11.9053
O 9.2496 13.0052 12.1078
C 2.25846 9.7263 13.1731
H 17.9425 4.48378 6.98405
H 5.51226 12.2723 12.5135
H 18.5006 7.65002 16.422
C 19.3943 12.2282 8.81114
H 18.6065 12.543 8.20865
H 8.4492 14.6954 2.41339
H 19.9134 11.7359 7.46548
Si 1.9866 5.01556 17.7776
O 3.62251 5.36235 17.5124
C 5.78807 17.6437 4.41439
H 7.65672 16.9876 9.79904
H 11.1082 13.5777 10.8947
H 10.8807 15.02 9.16371
C 3.65269 5.30615 14.8687
H 4.63972 6.00189 14.9773
H 3.43596 4.84343 13.9716
H 2.75023 6.19259 14.9308
Si 4.2436 4.43422 16.3251
C 5.92045 3.8138 16.3047
H 14.2979 16.6553 2.30504
H 6.85997 3.66767 16.8877
H 6.58321 3.90811 15.3988
C 5.99586 6.3701 17.8397
H 5.45693 5.74827 1.76473
H 5.69847 7.42314 17.8615
Si 8.68668 14.3966 12.9813
O 9.5116 15.6661 11.993
C 7.98391 17.0714 8.77801
H 4.20394 16.003 9.40138
H 4.29676 7.64973 13.8899
H 3.47488 10.5649 2.49951
C 1.68593 3.32285 12.1533
H 10.8527 17.1598 3.79304
H 7.88074 10.8552 2.3177
H 17.9454 2.58686 2.61731
Si 11.2454 15.3353 12.3938
O 11.1316 15.48 14.1471
C 1.65359 3.39854 17.0143
H 2.78424 8.01898 18.5023
H 5.90256 4.95417 10.5115
H 8.67501 6.58783 3.233
C 11.7945 13.8151 11.6564
H 7.35018 9.67685 10.5196
H 3.90051 8.95178 7.41661
H 19.6796 5.21999 4.54397
Si 10.4502 14.4527 15.2273
O 11.3694 13.109 15.5945
C 8.8113 14.2061 14.769
H 8.03073 14.8196 15.1288
H 2.2738 2.56877 12.4937
H 12.2439 8.48042 12.6907
C 10.3169 15.6791 16.6649
H 10.3245 16.7286 16.0557
H 12.1804 7.72784 12.6482
H 9.28149 15.3992 17.2249
Si 11.4343 11.4957 15.3879
O 10.2421 11.2717 14.2074
C 5.49553 15.5722 7.26864
H 12.0521 8.89536 5.03228
H 8.0423 2.78752 6.08307
H 15.4107 15.9224 17.1658
C 12.9493 10.8273 14.4672
H 12.5699 9.95139 13.9853
H 13.0148 11.5039 13.5869
Si 9.32758 9.94892 13.9216
O 9.83649 8.84133 15.029
C 9.76367 9.35421 12.2416
H 9.39117 9.74401 11.2794
H 10.8733 9.39547 12.0938
H 9.47024 8.25998 12.2342
C 7.49619 10.2693 14.365
H 7.11889 9.38266 13.7721
H 19.9453 3.05619 18.0065
H 7.33094 11.1603 13.7158
Si 8.31991 5.71491 14.6931
C 7.2043 6.01498 17.2545
H 7.04832 7.62439 15.8064
H 7.80298 5.12732 17.5304
C 7.37671 6.14614 12.9734
H 6.90334 5.21283 12.5258
H 6.64162 6.96751 13.3001
H 8.01195 6.54779 12.0636
Si 16.3432 14.8822 13.4392
O 17.5706 15.3772 14.6206
C 17.2437 14.6238 5.3058
H 3.92825 17.1718 16.7648
H 5.45614 14.5712 14.3635
H 7.22921 12.5153 4.54305
C 14.8382 14.1335 14.01
H 14.2619 13.4937 13.1865
H 15.3004 13.52 14.8641
H 14.1521 14.8792 14.5311
Si 19.1432 14.9485 14.8633
O 18.6576 13.38 15.1017
C 2.93111 2.68933 16.8745
H 4.41516 12.5803 5.96666
H 18.9348 7.76148 10.0031
H 19.6852 6.92704 6.47054
C 2.1858 16.5306 16.5659
H 10.9777 15.6562 17.5219
H 12.5415 17.0691 10.8739
H 6.37269 2.79641 16.125
Si 18.5536 12.2857 13.7358
O 18.1014 10.8557 14.3163
C 5.16818 6.5135 5.31748
H 3.76966 11.9401 14.2696
H 16.0182 1.46887 5.01529
H 6.32384 11.1991 2.87935
C 12.5243 2.65256 3.23681
H 12.2439 2.68766 4.2238
H 3.96133 16.4355 4.56095
H 13.0925 1.67823 3.17435
Si 18.0249 9.47667 13.2045
O 17.5901 8.33686 14.1867
C 14.3068 10.2726 14.9054
H 14.8524 9.77372 14.1422
H 14.2173 9.59748 15.8106
C 16.474 9.36095 12.1232
H 16.4783 10.1581 11.3713
H 16.0988 8.52599 11.4726
H 15.6801 9.75992 12.7655
Si 16.7592 7.1572 14.7856
O 17.2518 5.84715 13.957
C 17.5218 5.3727 6.5931
H 16.7257 5.26752 5.83817
H 20.1504 5.26036 11.9267
H 17.3405 6.05736 7.41031
C 17.4091 7.54907 16.5523
H 17.0875 6.80638 17.2797
H 3.4685 10.8852 17.5006
H 16.9817 8.44892 16.824
Si 16.6065 4.4067 14.2714
C 12.4558 4.65099 14.4
H 12.467 4.23106 13.4164
H 11.3809 4.5987 14.7419
H 12.7861 5.69727 14.2549
C 16.7674 3.55658 12.5828
H 17.7018 3.90087 12.2654
H 16.5833 2.52087 12.6311
H 16.3049 4.0295 11.7577
523
 Atoms. Timestep: 11500
Si 15.9359 16.5383 5.01368
O 17.3505 15.479 5.05931
C 3.77958 14.3821 7.73467
H 3.33349 13.855 6.93492
H 3.16847 14.7964 8.68055
H 17.2689 5.23095 10.2951
C 16.3008 15.9756 10.3845
H 16.1356 16.9258 9.77988
H 20.215 1.79614 4.80543
H 4.043 2.34995 4.94389
Si 17.3781 13.939 4.55451
O 16.5432 13.5517 3.20627
C 16.3892 12.9803 17.0502
H 11.9372 13.8413 2.51459
H 11.2804 16.7191 5.94073
H 18.859 17.5619 3.28619
C 4.22079 12.0747 14.1852
H 7.65856 15.8536 4.07322
H 16.3248 15.9072 11.4803
H 15.184 11.2484 10.0321
Si 19.6797 7.76574 3.24973
O 19.327 7.36733 4.81715
C 6.66849 10.0183 14.88
H 2.59651 9.64402 5.30716
H 16.1346 15.0066 9.89101
H 17.6409 17.1069 1.40515
C 5.48542 16.0964 3.14369
H 10.074 5.21627 9.32072
H 10.0638 1.99529 7.5
H 11.3965 1.58557 1.77575
Si 18.3966 14.7396 16.9508
O 17.1377 12.9426 5.77121
C 7.10314 7.93879 4.73123
H 11.5912 12.6755 10.7341
H 5.15102 12.0159 3.55321
H 3.66611 17.2706 2.34376
C 2.87455 2.79452 7.05783
H 4.41101 13.7269 8.23444
H 9.98012 14.7032 2.98935
H 16.5517 16.8924 12.8432
Si 2.55723 17.4007 6.39753
O 18.8617 7.29294 7.14003
C 1.73703 15.1727 16.3634
H 5.33385 5.98094 7.82557
H 3.16765 11.9671 14.2971
H 20.2163 14.471 6.06727
C 2.93345 5.49311 5.62945
H 5.24374 8.05941 5.98982
H 2.77839 13.5168 5.04324
H 14.0683 13.7209 17.2046
Si 20.2795 7.37822 6.2716
C 2.88271 5.99341 7.01214
H 2.02307 6.18633 5.05376
H 13.0317 11.7249 9.17038
H 19.3147 6.64624 16.0908
C 19.109 13.7346 3.07987
H 17.4275 10.9449 5.00609
H 11.0507 6.56782 10.6041
H 6.72806 15.2084 10.2833
Si 6.62977 9.96902 16.6874
O 8.13423 10.8893 17.3302
C 16.254 17.1853 6.81158
H 3.65809 8.84561 5.45974
H 14.7187 6.56553 9.76254
H 12.6937 2.28609 5.25424
C 6.70342 15.4432 3.97321
H 3.82008 9.50972 15.6999
H 9.73634 12.3322 11.1254
H 19.323 10.674 6.64381
Si 9.3166 10.1625 18.2667
O 9.41523 8.55089 18.0443
C 9.38454 11.1183 2.87281
H 8.52474 11.6444 2.84971
H 10.1372 12.0144 2.99784
H 12.3984 15.7191 2.52053
C 10.9377 10.7164 17.4275
H 11.2874 11.7399 17.9343
H 12.6746 12.9899 12.1275
H 16.5582 12.6321 8.28838
Si 9.36943 7.39757 16.622
O 10.106 5.9368 17.1004
C 7.73981 6.98437 15.96
H 18.126 7.88834 6.697
H 1.78085 10.0391 11.3928
H 11.0079 3.55108 6.86933
C 11.2146 12.991 5.63937
H 11.6061 13.4186 6.58146
H 10.9043 13.7283 4.86874
H 12.1121 12.4333 5.28988
Si 11.6955 5.36162 16.7123
O 11.3575 3.87306 17.1689
C 11.1341 7.49825 3.43888
H 10.68 8.31112 3.94585
H 10.4506 6.91354 2.72175
H 11.2185 6.7641 4.22079
C 12.7423 6.3611 17.8691
H 12.2191 7.09256 18.3459
H 14.777 8.73159 12.8269
Si 9.93104 3.17313 17.5899
O 9.20861 2.27917 16.2848
C 6.34934 3.22305 1.60863
H 11.8379 3.78471 6.15587
H 2.80763 11.8155 16.668
H 6.13273 4.34146 18.3692
C 9.03094 2.44133 5.85656
H 4.75428 8.94898 11.1181
H 17.1054 10.3353 5.2279
H 11.6253 2.87896 3.79415
Si 7.87574 2.66209 15.3791
C 4.93662 14.3646 17.0021
H 5.21438 14.4252 18.0051
H 8.56683 5.0244 13.8859
H 4.1796 15.0413 16.9378
C 9.07763 2.23278 13.5965
H 9.15232 17.2181 13.6377
H 9.16907 1.96016 12.4939
H 10.0736 2.70559 13.6938
Si 17.5141 12.7613 2.26558
O 17.253 11.1966 2.37071
C 14.36 17.0291 1.61666
H 20.0551 16.2383 1.58947
H 14.7026 13.9301 16.8145
H 20.0938 6.17851 13.1773
C 4.88964 13.2938 13.6107
H 17.1745 4.44225 7.78842
H 2.90697 14.6436 11.4028
H 14.8206 10.667 14.9518
Si 18.0246 9.68347 2.10786
O 16.848 8.35279 2.48286
C 1.66385 13.7158 5.1982
H 6.46509 8.95949 11.3769
H 19.2475 1.86667 3.14623
H 4.51587 5.62775 11.9964
C 19.4763 9.48268 17.1835
H 18.9996 8.79667 16.5739
H 19.9728 8.81309 17.8005
H 18.7127 10.0085 17.5855
Si 16.5827 7.84058 4.21356
O 16.8052 6.11941 4.27394
C 13.8683 16.1489 17.4772
H 14.8505 7.5539 18.1668
H 5.31941 17.2536 9.31069
H 4.50737 13.5908 16.3124
C 16.973 3.47653 2.61123
H 1.98389 11.8427 6.48284
H 3.36895 16.6842 17.4302
H 14.8066 16.0314 1.69758
Si 17.3901 5.17301 2.88098
O 16.422 5.70139 1.68585
C 14.173 6.72899 17.4044
H 16.0535 1.95646 7.24793
H 14.4 6.92124 16.4755
C 17.422 4.03326 13.7968
H 17.0476 3.05245 14.2104
H 17.1655 4.78402 14.5903
H 18.4229 4.11946 13.2535
Si 15.4289 5.0552 17.7327
O 14.6187 4.75596 14.3719
C 14.6406 3.58463 16.7242
H 14.0543 3.07911 17.4823
H 5.86189 9.37006 14.4782
H 15.3423 2.89696 16.2117
C 3.67243 2.34155 8.19015
H 6.03273 2.69384 10.9548
H 1.74478 14.0488 18.0365
H 13.2327 16.4127 2.31177
Si 13.4432 3.97442 15.2478
C 12.5306 2.30635 14.9309
H 11.7928 9.97446 17.4678
H 5.71806 2.96675 4.20006
H 11.4338 2.27196 14.6404
C 4.17653 6.28299 7.77032
H 8.0702 7.57696 4.16002
H 3.32055 9.38936 2.41366
H 15.2475 8.45397 4.51992
Si 9.75152 17.1897 5.41103
O 8.89945 15.9601 6.10242
C 9.48517 17.3582 3.58559
H 1.68208 2.10281 6.05713
H 8.653 16.6862 3.41217
H 9.55357 2.06212 3.3851
C 4.82679 5.62382 10.9383
H 8.37384 3.00645 5.18166
H 3.34568 17.5539 3.50432
H 5.72055 5.03889 10.8975
Si 7.47612 16.1034 6.92464
O 7.27701 14.8435 7.95013
C 2.63751 8.79594 6.04724
H 7.55399 14.6752 18.147
H 19.9642 11.8462 11.673
H 2.38335 17.4652 16.0991
C 13.3576 15.1042 17.145
H 3.55764 10.6871 1.79001
H 6.16007 16.7092 2.57583
H 14.1745 1.98044 1.51441
Si 7.8498 13.2618 7.72404
O 7.07725 11.9865 8.56111
C 3.62269 12.122 10.6456
H 4.189 12.7857 11.3492
H 3.50489 11.2371 11.3506
H 2.81171 12.3557 10.2224
C 7.66437 12.9557 5.85326
H 8.34855 13.6347 5.31473
H 8.27686 12.0825 5.54706
H 6.71424 12.7571 5.36527
Si 6.21877 10.4276 8.29655
O 7.28028 9.20654 8.68943
C 9.72454 12.9758 8.37536
H 4.05912 7.01688 8.59555
H 10.3624 12.2447 7.8266
H 10.3019 13.8373 8.5818
C 3.25475 13.5274 1.75232
H 5.96814 5.47609 4.50409
H 5.85331 5.30262 3.88312
H 15.3236 12.7689 16.484
Si 8.86614 8.72974 8.11196
O 8.77389 7.03804 8.0427
C 9.07319 9.40418 6.48375
H 9.81231 10.2094 6.64173
H 9.37848 8.64181 5.74813
H 8.23923 9.84135 5.97923
C 10.0631 9.33896 9.24448
H 11.0778 9.02694 8.98611
H 9.90466 10.4273 9.10033
H 9.77088 9.06047 10.237
Si 8.40964 5.88479 9.13962
C 7.97006 6.63273 10.729
H 7.69296 7.69516 10.6114
H 7.06015 6.20218 11.2996
H 8.72768 6.57173 11.5392
C 7.26048 4.51401 8.14004
H 6.24994 4.43867 8.62542
H 4.36958 11.6284 9.81708
Si 13.7389 10.7898 10.0266
O 13.8482 9.35902 9.19012
C 12.4718 14.6211 2.79777
H 12.5051 14.8199 3.91751
H 20.295 9.67345 15.855
H 13.2426 14.0191 2.54057
C 13.1828 10.677 11.7677
H 13.9191 11.3583 12.2394
H 12.1964 11.0257 12.0912
H 13.3467 9.67657 12.2855
Si 14.515 9.24194 7.70279
O 13.9625 7.96109 7.01529
C 13.8484 10.4145 6.35323
H 12.7524 10.4179 6.28648
H 14.3984 11.3576 6.42682
H 14.2415 9.99867 5.38376
C 16.3611 9.03288 7.66993
H 16.8826 8.63205 8.54471
H 16.4992 8.38136 6.80386
H 16.8795 9.98642 7.3824
Si 13.0209 6.74145 6.65027
O 12.7421 5.72856 7.98378
C 13.8239 5.83335 5.26414
H 13.1027 6.11355 4.49458
H 14.8182 6.22265 5.0395
H 13.8507 4.76687 5.38581
C 11.3753 7.52603 6.24456
H 11.2822 8.07763 7.22711
H 11.6475 8.20625 5.46132
H 10.5203 6.89342 6.12293
Si 13.3147 4.75081 9.08041
O 12.1348 3.49546 9.47857
C 15.6469 6.36054 9.16006
H 16.4292 6.87067 9.61936
H 15.7663 6.72997 8.04131
H 15.7406 5.28601 8.95969
C 14.4371 3.36465 8.24022
H 15.2033 3.79382 7.66278
H 14.8551 2.31785 8.46729
H 13.6479 3.05156 7.52174
Si 10.607 3.71914 10.115
O 9.2152 3.01851 9.82371
C 10.9674 3.83781 11.7876
H 12.033 4.0528 11.6982
H 10.3173 4.49198 12.3503
H 11.0082 2.80418 12.0641
C 12.1294 16.4357 11.1882
H 5.7988 14.7826 16.5086
H 16.3048 16.5538 14.5982
H 12.1717 17.468 11.4522
Si 8.11375 2.75242 8.50568
C 6.97206 4.74733 6.65798
H 6.40282 5.70494 6.45016
H 7.86437 4.85689 6.07572
C 13.3328 11.6777 2.43154
H 13.8945 12.1354 3.23594
H 12.9191 12.5377 1.74065
H 14.1129 11.1799 1.80157
Si 2.7296 4.42003 7.83945
O 20.3798 3.6337 8.7786
C 14.3374 15.6377 5.18831
H 14.4892 15.3934 6.21204
H 14.5539 14.6808 4.81817
H 13.2619 15.91 5.04894
C 5.93846 13.3187 12.6338
H 5.26982 10.4047 9.30619
H 3.83754 8.94957 2.19033
H 4.64252 11.3428 13.401
Si 19.4134 4.10939 10.3657
O 2.51019 6.65945 10.2448
C 4.54075 2.74236 4.14333
H 3.98101 11.189 1.39759
H 18.54 14.6739 8.63568
H 8.24095 12.0088 17.3381
C 1.84062 4.71649 11.711
H 19.5145 4.7448 3.02374
H 10.4426 12.3071 5.9996
H 20.1501 16.6528 5.1071
Si 1.65754 8.11377 10.3252
O 18.3135 5.35412 10.3005
C 20.1698 9.10132 11.8645
H 2.7589 8.26486 13.3432
H 7.47624 2.77496 2.3489
H 20.0044 7.77696 13.6108
C 17.7096 13.0623 17.2469
H 18.5171 12.4884 16.6906
H 15.6849 13.4758 18.004
H 20.4278 9.40284 13.4952
Si 3.33683 4.95974 10.1462
O 19.8026 16.0819 10.148
C 5.48827 9.33724 11.8006
H 4.38504 16.8173 7.98386
H 16.0442 16.461 7.57727
H 11.0699 7.00085 11.201
C 5.56624 11.1572 3.98409
H 5.25514 11.3739 5.00204
H 12.7725 5.66584 1.84554
H 16.3878 2.59596 10.3698
Si 2.28216 3.54844 5.20367
O 2.45393 17.3134 11.7044
C 4.48312 17.5953 8.84126
H 17.7391 8.48588 4.77074
H 6.95587 14.411 3.70517
H 16.8969 2.45482 9.95536
C 16.9304 16.3648 13.6411
H 13.4898 2.0267 14.4239
H 18.6565 2.83424 10.5321
H 4.32029 13.774 2.29018
Si 2.61185 16.0255 10.8161
C 9.25198 2.48803 7.24983
H 14.7958 16.0174 10.5646
H 3.85501 3.45562 3.47106
H 14.4621 13.6309 7.79631
C 19.0643 5.72995 2.68723
H 20.2219 16.7117 2.13718
H 7.72918 14.0289 14.4751
H 20.4502 2.36658 1.7526
Si 18.3671 15.2788 10.0937
O 2.07559 15.5511 13.5803
C 18.0652 13.6431 12.4883
H 16.0051 12.6268 7.73934
H 3.52475 12.1179 5.74578
H 5.33351 15.3765 5.76373
C 18.0929 13.805 11.1364
H 17.9732 16.799 13.9847
H 9.87555 14.6685 2.15995
H 18.693 13.0654 10.6361
Si 2.22107 17.3746 13.2256
O 3.82601 17.27 13.724
C 19.7899 2.86352 18.0895
H 17.8297 2.83636 2.48686
H 5.4636 10.4635 11.8679
H 9.36346 12.6497 9.34155
C 1.98796 13.8407 2.24595
H 9.60994 2.88718 5.20172
H 16.7985 13.1992 6.68257
H 3.75055 11.6171 6.1776
Si 5.45929 17.4559 13.6351
O 5.99009 16.0935 12.796
C 6.4819 1.7438 15.3645
H 5.69702 2.21354 15.8445
H 7.65718 17.2732 15.5478
H 19.3912 6.48651 16.8578
C 5.86829 2.6389 12.0268
H 4.97716 2.77208 12.6264
H 3.88161 15.9965 10.0915
H 16.6977 1.62061 4.70004
Si 6.587 14.8751 11.8478
O 9.20835 12.5757 11.9285
C 1.68573 8.48145 13.1113
H 17.3339 3.5251 6.27593
H 6.36043 12.4061 12.087
H 17.6801 9.05085 14.8013
C 19.847 11.464 7.03738
H 20.0983 11.4102 8.15956
H 9.26907 10.2785 3.65314
H 19.044 12.2411 6.93921
Si 2.0692 5.79062 1.84968
O 3.33261 4.84348 18.4173
C 4.41599 17.3131 3.40754
H 6.60797 17.2848 8.79598
H 12.9209 13.6548 10.4375
H 13.8667 13.2594 8.03181
C 2.8144 3.9823 15.3518
H 1.79675 3.84551 15.4657
H 3.14918 5.0544 15.5686
H 3.42092 3.17073 14.9759
Si 2.84608 3.42301 17.3711
C 5.17652 2.98024 18.0371
H 10.8255 1.54913 1.57922
H 4.57947 2.22446 17.4678
H 7.73234 3.20394 18.2296
C 6.75707 8.45087 17.8308
H 7.43887 8.04521 1.87434
H 5.74858 8.31332 18.4643
Si 8.72021 14.1747 12.2684
O 9.92013 15.0022 11.5145
C 7.27798 17.4853 8.20729
H 6.72574 3.12786 12.7176
H 4.47664 9.39857 16.2135
H 19.2438 9.77186 3.30085
C 20.1532 4.96325 12.9594
H 10.2184 16.763 3.03914
H 6.63796 11.1813 4.04023
H 16.0361 2.97082 2.8845
Si 11.4887 14.8851 11.9696
O 11.5477 14.3946 13.6337
C 17.6002 17.4072 17.5166
H 2.59224 6.73043 2.98482
H 4.81812 6.6279 10.2875
H 12.1666 7.85403 3.20957
C 12.1866 13.42 11.2999
H 5.22651 8.75842 12.6457
H 2.98685 8.95174 7.00082
H 3.97334 5.80964 5.16026
Si 10.3704 14.242 14.8592
O 10.432 13.0469 15.9007
C 8.65827 14.5033 14.2038
H 8.50328 15.5854 13.9087
H 19.9068 3.82482 11.7405
H 13.4768 7.83074 11.1142
C 10.5797 15.7272 16.1755
H 9.71466 16.2906 16.468
H 13.004 7.49994 11.5953
H 10.9641 15.124 17.1143
Si 11.2648 11.6261 15.7924
O 10.7486 10.7589 14.4488
C 6.31457 15.4549 5.54218
H 12.6031 11.0376 2.7544
H 6.18424 3.96934 6.12266
H 12.7622 2.2519 16.0147
C 12.9896 11.7063 15.5759
H 13.1611 12.5441 14.8619
H 13.2903 12.0324 16.6191
Si 9.62978 9.53988 14.4546
O 10.1881 8.40998 15.5914
C 9.90048 8.90017 12.791
H 9.62381 9.7237 12.1284
H 10.9521 8.79273 12.57
H 9.51873 7.88393 12.7012
C 7.89813 10.3123 14.1356
H 7.49465 10.0834 13.1481
H 16.9054 16.9243 16.635
H 8.0993 11.4618 13.8308
Si 7.78348 4.88491 15.1882
C 6.55664 7.49752 16.7967
H 8.01083 7.43255 14.9064
H 5.70856 7.6684 16.1616
C 6.21511 5.0212 14.1573
H 5.3736 4.27509 14.2102
H 5.58789 5.86796 14.7469
H 6.3502 5.48185 13.1402
Si 16.9955 14.4531 13.8382
O 18.2408 14.6838 15.0864
C 19.3976 13.6935 4.46172
H 3.68182 16.3789 15.2135
H 4.38621 14.1812 14.178
H 7.44594 13.9247 18.2283
C 15.196 14.2126 13.721
H 14.9211 13.3794 12.976
H 14.4594 13.9293 14.5625
H 14.658 14.9668 13.2175
Si 20.1121 14.512 14.7329
O 20.0544 12.7682 14.1887
C 18.9067 2.00564 17.4773
H 4.50084 15.1406 7.45289
H 18.9035 7.75144 9.60065
H 3.66202 16.7033 3.79772
C 3.00377 16.5649 16.2734
H 11.2868 16.541 15.7748
H 12.673 16.1651 10.2015
H 4.59607 1.9174 18.5107
Si 19.0613 12.0605 12.9665
O 18.0724 10.8498 12.9305
C 6.17475 7.86979 5.52557
H 4.82533 11.6578 15.0959
H 17.4294 17.1886 6.79993
H 5.23644 10.2333 3.51017
C 12.6253 2.85546 4.35262
H 13.1073 2.2173 3.62411
H 4.71144 15.2516 2.79881
H 13.1605 3.87351 4.14172
Si 18.2151 9.61639 11.8178
O 17.1091 8.52949 12.0605
C 13.7888 10.4779 15.3695
H 13.3098 9.84008 14.6198
H 14.1973 10.0195 16.2679
C 18.1859 10.3862 9.93271
H 17.6245 11.2769 9.68327
H 19.2579 10.8339 9.83309
H 18.1567 9.55326 9.18523
Si 16.1143 8.02862 13.2372
O 15.7492 6.43045 12.9523
C 17.0152 4.54288 6.67559
H 17.6892 5.24034 6.29762
H 1.60938 4.04999 13.541
H 15.9041 4.5476 6.49659
C 16.6295 8.69836 14.8533
H 16.3147 7.96895 15.5091
H 2.0786 11.7828 16.2866
H 16.0552 9.60957 15.1002
Si 15.7496 4.77452 13.1908
C 12.1107 6.00321 14.9369
H 12.9168 6.65461 15.2037
H 12.2769 5.4892 14.0384
H 11.0873 6.43938 14.8846
C 15.0356 4.05018 11.6433
H 15.9498 4.27851 11.1283
H 15.0144 2.96568 11.615
H 14.005 4.24868 11.126
523
 Atoms. Timestep: 12000
Si 16.267 16.9451 3.22937
O 15.804 15.2467 3.47109
C 6.03618 12.2635 5.74601
H 6.36844 11.7157 6.62842
H 6.36336 12.0411 4.72607
H 17.0833 6.22307 9.54919
C 15.3168 3.07624 9.3379
H 15.9775 2.72362 8.54147
H 2.56378 16.1299 6.71899
H 6.5975 17.0921 7.07612
Si 16.7469 13.7537 3.51385
O 17.2852 12.9038 2.30347
C 16.6107 12.7874 17.5305
H 10.2845 15.5636 3.0289
H 11.7525 17.1295 8.11092
H 4.3306 17.3142 4.66132
C 3.87391 12.4662 13.7973
H 8.06628 17.1661 4.72507
H 15.7999 4.07723 9.35857
H 13.5459 11.9237 9.8198
Si 20.2639 7.06823 3.36631
O 3.01305 6.98461 4.59268
C 6.9212 9.98233 14.5671
H 4.56603 10.0795 6.50995
H 16.0731 2.09176 9.90498
H 17.5762 16.8383 2.29687
C 6.13564 16.1916 4.76947
H 12.2465 5.52231 9.88472
H 11.0477 3.14496 6.42938
H 16.1811 17.3233 6.33037
Si 19.0858 13.7175 16.6251
O 15.8136 12.6763 4.33699
C 5.91629 5.09965 2.59949
H 13.6632 13.8154 11.3558
H 4.20931 12.9406 2.04227
H 4.24286 15.168 18.4008
C 2.29372 3.27459 7.36849
H 4.95151 12.41 5.90487
H 4.92274 13.7493 3.72308
H 16.3493 1.80868 12.905
Si 18.8872 3.26998 5.7846
O 2.3446 8.71893 6.8138
C 2.60411 14.847 16.9209
H 5.52944 6.96818 6.95176
H 3.16437 12.8427 12.9634
H 19.1068 13.1256 6.18817
C 4.4253 4.42491 5.80304
H 5.75504 7.29428 3.80488
H 1.71035 15.186 4.38502
H 13.0975 14.9413 16.7536
Si 3.43861 8.21078 5.87799
C 3.64937 5.48468 6.54506
H 4.16124 3.69065 5.177
H 11.7585 10.8369 11.2835
H 4.72601 4.40697 12.08
C 18.2798 14.3736 4.24269
H 13.6151 14.1329 18.263
H 10.146 7.33212 10.5649
H 6.26134 15.5008 10.4647
Si 6.62895 10.2601 16.4309
O 8.07475 10.867 17.719
C 18.0371 16.2536 8.55077
H 4.46693 10.3646 4.8954
H 14.8566 7.23958 7.93528
H 11.7887 6.19284 2.0561
C 7.63504 16.3312 5.23394
H 3.62627 6.38853 14.794
H 8.59323 12.2998 10.9347
H 17.6695 12.6393 7.02985
Si 9.67807 9.96435 18.2906
O 9.28234 8.35809 18.2245
C 9.84001 10.3236 3.1102
H 9.55802 11.2262 3.67776
H 10.9164 10.2705 3.48792
H 9.70611 17.096 2.37605
C 11.3239 10.5675 17.6698
H 11.9312 11.3258 18.4132
H 12.7495 12.5866 11.9459
H 15.1706 16.7879 11.419
Si 8.95008 7.58343 16.7604
O 10.1338 6.28219 16.8615
C 7.31365 6.81974 16.2947
H 20.2723 8.34088 6.92244
H 19.8136 10.2211 10.9038
H 13.5161 15.7459 4.873
C 13.8642 14.6029 8.49619
H 13.9739 13.7799 7.74742
H 13.78 14.044 9.41796
H 14.5705 15.4062 8.28366
Si 11.5896 5.66752 16.5215
O 11.7387 3.99213 17.0238
C 8.87582 6.57542 3.35575
H 7.69754 6.48408 2.84202
H 9.91241 6.77627 2.9476
H 9.19966 5.74156 3.97315
C 12.7984 7.10459 16.903
H 12.4011 7.85567 16.0358
H 15.1485 8.61584 14.3332
Si 10.4831 3.08839 17.8412
O 8.90944 2.87363 16.7418
C 4.74954 4.25445 17.214
H 12.7972 15.4308 4.81243
H 2.66786 11.1677 17.3127
H 4.14632 5.07372 17.9785
C 9.75988 2.5084 5.18656
H 4.55784 7.47847 12.5934
H 17.8366 10.7014 5.87831
H 11.5055 4.40027 2.49341
Si 8.55142 3.24013 15.133
C 7.72753 13.5507 17.9036
H 6.96652 13.3064 17.0411
H 8.45003 6.26347 14.0003
H 7.71359 14.6362 17.9682
C 9.29899 3.01263 13.1525
H 10.2332 3.41509 13.4054
H 9.45235 1.72104 12.6874
H 8.60639 3.73689 12.7168
Si 18.9376 12.8623 3.19206
O 18.492 11.0103 3.17369
C 14.4336 17.0124 18.2196
H 19.2747 16.5555 2.5156
H 14.2758 13.8531 1.49104
H 4.29631 4.14386 12.4354
C 5.03851 13.5097 13.7422
H 16.9488 6.42263 6.77747
H 3.71579 14.5038 9.97679
H 15.2141 11.3653 14.6117
Si 17.4949 10.7034 4.56472
O 16.3904 9.53308 4.27712
C 19.8397 13.8471 6.13582
H 6.01717 8.08178 11.6177
H 18.3319 2.30814 6.82063
H 4.94923 4.26621 9.31753
C 20.088 7.52347 16.5564
H 1.81204 6.62378 16.9326
H 1.54874 8.75522 16.4155
H 19.3584 7.51448 17.5028
Si 15.8921 8.77009 2.49369
O 16.667 7.40622 2.75362
C 13.0765 17.345 16.9988
H 14.9151 7.97395 16.7726
H 4.85661 1.3433 7.56793
H 8.80835 13.1352 17.7839
C 15.8621 4.77734 3.62105
H 17.1397 14.2894 6.33961
H 1.63563 14.9222 1.72744
H 14.6001 1.92757 17.9384
Si 16.9496 5.8755 2.6565
O 16.3171 5.64544 18.3889
C 14.2347 6.96228 16.439
H 18.0444 17.0342 9.32906
H 14.5576 6.91786 15.3406
C 18.3108 4.45963 13.2451
H 19.0838 4.73989 13.9237
H 18.5488 5.07092 12.3259
H 18.0191 3.45401 13.0596
Si 15.1864 5.36998 17.0208
O 15.5896 4.10454 14.3701
C 14.4563 3.68053 16.6772
H 13.5233 3.30907 17.0198
H 6.03141 10.0973 13.8865
H 15.0676 5.35175 4.11749
C 3.14145 2.31937 7.65214
H 5.46436 2.78671 12.1551
H 18.5205 14.814 3.23671
H 1.82605 13.9739 6.55735
Si 14.6985 2.72637 14.9612
C 13.0085 2.49913 14.2456
H 11.7806 9.59729 17.4815
H 5.96975 1.82689 6.74398
H 13.4552 2.00057 13.1628
C 4.44139 6.90778 6.92575
H 6.4403 4.66506 1.83722
H 20.0783 11.0584 8.52558
H 16.305 9.77724 1.42215
Si 10.3702 17.2537 7.52365
O 9.90643 15.6373 7.07822
C 4.79964 15.7948 17.6959
H 4.87535 3.99192 6.57132
H 5.81978 15.7116 17.0436
H 3.71749 16.6665 17.974
C 5.19992 5.13362 9.81907
H 10.4773 1.829 4.93781
H 4.68428 14.2276 7.70269
H 4.99627 6.10557 9.4181
Si 8.33886 15.6876 7.82889
O 8.18365 14.2259 8.44185
C 4.75216 9.64473 5.4761
H 8.58521 13.3902 4.46784
H 19.6338 12.453 11.1687
H 3.08622 12.9898 4.50767
C 13.1382 16.0495 16.8814
H 3.59127 9.68461 15.5958
H 5.34242 15.4667 5.27592
H 15.2271 3.03399 17.1487
Si 8.82211 12.7679 7.98055
O 7.88423 11.7022 9.05199
C 4.2337 11.6914 9.49371
H 4.56179 12.8059 9.4452
H 4.93153 11.2434 8.69508
H 4.06131 11.6272 10.5706
C 9.10183 12.1309 6.37262
H 11.1054 13.8527 5.37119
H 8.43327 11.3962 5.83836
H 10.201 12.1583 6.17973
Si 6.84588 10.5254 9.38114
O 6.64686 9.27301 8.30127
C 10.486 12.9251 8.87557
H 4.16705 7.40628 7.90147
H 10.236 13.8341 9.52567
H 10.8579 12.0379 9.43272
C 1.83197 12.1384 3.17146
H 14.2482 16.3114 16.1861
H 7.10428 1.99089 2.91336
H 15.7809 13.4861 17.2693
Si 7.72077 7.9948 7.78879
O 7.28004 6.53464 8.41717
C 7.79383 7.90965 5.90793
H 8.50619 7.11886 5.74731
H 6.91824 7.53728 5.42953
H 8.15599 8.7239 5.26016
C 9.24125 8.63963 8.56033
H 9.52889 9.66399 8.37445
H 9.22795 8.49941 9.63649
H 10.0579 7.99557 8.15088
Si 7.05059 5.16447 9.4026
C 7.80689 5.32567 11.0589
H 8.90924 5.28309 11.0051
H 7.62252 6.33611 11.4884
H 7.35671 4.64733 11.8405
C 7.38288 3.67844 8.39376
H 6.7172 2.84088 8.64129
H 3.29322 11.9869 8.75503
Si 12.9834 10.6663 10.4285
O 12.2275 9.84108 9.18006
C 10.5395 16.5289 2.79535
H 10.7945 16.9535 3.77507
H 19.2633 7.1693 15.5929
H 11.4119 16.5405 2.06147
C 14.3329 10.0505 11.4905
H 13.9971 9.71426 12.4921
H 14.7048 9.08032 11.1406
H 15.1607 10.68 11.8283
Si 12.4736 9.18563 7.65175
O 12.2005 7.56247 8.05515
C 11.1867 9.87024 6.53953
H 11.727 10.338 5.69942
H 10.5327 9.06656 6.19408
H 10.6184 10.5882 7.14658
C 14.0035 9.82439 6.80587
H 14.974 9.65271 7.21683
H 14.1148 9.39464 5.7811
H 13.8569 10.9096 6.64331
Si 12.7014 6.19344 7.16508
O 13.6791 5.08386 7.96148
C 13.504 6.77339 5.58597
H 12.8628 7.62659 5.3862
H 14.5091 7.14676 5.95609
H 13.699 5.94544 4.89837
C 11.2511 5.37419 6.62902
H 10.701 5.94202 5.89906
H 11.5015 4.44787 6.15366
H 10.6449 5.17042 7.52964
Si 13.8394 3.468 8.0937
O 12.8479 2.94552 9.35713
C 15.4465 7.15269 8.78998
H 15.1071 6.31861 9.53123
H 15.2613 8.21185 9.26303
H 16.5403 6.98667 8.54972
C 13.9083 2.41809 6.68192
H 13.0577 2.75235 6.04038
H 14.9002 2.73049 6.22186
H 13.4349 1.34302 6.95744
Si 11.6896 3.99747 10.0438
O 10.2649 3.91221 9.20925
C 11.8682 3.68819 11.8729
H 12.9508 3.69623 11.9121
H 11.5312 4.43584 12.6451
H 11.5188 2.63725 11.8885
C 12.2226 16.4535 11.9911
H 7.97399 12.8781 1.80533
H 17.8601 17.688 14.0814
H 12.5918 17.284 12.6254
Si 9.10145 2.7771 8.58502
C 7.31596 4.19695 6.89615
H 6.34512 4.68108 6.73341
H 8.12152 4.91659 6.67138
C 13.1569 11.6869 3.36797
H 12.9742 12.8018 3.46271
H 14.0342 11.4635 2.83258
H 13.4161 11.3092 4.48641
Si 2.39084 5.03145 7.79453
O 20.0033 6.05715 8.46484
C 15.4982 16.6478 6.07642
H 15.587 15.8147 6.91599
H 15.8578 16.0563 5.36198
H 14.6065 17.0006 5.93198
C 5.59079 13.7227 12.4714
H 6.43764 10.5314 10.8318
H 19.9425 10.7525 9.19015
H 4.36525 11.5546 13.3908
Si 19.1281 5.01114 9.50157
O 2.4469 7.46419 10.1594
C 6.05956 1.91476 3.43124
H 3.79177 9.26393 15.0357
H 19.5439 13.5777 8.45485
H 8.13892 11.7286 18.145
C 20.3778 4.48538 10.8296
H 19.2603 5.41601 4.41575
H 12.8693 15.0271 8.1945
H 1.76024 16.109 6.8329
Si 20.2736 7.81502 11.3551
O 17.4422 5.24399 9.43726
C 19.7381 9.41618 11.7566
H 2.1564 10.6051 13.2009
H 16.199 13.0233 7.77786
H 2.18558 8.72346 12.4323
C 17.6731 12.7826 16.6263
H 17.9238 12.0601 15.8397
H 16.6938 11.6939 18.0187
H 20.1135 8.98781 13.6046
Si 2.77102 5.56693 10.1251
O 20.0067 15.2496 10.1753
C 5.20529 8.28483 12.2442
H 3.36483 16.7646 8.40846
H 17.0214 16.4578 8.19137
H 10.4107 6.75359 10.9502
C 4.77256 12.1618 1.47086
H 5.9153 12.1732 1.8355
H 12.9515 7.52778 18.0654
H 15.7968 4.38008 6.72096
Si 18.72 2.48543 3.55606
O 3.28803 15.5763 12.2394
C 3.77622 17.7078 7.94676
H 14.3751 8.56352 2.76693
H 7.88644 15.3188 4.88081
H 16.2416 4.68708 7.27816
C 17.1628 17.522 13.2573
H 12.8474 1.5762 14.8831
H 19.2823 3.56934 8.66543
H 2.25967 11.3628 3.8068
Si 2.69094 15.5431 10.6109
C 9.94593 2.46125 6.60633
H 14.684 2.34322 9.99733
H 5.46246 2.94441 3.47592
H 13.1212 16.3502 11.3243
C 18.8749 5.88247 3.28499
H 19.5608 8.31044 4.19546
H 8.11969 13.2613 14.5382
H 3.17957 3.92313 2.76782
Si 18.7003 14.5813 9.28605
O 1.98827 14.8765 14.2966
C 17.6025 14.2635 11.8409
H 14.6883 17.2811 11.0651
H 6.97011 9.86435 2.55539
H 6.37967 15.7077 6.91582
C 17.3978 14.1275 10.4711
H 17.9074 17.3746 12.5278
H 5.49307 14.3965 4.03383
H 16.2874 13.9923 10.157
Si 3.57216 15.0911 14.0483
O 4.64363 16.1379 14.5647
C 2.39151 3.21633 2.32162
H 15.3772 3.86544 3.00965
H 4.49884 8.95206 11.7369
H 11.2914 13.3274 8.21569
C 2.43025 13.1556 3.83559
H 9.06409 2.92561 4.48122
H 15.9649 12.5069 5.34131
H 6.622 9.39645 2.92178
Si 5.81665 17.237 13.5255
O 6.99081 16.3249 12.6321
C 6.83655 1.89542 15.0908
H 6.80725 17.064 14.9559
H 5.96205 1.92588 15.948
H 19.3614 4.0409 16.9373
C 4.87665 1.80342 12.0024
H 4.53843 1.89795 10.8191
H 3.16944 16.9023 10.5062
H 17.797 2.16917 5.83935
Si 6.61222 15.0457 11.7558
O 8.51846 12.4136 11.8926
C 1.76248 9.62644 12.911
H 16.7827 7.13871 5.23161
H 5.2091 13.1896 11.5325
H 17.4976 8.63827 16.5598
C 16.855 13.3808 7.02379
H 18.5975 8.20162 8.24654
H 9.37265 9.68114 3.78278
H 18.4408 8.56984 8.91348
Si 19.4414 4.52343 2.17882
O 19.5903 4.72716 17.6553
C 5.54766 17.1261 4.07074
H 9.17124 17.0536 10.2583
H 13.5017 13.5175 13.0583
H 11.349 16.9567 10.9069
C 19.81 2.74002 15.5752
H 18.8481 2.28703 15.5899
H 20.0155 3.17773 14.6188
H 20.414 1.86082 15.4775
Si 2.20931 3.14722 17.6745
C 3.89463 3.22583 17.114
H 15.3149 16.8861 17.3008
H 4.41506 2.49459 16.2362
H 5.35196 4.46873 16.4251
C 5.77435 8.64262 17.0467
H 5.42579 4.69156 3.46926
H 5.45188 8.67718 18.1808
Si 8.68273 13.9896 12.3029
O 10.1224 14.4917 11.9207
C 8.95333 17.3417 9.0163
H 3.8806 2.10113 12.3456
H 3.68892 7.13352 14.6645
H 20.2554 8.02745 2.19202
C 1.5893 3.20607 11.4764
H 5.18888 16.5768 1.85304
H 4.71231 12.2571 17.4552
H 16.4557 4.18877 4.33984
Si 11.6081 14.6896 12.5647
O 11.4283 14.5406 14.2023
C 19.8271 17.6373 2.40557
H 17.8861 4.14516 5.78671
H 5.36847 5.08094 10.9032
H 8.76938 7.48948 3.99341
C 12.9937 13.6046 12.1623
H 5.45131 8.7001 13.2043
H 5.82073 9.34793 5.21473
H 5.09293 5.1496 5.40391
Si 10.2038 14.3441 15.2397
O 10.5664 12.9584 16.1128
C 8.67789 14.1561 14.28
H 7.9989 14.9767 14.3803
H 2.32416 3.08201 12.2824
H 12.5275 7.85014 11.2805
C 10.0991 15.7941 16.4743
H 10.4293 15.9424 17.4636
H 13.0069 7.41922 11.6734
H 10.5411 16.6617 16.0062
Si 11.4932 11.5283 16.1556
O 10.9832 10.7739 14.7255
C 7.26866 16.2837 6.74718
H 12.3621 11.0404 3.02725
H 7.29859 3.38888 6.21546
H 12.3064 3.3239 14.1419
C 13.4252 12.0588 15.9019
H 13.503 13.1764 15.6492
H 13.7652 11.9696 16.9613
Si 9.88174 9.45834 14.5005
O 9.57758 8.71166 15.8958
C 10.5901 8.57355 13.1038
H 11.6091 8.55306 12.8483
H 10.1857 7.58006 13.2672
H 10.0064 9.02043 12.279
C 8.29223 10.1357 13.8016
H 8.36496 9.62773 12.8516
H 2.97377 17.676 3.29431
H 8.50998 11.1223 13.4746
Si 7.33018 5.68805 14.8699
C 6.01765 7.33832 16.6508
H 6.80651 8.96785 14.7619
H 5.19891 6.46931 16.4176
C 5.60088 5.27883 14.0126
H 5.99325 4.66196 13.1597
H 4.87517 4.71008 14.6205
H 5.0197 6.08256 13.5675
Si 16.9392 15.6438 13.3402
O 17.8965 15.1879 14.5273
C 19.8117 14.4134 4.84729
H 2.13941 15.7099 16.2761
H 5.72744 13.6734 14.5375
H 10.7468 14.55 5.35859
C 15.2158 15.2403 14.0789
H 15.0508 14.1802 14.3939
H 15.2176 15.8842 14.9779
H 14.3691 15.6177 13.5547
Si 19.2251 14.2748 14.5669
O 19.6477 12.9965 13.5709
C 2.20932 1.72022 2.75917
H 6.31618 13.2547 5.91796
H 19.1321 7.05691 11.9624
H 3.61731 6.82817 3.82584
C 1.62824 14.2555 17.7343
H 8.98978 16.1246 16.6521
H 15.6003 1.73177 3.28171
H 7.7794 13.388 3.4971
Si 18.6645 12.7847 12.3344
O 17.8723 11.3736 12.5991
C 6.08001 6.398 2.94325
H 3.25603 12.2025 14.7587
H 18.5851 16.4062 7.75079
H 4.29299 11.1825 18.3485
C 12.0494 5.41414 2.7377
H 11.8593 5.42182 3.76665
H 4.438 14.2988 8.51508
H 13.143 5.33905 2.87975
Si 17.851 9.84894 11.8022
O 17.0494 8.95663 12.9101
C 14.1431 11.194 14.9273
H 13.56 11.0836 13.9829
H 14.2163 10.1271 15.2809
C 17.0147 10.1865 10.1185
H 15.9959 10.3304 9.78936
H 17.6865 10.899 9.6282
H 17.3901 9.44399 9.43382
Si 16.6926 8.26626 14.3274
O 16.8911 6.5854 14.6062
C 17.3021 7.26484 6.17614
H 18.3299 7.25169 5.99782
H 20.0667 2.59486 10.5581
H 16.817 8.17828 6.53125
C 17.3239 9.39079 15.792
H 16.4193 10.0236 15.9991
H 2.54669 11.6344 17.6412
H 18.0283 10.1345 15.5447
Si 16.643 5.2366 13.6919
C 11.8972 5.50504 14.7656
H 11.0079 5.17991 14.1326
H 12.2809 6.45713 14.4185
H 12.6863 4.82288 14.4655
C 15.5078 5.50896 12.1816
H 15.6961 6.4337 11.4869
H 15.7131 4.55396 11.6464
H 14.5895 5.62582 12.7929
523
 Atoms. Timestep: 12500
Si 18.1788 15.6611 2.16014
O 17.6377 14.0598 2.61953
C 5.74045 11.3556 2.54021
H 5.44389 12.4834 2.55779
H 5.38013 10.7967 3.44398
H 17.3287 6.37026 9.51911
C 16.0683 1.63154 11.3805
H 15.6301 2.13703 12.2114
H 2.96404 17.243 6.36737
H 5.89334 16.5332 9.70649
Si 18.113 13.6405 4.18617
O 19.3088 12.4535 4.2303
C 18.1977 10.771 17.0661
H 11.6649 13.3103 4.4056
H 10.8282 16.2044 7.21337
H 7.44947 1.50979 3.14187
C 3.88267 12.8692 12.0565
H 6.52512 1.48675 4.94252
H 15.3818 17.9234 10.6676
H 12.1049 11.4229 10.6925
Si 20.3681 7.76182 1.75493
O 5.04027 7.01103 5.63582
C 6.68996 11.062 16.4209
H 3.93765 9.88462 6.34387
H 16.0174 17.1622 11.8846
H 20.6431 16.4214 4.33075
C 6.67988 16.1023 4.20128
H 11.3396 5.31761 10.927
H 9.7267 2.23255 5.85912
H 15.4824 1.56623 4.89052
Si 19.8576 13.0282 17.3025
O 16.7091 12.9888 4.40118
C 5.99289 4.32745 18.2896
H 13.2551 13.8739 13.2087
H 5.14396 15.2917 16.3753
H 6.4415 17.3263 18.133
C 2.32157 2.83477 7.16824
H 5.39422 10.868 1.66951
H 16.4256 3.18271 2.06146
H 17.4019 1.2602 13.0714
Si 20.4313 1.41112 6.32338
O 2.95939 8.22437 4.3554
C 19.6771 14.6713 18.337
H 3.18622 6.29661 7.68409
H 4.1626 11.9486 12.4794
H 18.8926 12.4555 8.08256
C 2.89856 4.56131 4.86841
H 6.79882 6.00909 2.4936
H 19.2996 14.696 7.54046
H 13.7427 16.5422 17.7536
Si 3.45513 7.71556 5.82815
C 2.21594 5.3201 6.07235
H 2.59299 3.35771 4.97801
H 10.0316 10.1876 10.0121
H 20.3474 4.22151 13.3969
C 18.8204 14.6407 5.45042
H 13.5779 9.42614 1.65561
H 9.93046 6.7091 12.5377
H 8.1561 15.8343 10.7131
Si 6.66943 9.56155 17.5064
O 7.5461 9.75545 1.63546
C 18.223 17.6234 8.80831
H 3.081 9.40907 7.93736
H 15.1757 7.12888 9.86765
H 12.7249 2.05732 2.58197
C 5.94048 16.9833 4.88192
H 1.7069 10.4738 15.3102
H 9.4968 12.3656 11.8167
H 15.7948 11.5819 6.68808
Si 9.13483 9.45509 18.3963
O 8.31743 8.39799 17.1345
C 9.90534 8.37081 2.40264
H 10.6192 9.07671 2.8565
H 10.284 7.51437 1.91729
H 10.745 14.5909 5.51497
C 10.1424 10.6602 17.7959
H 7.87819 13.1383 1.75743
H 14.1296 14.9516 11.9693
H 16.5642 14.9157 10.7903
Si 8.34176 7.43875 15.7413
O 9.83257 6.75515 15.5654
C 6.91679 6.44332 15.9315
H 2.42166 7.54545 3.71785
H 17.9832 8.77338 11.1297
H 13.8306 16.87 5.80703
C 13.263 16.47 8.73124
H 13.2646 15.8713 9.63711
H 12.3194 16.1312 8.25016
H 13.3943 17.5581 8.89056
Si 10.7665 5.60391 15.9393
O 10.052 4.48008 16.9408
C 9.05986 4.41014 3.27815
H 8.60589 5.22503 3.7061
H 9.81227 4.49933 2.43128
H 8.17829 3.85208 3.0019
C 11.9492 6.05195 17.0517
H 11.6843 6.59425 17.851
H 13.8395 8.60996 14.1338
Si 9.83927 2.70198 16.4597
O 9.32656 2.38723 15.0149
C 3.03037 4.5118 15.8372
H 14.5515 16.4744 5.59872
H 17.6777 10.9909 3.05381
H 3.05706 5.48904 14.9045
C 11.9104 2.76306 6.66345
H 5.1443 8.60031 11.9109
H 18.9971 7.19497 4.65724
H 11.3633 3.08557 2.37213
Si 8.03496 3.10337 14.3418
C 9.10221 11.0635 4.01232
H 9.82121 10.2857 4.62489
H 8.30041 5.78988 13.6243
H 9.03239 10.9402 2.95993
C 8.76619 3.02578 12.2321
H 9.69423 2.23836 12.3345
H 8.11945 2.40235 11.4656
H 9.1478 4.04836 11.903
Si 19.2068 11.11 3.22865
O 19.708 9.85091 4.17416
C 14.587 15.3789 3.35276
H 3.56914 13.8172 3.09735
H 14.2447 10.0183 1.50323
H 20.4032 3.6792 13.9453
C 4.90543 13.8818 12.5441
H 16.4032 5.33752 5.61119
H 2.94017 15.0549 9.82277
H 13.5453 11.1971 13.5976
Si 18.8525 8.58903 4.92908
O 17.1668 9.07064 4.91964
C 19.0097 12.8308 7.24143
H 3.90321 9.33088 13.0765
H 19.2026 1.48655 5.34935
H 5.13785 3.84815 9.66115
C 18.7764 8.31697 14.9832
H 17.7214 9.00159 14.7851
H 18.8212 7.14465 15.1733
H 20.09 17.385 3.27592
Si 16.1622 9.08748 3.60911
O 16.5101 8.76976 1.89443
C 14.783 15.4069 2.03412
H 13.3751 7.48556 17.3519
H 5.94994 2.30515 7.58706
H 10.0232 12.8039 4.76928
C 15.8925 6.03513 3.09334
H 14.9561 13.3113 6.74028
H 17.7906 14.8002 17.1459
H 14.423 16.3956 3.94138
Si 16.963 7.09331 1.66991
O 15.7701 6.78264 17.6028
C 13.2612 6.71456 16.6972
H 18.3517 2.21798 9.22684
H 13.2534 7.06826 15.687
C 17.7611 5.02618 13.4789
H 18.0646 4.73324 12.4325
H 17.7435 4.01408 13.9418
H 18.7349 5.43965 13.8485
Si 14.9256 5.8474 16.5901
O 15.347 5.53733 14.9827
C 14.7398 3.94135 17.2013
H 13.6108 3.60504 16.7864
H 7.7143 11.5452 16.4184
H 14.8441 6.15763 2.93508
C 3.62945 2.7518 7.33322
H 5.54783 2.89089 12.9349
H 14.7072 12.121 7.83985
H 19.3302 11.976 6.33736
Si 16.1603 3.15755 16.4256
C 15.6999 17.6857 16.9017
H 10.3212 11.716 18.5238
H 6.26041 15.0964 9.25031
H 15.5835 17.1746 15.9352
C 2.60521 6.66004 6.84186
H 6.98145 3.94651 18.2751
H 3.46439 8.34577 9.61815
H 15.8448 10.5304 3.93419
Si 9.65347 17.1642 7.14075
O 8.4783 16.1063 6.56846
C 5.46654 17.4394 18.4698
H 4.09849 4.49684 5.07254
H 6.92144 17.6453 15.7274
H 4.91183 16.7893 17.7955
C 5.03882 4.93632 9.48744
H 12.2403 3.23762 5.66177
H 2.89543 13.2781 5.4072
H 4.63437 4.95804 8.43722
Si 7.88818 16.1406 8.13663
O 8.41586 14.6685 8.85352
C 3.09059 9.2156 6.85704
H 8.08249 11.6277 4.33641
H 19.9183 12.4427 11.603
H 4.75195 8.91059 15.5721
C 14.1705 15.3437 18.1446
H 3.27349 7.06122 14.4511
H 6.68698 15.1933 4.77083
H 14.6799 3.37669 18.2142
Si 9.01142 13.0098 8.86947
O 8.40957 11.8958 9.87554
C 4.06137 12.9865 8.09481
H 3.4353 13.7152 7.63671
H 3.73303 13.3177 9.16622
H 3.8366 12.0344 7.80068
C 8.50692 12.4672 7.18981
H 13.3517 14.1771 7.4488
H 8.54838 11.5091 6.72124
H 9.2755 12.8913 6.53174
Si 7.20221 10.9406 10.4897
O 7.33595 9.72345 9.42297
C 10.9106 13.4652 9.02823
H 1.73666 7.20154 7.2999
H 11.4262 12.7935 9.73698
H 11.5369 13.5121 8.13957
C 20.2701 11.014 1.76197
H 14.336 14.8236 17.1418
H 8.64886 17.0962 1.76376
H 17.5526 10.6277 17.9328
Si 7.45586 8.57999 8.26082
O 6.47355 7.25736 8.21336
C 7.20166 9.37769 6.55183
H 7.16535 10.4573 6.49369
H 7.98245 9.01023 5.86262
H 6.24364 9.17936 6.0882
C 9.29238 8.0288 8.47429
H 9.95992 8.58205 7.80896
H 9.73935 8.08221 9.48178
H 9.46008 6.98831 8.1766
Si 6.61691 5.6624 8.97713
C 7.82193 6.17202 10.3081
H 7.35314 6.39783 11.2633
H 8.32722 5.28758 10.7645
H 8.62408 6.79033 10.0444
C 7.52503 4.36001 7.82207
H 6.83629 3.54107 7.83978
H 5.17677 13.1861 8.31148
Si 11.5094 10.1464 10.2701
O 12.2516 9.8331 8.78424
C 11.3354 13.7097 5.34929
H 11.0001 12.9375 6.03462
H 1.7467 7.17094 17.6704
H 12.2416 14.1833 5.86186
C 11.7355 8.94053 11.7013
H 12.522 9.40788 12.3012
H 10.8384 8.75043 12.3108
H 12.064 7.91998 11.5869
Si 13.0014 9.5392 7.31839
O 12.4767 8.0249 6.89973
C 12.4167 10.9047 6.17903
H 12.2264 10.6233 5.13481
H 11.4126 11.1505 6.56257
H 13.0999 11.7984 6.20041
C 14.7859 9.13198 7.27931
H 15.0688 8.23245 7.86075
H 15.1237 8.80729 6.26774
H 15.5284 9.90709 7.55463
Si 12.1882 6.67046 6.00777
O 13.2612 5.46721 6.53069
C 12.7273 6.91354 4.23201
H 11.9777 6.15073 3.91403
H 12.4018 7.84562 3.73299
H 13.7387 6.51096 4.20606
C 10.4714 6.12622 6.18855
H 10.3654 5.19988 5.56601
H 10.0928 5.80549 7.16321
H 9.8259 6.87607 5.72037
Si 12.9586 4.05601 7.46787
O 12.1197 4.59418 8.7875
C 15.0679 7.94328 10.5452
H 15.7576 7.72961 11.3431
H 13.93 7.93778 10.7883
H 15.3731 8.88061 10.0531
C 14.6726 3.35743 7.67719
H 14.8779 3.34634 6.59106
H 15.2754 4.11003 8.1675
H 14.748 2.41403 8.28927
Si 11.3651 4.162 10.0758
O 9.96565 3.54363 9.47346
C 12.2044 2.7103 10.9508
H 12.357 1.88489 10.1903
H 13.0159 3.06461 11.5695
H 11.4222 2.34904 11.6863
C 12.7364 17.4109 14.0551
H 10.0575 11.7912 4.55861
H 17.7094 1.49043 14.881
H 12.6992 17.7967 15.1735
Si 8.99626 3.10402 8.14248
C 7.38687 4.64456 6.22021
H 6.78965 5.52421 6.05882
H 8.31075 4.83133 5.62577
C 12.3792 12.563 2.32608
H 12.604 11.9991 1.39572
H 13.1171 12.3082 3.1389
H 12.3871 13.7013 2.28219
Si 20.3252 4.52887 7.50761
O 18.7166 4.61728 7.9004
C 15.5761 2.65721 4.65643
H 15.7633 3.35997 5.51158
H 14.9394 2.8893 3.83102
H 16.6339 2.89328 4.49169
C 5.88597 14.2587 11.4588
H 5.72638 11.4173 10.621
H 4.34695 8.27897 9.35037
H 2.94297 13.4195 12.1688
Si 19.0357 4.87328 9.53487
O 20.3924 6.6133 12.5553
C 8.81381 16.4757 2.68593
H 3.05574 7.76056 14.0201
H 19.7909 15.2488 8.55836
H 7.37815 9.45401 2.75128
C 1.96385 4.32572 9.52217
H 18.6832 6.33528 2.42108
H 14.1463 16.1415 8.18461
H 18.3342 15.6657 5.36694
Si 19.8814 7.93453 13.3671
O 17.9289 5.87284 10.1882
C 18.1537 9.74717 11.301
H 18.2024 10.2044 10.356
H 16.3464 13.1561 7.80871
H 20.317 9.99345 11.4442
C 18.339 11.9937 16.5862
H 17.6516 12.2236 15.797
H 19.0947 9.8146 16.9032
H 19.4351 10.0045 13.234
Si 2.20624 5.96105 11.1994
O 1.69949 17.3288 10.3034
C 4.09304 8.84183 12.1147
H 5.25684 17.5985 6.89458
H 17.3025 16.9185 9.48321
H 10.3493 6.59484 11.936
C 5.04133 14.3801 17.0686
H 3.91222 13.9991 17.382
H 11.9237 4.98081 17.6338
H 18.9827 3.93969 4.10933
Si 2.03296 1.57155 1.8321
O 2.61295 15.8141 12.335
C 4.85491 2.04737 7.28066
H 15.0159 8.3375 4.05492
H 4.817 16.7564 5.1463
H 18.2422 3.80223 4.42566
C 18.1165 17.5593 13.9335
H 16.4004 17.4704 17.7535
H 18.7664 3.52151 10.2199
H 2.2534 10.2678 1.61458
Si 3.03459 16.3625 10.7708
C 10.2145 2.56394 6.73328
H 17.1582 2.04899 11.3467
H 9.68882 16.4369 3.41511
H 13.6781 17.2675 13.9667
C 18.8159 6.52025 18.6229
H 1.97718 6.54673 2.63005
H 8.43868 13.0551 14.9085
H 6.07535 4.40828 3.01486
Si 19.3991 16.4172 9.59606
O 3.24363 14.5651 14.698
C 18.631 14.6528 12.4178
H 16.133 15.1623 10.2509
H 6.97028 7.55596 3.7454
H 5.2078 16.2509 8.36597
C 18.9948 15.0471 11.0679
H 19.1649 17.5676 14.0559
H 17.0985 3.28381 1.70283
H 19.0611 14.2263 10.3306
Si 3.87066 15.2507 13.35
O 4.89669 16.2178 14.0662
C 2.20526 16.8409 3.35199
H 16.0185 4.94986 3.46503
H 3.77249 9.58407 11.3475
H 10.9229 14.4348 9.52785
C 1.85415 12.2509 18.3414
H 12.4306 1.7714 6.76644
H 16.9024 12.42 5.15487
H 6.59661 8.25364 3.69065
Si 5.9765 17.346 13.5157
O 7.15463 16.4571 12.9709
C 6.6296 1.57838 14.8955
H 5.39696 2.19324 14.6748
H 8.74054 2.4157 17.4968
H 17.2369 6.10372 16.7529
C 5.04679 2.16534 12.3555
H 5.47267 1.99014 11.2012
H 4.3192 16.9837 10.9107
H 2.50718 14.5088 1.59452
Si 7.38871 15.1976 11.9341
O 9.99357 12.9937 12.3501
C 19.4598 9.55909 12.0041
H 16.7337 6.87505 6.3719
H 5.86325 13.7551 10.4531
H 15.5563 9.39241 16.6659
C 15.5674 12.5586 7.24579
H 18.8428 10.391 8.22653
H 9.06319 8.04581 3.14689
H 1.82899 5.38017 9.50916
Si 18.9777 5.0078 17.527
O 17.8731 5.28905 16.2537
C 7.57699 16.8622 3.35848
H 8.26383 17.5236 9.85464
H 12.6383 14.0528 11.6278
H 12.2054 1.83828 13.4858
C 2.42635 17.5784 17.3445
H 3.12342 16.1875 17.082
H 1.46625 16.9197 17.1815
H 4.8656 3.40325 18.4058
Si 3.8034 1.97154 17.3436
C 3.46701 3.07221 15.6638
H 14.7273 14.5638 3.84379
H 3.06473 2.24521 14.9929
H 2.5203 4.7388 16.985
C 5.48536 8.1961 17.209
H 5.37931 4.66204 17.3682
H 4.575 5.56742 2.7651
Si 9.27092 14.4586 12.8404
O 10.4379 15.6319 12.5751
C 8.51202 1.35978 8.75745
H 3.83499 2.28873 12.547
H 2.50418 10.5086 15.6008
H 5.54367 7.14387 17.7744
C 2.67931 3.9241 10.5303
H 5.64663 2.11073 18.1501
H 5.65354 14.954 17.7976
H 16.0605 6.71452 4.01923
Si 12.0226 15.7618 13.523
O 11.6824 15.0025 14.9518
C 2.86141 14.6602 2.6417
H 20.014 3.33362 2.06706
H 4.48269 5.44295 10.2131
H 9.68905 3.90878 4.1511
C 13.1364 14.6032 12.3833
H 3.50369 7.98632 12.0062
H 2.22346 9.46072 6.34084
H 2.36501 4.80156 3.86432
Si 10.3007 14.3628 15.6405
O 10.7096 12.9581 16.4074
C 8.79611 14.0809 14.6535
H 7.90369 14.6996 14.7962
H 3.1049 3.24784 10.9863
H 12.5884 6.92241 9.4555
C 9.79516 15.5115 17.0693
H 10.5083 15.5186 17.9196
H 12.4284 7.65263 9.56366
H 9.41319 16.5125 16.6877
Si 10.5827 11.2192 15.9538
O 9.45096 11.1008 14.7596
C 6.15737 16.122 8.82025
H 11.42 12.1493 2.63263
H 6.86062 3.65326 5.95266
H 14.6653 17.585 16.8969
C 12.2488 10.7026 15.2553
H 13.0062 10.5324 16.0404
H 12.2169 9.63744 14.9127
Si 8.0168 10.2537 14.2706
O 8.11179 8.73004 14.6554
C 7.71768 10.4847 12.3111
H 7.92407 11.5613 12.6309
H 8.58649 9.89116 11.9823
H 6.67628 10.1511 12.4673
C 6.27647 10.9634 14.9604
H 5.40162 10.3307 14.7003
H 4.45576 15.5677 3.35602
H 6.14163 11.9026 14.3994
Si 7.04587 5.22021 14.4136
C 5.77109 6.91842 16.5486
H 6.13917 11.7395 17.0778
H 4.93772 6.1508 16.4155
C 5.56425 5.84908 13.1853
H 6.13241 6.5098 12.5079
H 5.01699 5.06588 12.6826
H 4.96809 6.37119 13.9354
Si 18.507 15.4747 14.0414
O 19.9433 15.4257 14.8245
C 18.9301 14.1044 6.70084
H 1.73812 15.2619 18.3994
H 5.39553 13.7518 13.537
H 13.5102 14.4553 8.11711
C 16.8669 14.8103 14.9726
H 16.0057 15.0877 14.3182
H 16.8768 13.7008 15.2058
H 16.8088 15.218 15.9567
Si 1.78869 13.9117 15.0365
O 20.0582 12.6883 14.3427
C 3.29472 15.7985 3.32689
H 6.86089 11.4664 2.50304
H 19.5477 8.29546 15.9011
H 5.84586 7.45528 5.9951
C 18.7774 15.4239 17.6751
H 9.11061 14.797 17.6552
H 18.9411 16.3307 17.1123
H 7.12093 13.0812 6.86705
Si 19.1439 12.8508 12.9129
O 17.78 11.9654 12.9426
C 6.19941 5.22036 2.45584
H 3.80666 12.7871 10.9619
H 18.1212 17.5087 7.66739
H 5.63018 13.6588 16.4586
C 12.4902 3.08754 2.3851
H 13.0112 3.49838 1.49239
H 2.41457 12.9535 5.80971
H 12.769 3.64429 3.29281
Si 16.9044 10.8135 12.1812
O 15.8734 10.0367 13.1344
C 12.6316 11.5149 14.1453
H 12.8135 12.5463 14.3986
H 11.808 11.5952 13.3688
C 15.9956 11.4804 10.8965
H 15.0912 11.0239 10.5593
H 15.6411 12.5079 11.0974
H 16.6853 11.483 10.0465
Si 15.2764 8.74149 14.1749
O 16.2112 7.45382 13.7219
C 16.3888 5.87082 6.56182
H 17.1589 5.51572 7.24414
H 18.5956 10.0024 7.67608
H 15.4282 5.8264 7.06405
C 15.6501 9.90564 15.7251
H 15.1196 10.8802 15.4785
H 2.87436 12.8301 1.13383
H 16.6429 10.237 15.532
Si 16.1099 5.76167 13.6262
C 11.7795 5.08053 14.494
H 11.9622 3.94792 14.5626
H 11.3417 5.47302 13.5658
H 12.8152 5.44106 14.5793
C 15.0987 4.9843 12.2699
H 14.191 4.5771 12.5961
H 14.9396 5.73361 11.4728
H 15.7431 4.24954 11.7688
523
 Atoms. Timestep: 13000
Si 20.2119 15.5188 2.83342
O 18.5317 14.8772 3.20365
C 5.2545 11.587 3.83084
H 5.85354 12.1323 3.11559
H 4.33691 11.3344 3.29067
H 19.8268 7.99116 9.97234
C 14.739 2.19014 12.452
H 14.6142 3.03654 11.8563
H 1.68863 15.9487 5.9791
H 6.32584 14.8288 7.20166
Si 17.5945 13.8867 3.84536
O 2.10887 14.6851 4.01542
C 17.7317 13.6458 17.8304
H 13.3222 15.9039 3.25549
H 10.9267 17.3451 8.81924
H 8.3897 2.31895 3.62088
C 3.3484 11.8453 13.5302
H 7.40312 15.0107 3.69303
H 14.9785 2.3849 13.4949
H 11.2406 11.7005 8.16223
Si 19.9487 6.58709 17.757
O 4.63732 7.74621 4.7441
C 5.83445 10.0784 15.2642
H 3.14036 10.1874 6.3815
H 15.6815 1.76948 12.2976
H 19.4103 1.41739 2.39291
C 6.83567 17.1665 4.57852
H 10.3941 5.44842 11.8597
H 9.68963 3.02219 6.12938
H 15.1736 16.5255 6.11451
Si 19.0269 11.9167 15.8614
O 17.0225 12.3794 3.14679
C 6.71424 5.83004 2.49914
H 12.8385 13.6933 12.6002
H 5.87357 13.4966 17.2462
H 3.16591 16.992 18.1346
C 1.82546 2.76738 7.55983
H 5.66086 10.5184 3.83119
H 16.7768 17.6615 17.0931
H 18.6311 1.76216 13.5209
Si 19.0733 1.80211 7.43119
O 1.94402 6.91139 4.78124
C 20.4604 15.4328 18.2799
H 3.30857 7.39599 7.732
H 2.76789 11.4175 14.3604
H 19.6539 15.5885 5.70281
C 3.85743 4.48986 5.78755
H 8.06007 7.40927 2.81057
H 18.0134 13.5067 7.33973
H 13.2135 11.3593 17.9567
Si 3.12863 7.63299 5.54165
C 3.14023 5.35688 6.93889
H 4.9273 4.90961 5.4506
H 11.1609 9.41988 9.18313
H 4.08172 3.41762 14.4363
C 18.3475 13.0536 5.46046
H 14.7101 6.90265 4.88606
H 11.7071 6.95982 12.9205
H 6.82014 14.7185 11.2784
Si 6.64448 8.83551 16.6968
O 7.2651 9.76704 18.0851
C 18.5219 2.7194 10.5227
H 1.56567 9.42651 6.27416
H 15.0944 6.55575 10.2028
H 12.6874 2.60262 5.06086
C 6.54133 15.7918 4.29587
H 3.8319 8.95997 16.1015
H 8.67408 12.0581 12.5487
H 18.8837 9.48562 8.13225
Si 8.74906 8.77728 18.4652
O 8.14154 8.06324 16.6691
C 11.5852 9.6322 3.90576
H 11.036 10.4794 3.7166
H 12.489 9.2212 3.30788
H 11.7958 16.6827 4.01882
C 10.4535 9.45855 17.9638
H 6.68472 15.3139 18.4685
H 14.0215 14.4392 13.5969
H 11.9429 15.8484 7.11664
Si 8.47005 6.83138 15.4253
O 9.99645 6.33316 15.7281
C 7.12452 5.94942 15.8755
H 1.69629 5.23668 2.70654
H 18.0261 9.50315 10.9565
H 16.9763 14.9668 9.13708
C 14.3562 17.2955 9.26996
H 14.3225 16.2282 9.35383
H 15.2862 17.6294 8.67335
H 13.4432 17.7035 8.8003
Si 10.7242 5.08913 16.6022
O 10.0265 4.30472 17.8692
C 10.0061 4.37473 3.68128
H 9.47249 5.38845 3.52274
H 9.86581 3.60104 3.01051
H 9.59694 4.1305 4.67827
C 12.3074 5.79576 17.6882
H 12.0698 6.91152 17.9705
H 14.1976 8.82849 12.9067
Si 8.78317 3.18876 18.2056
O 7.56239 2.64101 17.2692
C 4.9984 2.90022 2.15093
H 16.6271 14.64 8.53868
H 20.2212 11.9267 8.33311
H 6.11324 2.59802 2.78338
C 11.3229 3.6945 7.30729
H 3.85743 7.56729 13.8656
H 20.003 6.48035 4.36582
H 13.0808 3.96015 3.85923
Si 7.13425 2.16518 15.6683
C 10.566 12.837 4.75146
H 10.9622 11.9465 4.19236
H 8.84412 4.23378 14.394
H 10.8931 12.6059 5.74493
C 8.69 1.28698 15.2196
H 8.84569 17.7278 13.9145
H 9.35164 2.04742 14.693
H 9.2497 17.0228 15.606
Si 1.84537 10.402 18.1813
O 19.4544 10.0243 1.76936
C 13.5565 14.4894 1.41675
H 3.69551 17.7256 4.55899
H 17.6983 6.76158 4.74985
H 3.76623 4.18369 14.4925
C 4.38524 12.8037 13.8127
H 15.5374 2.68709 5.42327
H 2.02714 14.8449 9.71678
H 12.0186 11.3966 14.4566
Si 18.568 8.8035 18.2746
O 17.9091 8.51693 2.77347
C 19.5853 15.0499 6.5751
H 4.23694 8.87069 12.8104
H 17.747 2.55762 7.29153
H 5.78238 8.16872 9.6506
C 19.5345 7.23886 14.0699
H 1.4871 7.55381 13.8576
H 19.3363 8.0522 14.8752
H 18.6142 17.1817 3.44094
Si 17.2495 7.27373 3.33782
O 17.778 5.90038 2.40192
C 13.7811 13.3614 18.4871
H 15.0599 7.24251 17.2974
H 4.54355 17.5333 6.26868
H 15.8966 13.1688 6.40985
C 17.4125 2.97993 1.62781
H 17.3102 8.92355 8.93407
H 19.4201 16.3006 16.7739
H 12.6585 15.0543 1.42171
Si 17.5292 4.72722 18.4362
O 16.1949 5.39112 17.7942
C 13.5109 5.98046 16.7795
H 18.4238 2.48016 11.5741
H 13.5201 6.96688 16.2087
C 17.2436 5.05608 12.8913
H 16.8493 4.07187 13.1615
H 18.3087 5.09617 13.1638
H 17.3037 5.16432 11.8087
Si 15.3964 5.24399 16.4672
O 15.9793 6.25687 15.1963
C 15.582 3.57575 15.6642
H 16.5366 3.72894 16.062
H 5.68275 10.8734 15.9165
H 18.1554 2.48318 18.19
C 3.03578 2.20127 7.51445
H 6.21307 2.25913 12.3756
H 17.5104 10.7446 8.2171
H 20.2498 15.1745 7.50684
Si 15.2514 1.91624 16.538
C 13.5326 2.4111 17.8995
H 15.7439 7.64944 17.3287
H 5.27319 16.0209 7.65148
H 13.8501 3.75374 18.023
C 3.45954 6.60135 7.05705
H 5.65785 5.45833 2.45886
H 3.28571 9.44 11.6845
H 15.8564 6.95196 2.72813
Si 9.53982 1.38324 8.29285
O 8.5172 17.0652 7.3014
C 2.88052 17.2851 17.093
H 3.08646 4.59585 5.02395
H 5.25958 17.1492 16.333
H 3.27181 16.6737 16.0676
C 5.89732 7.08179 9.50953
H 11.297 4.45053 6.43002
H 4.3041 13.4954 5.32415
H 5.52179 6.47441 10.2774
Si 7.39997 16.7426 8.41205
O 8.15356 15.7764 9.64705
C 2.55542 9.49911 5.70145
H 10.9762 13.7484 4.55796
H 18.057 13.3876 10.1571
H 5.13431 7.32792 18.1418
C 14.0178 12.0114 18.2654
H 4.51772 7.74442 16.8379
H 6.54344 1.66928 4.87388
H 15.4638 3.97699 14.6882
Si 9.14296 14.3968 9.24989
O 8.53725 12.9888 9.93015
C 3.83314 12.7182 8.7321
H 4.92956 12.7929 8.82762
H 3.41382 13.6268 8.42784
H 3.399 11.7895 8.09412
C 9.03729 13.8523 7.41895
H 13.8139 13.3097 9.02472
H 8.81827 14.5868 6.47664
H 8.31231 13.2428 7.11654
Si 7.3441 11.8851 9.45218
O 7.98935 10.3067 8.86185
C 10.9174 14.6332 9.83348
H 20.3907 7.30065 7.99136
H 11.5727 14.2488 9.0438
H 11.2352 15.6921 9.92749
C 1.51433 10.8871 16.398
H 15.1333 11.8987 18.4779
H 10.0329 16.5197 4.35306
H 17.9901 14.6632 17.214
Si 7.18985 9.55533 7.51132
O 7.69433 8.02509 7.52975
C 5.44177 9.48828 7.52247
H 5.07884 8.88437 8.32702
H 4.81707 10.4134 7.51857
H 5.08502 9.11197 6.57454
C 7.50875 10.5412 5.83379
H 8.5613 10.7313 6.00381
H 7.31575 9.97274 4.89857
H 6.85162 11.4354 5.89688
Si 7.50849 6.76956 8.62852
C 9.18353 7.14399 9.29716
H 9.98286 6.72633 8.78113
H 9.39844 8.18762 9.11837
H 9.1255 6.94276 10.356
C 7.43764 5.07812 7.7618
H 6.5501 4.62861 8.14416
H 3.30509 12.6266 9.72003
Si 11.8531 10.7353 9.14162
O 13.3865 10.4182 8.52871
C 12.6688 15.94 4.20032
H 12.6339 14.9338 4.35957
H 18.5655 4.3695 16.3794
H 13.2517 16.5178 4.90247
C 12.1668 11.4457 10.8275
H 13.1644 11.9475 10.7304
H 11.3804 12.2004 11.0625
H 12.3967 10.8072 11.6827
Si 13.2587 10.19 6.81928
O 12.5265 8.65321 6.84298
C 15.0351 12.666 5.91082
H 14.8574 11.8097 6.54562
H 14.204 13.4259 6.06253
H 15.0377 12.2411 4.92744
C 14.893 9.3176 6.6163
H 14.8497 8.48682 5.94963
H 15.7609 9.76412 6.07603
H 15.2259 8.80969 7.51408
Si 11.6777 7.33359 6.7446
O 11.9633 6.16677 7.96929
C 13.7443 6.39352 4.7812
H 13.6091 5.72315 3.93411
H 12.8923 7.20955 4.75587
H 13.7641 5.96411 5.79946
C 10.1715 7.19846 5.70745
H 9.30514 6.88092 6.32038
H 9.75666 8.10496 5.30315
H 10.0893 6.51458 4.86677
Si 12.4053 4.63379 8.53222
O 12.09 4.51008 10.1086
C 15.0958 7.59648 10.0776
H 14.1252 8.03477 9.90675
H 15.7845 7.90009 9.21082
H 15.5891 8.07763 10.9303
C 14.3047 4.80251 8.21024
H 14.941 4.14874 8.847
H 14.5027 4.61745 7.1756
H 14.423 5.82156 8.33682
Si 10.4682 4.34136 10.865
O 9.35448 4.3122 9.65711
C 10.5253 2.68618 11.6501
H 10.7182 1.99729 10.5682
H 11.4526 2.37566 12.4235
H 9.54874 2.57335 12.3635
C 11.8089 16.6744 14.6178
H 9.5832 12.8011 4.70475
H 17.0704 17.4107 14.8906
H 12.2497 17.5175 14.245
Si 8.62064 3.76066 8.24331
C 7.22802 5.43783 6.32522
H 6.34138 6.16203 6.13585
H 8.02395 5.77621 5.74575
C 15.141 9.21358 3.04943
H 16.0806 9.62811 2.61123
H 14.62 9.93469 3.74513
H 14.2423 9.28321 2.37099
Si 1.89108 4.47776 7.94574
O 19.4465 5.08108 7.81757
C 15.4995 15.8758 6.77678
H 14.5349 15.5214 7.20606
H 15.8748 16.3409 7.75912
H 16.2236 15.1373 6.399
C 4.81108 13.6373 12.7528
H 6.32863 11.6327 10.4829
H 6.90461 12.6988 8.30102
H 2.84143 11.8937 12.5985
Si 19.0258 5.89531 9.29042
O 18.9158 7.37706 11.2408
C 9.50225 17.4813 4.10175
H 16.0368 5.34863 5.86211
H 19.9684 2.59307 8.59901
H 6.92712 14.6001 18.5843
C 2.54534 4.36226 9.84117
H 16.2824 4.75929 5.4592
H 14.3963 17.5456 10.2888
H 18.4437 12.067 5.44858
Si 18.8212 8.05048 12.6181
O 19.8638 7.32452 9.15022
C 18.475 10.4764 11.4622
H 18.9352 11.0403 10.6543
H 17.3874 9.37751 7.292
H 20.3825 10.1749 12.1997
C 17.9559 12.3678 17.1602
H 16.8484 12.252 17.0128
H 17.0493 13.6541 1.44633
H 19.1324 9.90321 13.3465
Si 2.84736 6.16465 10.3262
O 20.4763 17.3269 10.4516
C 4.49813 7.82968 13.0034
H 4.1081 17.0809 7.88397
H 17.5715 2.77942 9.80965
H 11.8435 7.68866 13.0936
C 4.8016 13.2077 17.3571
H 4.75926 13.1875 18.5357
H 12.3747 4.83751 18.3157
H 18.6194 8.42611 5.57382
Si 3.10069 3.19487 2.35441
O 3.07327 15.4431 11.9339
C 3.99072 1.42633 7.22646
H 2.25086 13.6778 4.22877
H 5.96169 15.2275 4.88522
H 18.4113 9.22176 5.58044
C 18.1515 17.5541 14.5002
H 13.0177 1.75364 1.35169
H 17.3787 6.22666 9.11186
H 2.67396 11.1255 15.9305
Si 2.57117 16.086 10.4736
C 9.89938 3.02984 7.18631
H 14.2922 1.2327 12.4514
H 10.193 1.61104 3.36697
H 11.0982 17.3904 14.1173
C 18.8857 5.1183 17.2029
H 4.08183 7.91142 2.31869
H 7.71214 13.4782 15.9285
H 6.95823 7.08327 4.29529
Si 19.1642 17.595 9.80765
O 2.06275 14.3291 14.0538
C 18.1538 15.6227 11.8061
H 12.4425 16.2931 6.84988
H 3.16713 9.93887 1.6892
H 5.64796 15.0938 8.88332
C 18.0469 16.5767 10.8187
H 18.776 1.18212 15.2542
H 20.211 4.03857 2.40022
H 17.0285 17.1936 10.8451
Si 3.45423 14.7 13.3916
O 4.21558 16.0455 14.0336
C 19.6253 17.1887 3.29173
H 17.8939 2.71077 2.44262
H 5.52342 7.79702 13.4396
H 11.0726 14.239 10.8562
C 19.6997 10.3286 15.4888
H 12.1444 3.03953 6.79422
H 17.566 11.9983 2.4378
H 3.6991 10.4034 2.08382
Si 5.37146 17.09 13.8318
O 6.70655 16.1691 13.2858
C 5.87865 17.5052 15.5341
H 4.75075 1.5821 15.2048
H 9.55558 2.08077 1.52937
H 2.17266 4.60924 13.7439
C 5.10239 1.86862 12.4345
H 4.54061 1.39036 11.7825
H 3.58209 16.1556 9.17036
H 3.27704 1.28633 2.69066
Si 6.6701 14.4624 12.6695
O 8.9314 12.5211 13.3563
C 19.4365 9.76855 12.3794
H 16.7366 1.73703 5.31326
H 4.65708 13.2856 11.694
H 16.5894 8.31883 15.4049
C 17.7844 9.65315 8.28439
H 2.80986 10.1574 9.00886
H 10.7537 8.80725 4.04288
H 2.87444 9.17497 10.9913
Si 1.74408 4.6926 16.6266
O 2.09736 5.02605 14.7047
C 8.12614 17.7256 3.92181
H 7.94109 2.04437 9.85902
H 13.2539 15.4026 12.2426
H 10.8907 16.5186 15.5659
C 1.99488 4.34083 2.04385
H 20.4681 14.2403 17.9695
H 2.1302 5.31545 1.4327
H 2.0339 6.87244 14.6007
Si 3.09289 2.69678 17.2484
C 4.81809 3.00115 18.0564
H 14.2685 15.4391 18.3223
H 5.20839 1.93459 17.8638
H 3.15487 8.01367 2.58993
C 5.36809 7.3383 17.231
H 7.00366 5.80021 18.74
H 12.2788 9.86734 4.88171
Si 8.6408 13.998 13.6655
O 10.0409 14.7769 13.0694
C 7.78299 2.12515 8.84888
H 4.27278 2.59251 12.6988
H 3.16651 9.31683 16.2392
H 5.41824 5.16027 17.027
C 2.58724 4.40596 11.2068
H 19.9654 12.6857 8.05999
H 4.61385 12.3518 16.6811
H 16.3936 2.53162 1.52546
Si 11.5603 14.8794 14.1294
O 11.4812 13.8803 15.3604
C 2.91263 1.51262 3.7295
H 2.18893 2.50835 16.1453
H 5.21152 6.7015 8.70579
H 10.9702 4.54448 3.52669
C 13.0975 14.6475 13.0346
H 4.21459 7.28497 12.0758
H 2.64166 9.92978 4.63806
H 3.76167 3.53536 6.11186
Si 10.0596 13.3269 16.2346
O 10.6034 11.7407 16.5094
C 8.54283 14.0207 15.4135
H 8.54654 15.0046 15.7743
H 1.4702 4.30266 12.1669
H 12.6496 8.82721 11.0924
C 9.99343 14.0906 17.8875
H 8.86967 13.9819 17.9393
H 13.3334 9.11724 10.993
H 10.3949 13.5573 1.49713
Si 10.8587 10.0529 16.3007
O 9.89352 9.57484 14.7987
C 6.08061 15.526 8.08962
H 15.2214 8.24165 3.43073
H 6.88377 4.45196 6.02296
H 12.8684 2.43773 17.0823
C 12.5677 9.77192 15.7273
H 13.1427 9.56661 16.6356
H 12.7937 8.90331 15.1354
Si 8.51711 9.25015 13.8008
O 8.10265 7.784 14.1406
C 8.82425 9.6356 11.9668
H 8.92765 10.6791 11.734
H 9.78422 9.10913 11.9853
H 8.13068 8.99296 11.4392
C 7.08957 10.3546 14.3546
H 6.75304 10.9876 13.5313
H 20.4993 2.71917 4.19165
H 7.82688 10.9281 15.0031
Si 7.30017 4.48029 14.683
C 5.77387 6.06727 16.4815
H 5.14128 9.40608 14.887
H 5.09744 6.0159 15.5737
C 6.30073 4.72194 13.206
H 6.66097 4.34006 12.1918
H 5.39771 4.0807 13.3352
H 6.14487 5.77416 12.8498
Si 17.7888 15.9317 13.5692
O 18.5444 14.7189 14.3123
C 18.6197 13.9217 6.52364
H 19.2302 15.086 18.0572
H 4.73495 12.9745 14.7959
H 13.4417 13.6051 8.41055
C 15.9085 15.7101 14.1325
H 15.8694 14.7207 14.6214
H 15.6577 16.5004 14.9701
H 15.2719 15.7203 13.2735
Si 19.6358 13.5808 14.0245
O 19.4953 13.3153 12.27
C 20.4676 1.70145 4.04945
H 5.15908 12.1328 4.75012
H 19.2292 6.30396 14.6736
H 5.36646 7.89448 5.35318
C 20.4329 16.6973 17.3254
H 10.1702 15.181 17.8746
H 19.5816 17.4256 17.5744
H 9.75598 13.0948 7.11466
Si 18.1796 13.7964 11.5454
O 16.967 12.8924 12.2995
C 7.23484 6.78812 3.19418
H 4.07564 11.019 13.3219
H 19.2921 3.27799 10.1322
H 4.17541 14.1226 17.2393
C 13.5295 2.96182 4.36946
H 13.735 2.25545 3.69939
H 3.57478 13.4327 5.62011
H 14.3667 3.10629 5.00387
Si 16.7707 11.3158 11.7632
O 15.9731 10.6642 13.0014
C 12.9152 11.0286 15.0227
H 13.7004 10.8498 14.1991
H 13.3524 11.8047 15.6837
C 15.837 11.2334 10.1462
H 14.9653 11.8803 10.1683
H 16.2343 11.2586 9.12547
H 15.1623 10.3866 10.397
Si 15.4999 9.19467 13.5777
O 16.5818 7.91305 13.0202
C 15.8211 1.84526 4.8042
H 16.1039 2.2967 3.87956
H 2.35411 9.63748 9.03225
H 15.2758 17.4761 4.46936
C 16.077 9.26714 15.3212
H 15.3054 9.26049 16.066
H 19.8706 9.33832 14.9427
H 16.824 10.0708 15.2881
Si 16.0334 6.26247 13.6062
C 11.3884 3.84642 15.3133
H 10.7121 3.01022 15.2986
H 11.4025 4.40195 14.334
H 12.4845 3.69877 15.4669
C 14.349 5.75171 12.804
H 13.529 5.46735 13.4545
H 13.9572 6.47721 12.0928
H 14.6041 5.02839 11.9752
523
 Atoms. Timestep: 13500
Si 1.70573 15.3974 1.97328
O 19.9198 13.9343 2.55618
C 6.2128 13.0586 3.70515
H 6.35852 14.0965 3.28791
H 6.75373 13.201 4.65375
H 19.0589 6.24066 11.8538
C 14.2589 1.35278 9.19691
H 14.521 17.0142 8.63128
H 19.8553 2.82956 6.26377
H 6.10885 2.26907 7.51761
Si 19.4142 13.3898 3.95973
O 3.20016 14.86 1.93011
C 16.434 13.4242 17.3254
H 12.6854 15.8101 3.58345
H 11.3352 1.27472 8.92054
H 7.19478 2.16511 4.53501
C 3.54025 11.4148 13.5879
H 7.63344 15.7769 4.91908
H 14.6341 2.44276 9.17996
H 10.3202 11.3634 7.58786
Si 19.2125 5.16326 17.8147
O 3.96407 8.25274 3.67955
C 6.4287 9.45045 15.4673
H 3.88378 9.76559 5.83041
H 15.1243 17.6342 10.1014
H 19.0675 16.6287 3.29283
C 8.58258 17.2172 4.04069
H 11.3 6.06916 11.8985
H 9.4438 3.09266 6.55913
H 16.2465 16.2383 5.49593
Si 19.1205 12.7617 17.0406
O 18.2165 12.3566 3.62386
C 8.03264 6.65445 3.63765
H 12.1505 11.3948 13.0585
H 4.13013 12.5389 18.1741
H 18.4566 2.76029 4.59331
C 20.3214 3.58308 8.40203
H 5.12743 12.8928 3.86883
H 12.3619 17.561 14.7053
H 17.0593 1.22762 13.9588
Si 19.068 3.90687 9.83777
O 20.4079 8.7914 3.38986
C 19.4674 16.7142 18.5514
H 1.64896 6.91786 4.85504
H 2.59437 11.3931 14.0783
H 19.491 15.8547 7.70854
C 3.67923 6.70259 7.09881
H 8.19703 6.91158 5.78639
H 1.71791 15.6812 5.47135
H 15.7757 15.7827 17.9295
Si 2.53949 8.76962 4.66723
C 2.1725 6.41846 6.77685
H 3.82112 7.6668 7.69256
H 11.8122 8.90195 7.90377
H 3.8095 6.39529 15.0515
C 20.1764 13.3806 5.52805
H 14.028 6.70087 2.16081
H 13.1674 6.4403 13.8272
H 6.17417 14.6553 11.1749
Si 6.54338 8.55409 17.0932
O 6.89035 9.56809 18.397
C 17.4767 2.74116 9.33337
H 2.38948 10.5489 6.3932
H 15.9164 6.09868 7.1129
H 14.2491 2.02846 3.6213
C 8.1401 15.9662 4.11814
H 2.79287 8.89179 18.4061
H 7.16606 11.958 12.67
H 18.6726 12.2572 8.72638
Si 8.49278 9.25566 1.28624
O 8.25324 7.7091 17.8203
C 10.9729 9.45025 2.18391
H 11.9261 10.1252 1.87909
H 11.6461 9.02567 3.01208
H 11.4997 14.7245 3.15938
C 10.4104 9.02789 18.4274
H 5.16582 13.2992 1.2906
H 11.8674 12.3261 11.6546
H 13.3239 13.5681 5.93382
Si 8.86331 6.49464 16.56
O 9.82356 5.52997 17.5712
C 7.33046 5.55295 15.8982
H 16.9142 16.2761 8.40618
H 18.2523 9.21591 10.5477
H 15.3921 11.3586 10.9046
C 13.0219 15.0876 9.80322
H 12.8911 14.9498 8.74027
H 13.9553 15.6148 10.0484
H 12.182 15.6737 10.164
Si 10.998 4.32124 16.9717
O 10.876 3.12647 18.1096
C 10.2713 4.73312 3.36821
H 9.39504 4.90207 2.67151
H 11.1717 4.20885 3.08583
H 9.89485 4.29304 4.31185
C 12.5961 4.8172 17.258
H 12.5334 4.09803 18.1172
H 15.1906 8.26057 14.9672
Si 9.76227 1.87522 17.9965
O 9.51479 17.669 16.8259
C 4.75845 3.78554 1.73981
H 14.2605 12.7016 12.7307
H 10.5828 1.91107 2.25173
H 4.89823 4.84294 1.59259
C 11.2901 4.02629 6.95854
H 3.99209 5.31638 13.526
H 19.7862 9.67 3.09505
H 12.6466 2.58087 2.43763
Si 8.19777 1.29586 15.835
C 9.83237 12.1279 3.96208
H 8.96736 12.2188 4.53941
H 6.45178 3.36909 16.8957
H 10.4009 11.2402 4.12152
C 8.38768 1.22784 13.8743
H 6.58049 3.17309 14.4049
H 7.80277 17.0841 13.2358
H 9.17404 1.98315 13.7103
Si 19.3049 9.20261 17.0848
O 20.1588 8.94993 18.5437
C 13.4043 15.4477 17.6095
H 2.05133 1.91902 5.83999
H 4.59194 3.8728 5.5414
H 3.02462 6.35544 15.3094
C 4.15272 12.8171 13.7843
H 16.5909 3.97661 6.48022
H 3.88013 15.396 10.8962
H 13.891 12.1071 15.3286
Si 20.1115 7.62282 2.29034
O 18.8627 7.07136 3.21809
C 20.2885 15.136 7.162
H 4.87664 6.32602 12.3186
H 19.0737 3.64699 11.5872
H 8.90218 8.35445 10.7556
C 20.3278 7.89126 14.4302
H 1.43944 7.2547 15.1663
H 3.43029 7.18523 11.3227
H 16.6111 17.1357 8.36859
Si 17.5657 6.17059 2.72164
O 17.7343 5.41456 18.5271
C 13.9609 16.717 17.4288
H 16.0266 7.63521 17.7195
H 1.72338 16.9203 7.0448
H 13.9593 12.0617 2.51923
C 16.5562 3.01366 2.36673
H 17.3924 13.0763 9.35155
H 1.46592 15.7339 16.3539
H 12.4478 15.4403 17.1217
Si 16.761 3.75285 18.216
O 15.7449 4.37987 17.0776
C 13.289 5.99954 16.7036
H 17.2633 1.93471 9.93207
H 12.8012 6.46822 15.6674
C 17.3945 4.65094 13.8693
H 17.3348 4.02077 14.7459
H 18.409 5.08741 13.834
H 17.1849 4.01264 13.0015
Si 14.5493 4.90372 16.0251
O 15.2238 6.1187 15.1129
C 14.3252 3.65482 14.5909
H 15.3123 3.36684 14.0621
H 6.22615 10.5482 15.6643
H 16.9569 3.84081 3.26145
C 20.5417 2.65038 7.22021
H 4.86365 2.2749 13.8541
H 17.97 13.3094 7.65099
H 2.10355 14.7251 7.66911
Si 13.6275 1.73156 15.1784
C 13.9191 1.46703 17.0843
H 15.3396 7.79748 17.7538
H 5.50424 17.1997 8.02179
H 13.1807 17.1066 12.8132
C 1.77959 7.36534 5.80154
H 7.45762 6.401 2.7346
H 5.559 9.31573 12.5131
H 1.44954 6.11975 1.68071
Si 9.98394 1.81891 8.64901
O 9.1124 17.2315 7.89499
C 2.56175 17.4145 17.3737
H 3.92962 6.79957 6.08282
H 7.01307 13.8867 14.8886
H 3.59229 16.8712 17.4342
C 7.98398 7.78749 10.6863
H 11.002 4.57844 5.99431
H 4.95163 14.6538 5.54745
H 8.22291 6.85686 11.2267
Si 7.92021 17.3887 8.89928
O 7.75871 15.8611 9.75554
C 3.0395 10.356 5.49874
H 9.68475 12.2288 2.87834
H 19.5273 12.9308 11.2279
H 5.40647 6.29821 18.1653
C 15.3266 16.8024 17.7203
H 4.31668 7.2981 16.8848
H 3.55842 5.54307 9.72238
H 13.4929 4.06691 14.02
Si 8.0825 14.3737 9.08571
O 7.3711 13.1877 9.99657
C 4.48616 13.6657 8.32286
H 5.41332 13.1661 8.1695
H 4.19808 13.9514 9.38694
H 4.46572 14.5782 7.75875
C 7.81624 14.0668 7.31383
H 16.1601 13.8923 10.5587
H 6.82114 13.8499 6.82447
H 8.43739 13.3174 6.89516
Si 7.80105 11.5939 10.1127
O 7.9011 10.7174 8.601
C 10.1069 14.1195 8.92711
H 19.65 8.3677 8.35422
H 10.1777 13.8277 7.87474
H 10.6132 15.1009 8.97388
C 20.0667 11.9016 18.1538
H 15.8177 17.8088 17.9692
H 9.69866 2.32037 3.03482
H 16.3786 12.6631 16.3793
Si 6.8733 9.83922 7.6433
O 7.18232 8.20611 7.95192
C 5.12239 10.1447 8.13101
H 4.64511 9.17105 7.9176
H 4.90333 10.2882 9.23254
H 4.48077 10.8925 7.64468
C 6.98387 10.2088 5.84211
H 7.51894 9.37954 5.32091
H 6.02007 10.2528 5.30308
H 7.62091 11.1374 5.87752
Si 8.02655 7.16015 8.9516
C 9.78656 7.47809 8.42748
H 10.6566 6.88201 8.53902
H 9.54486 7.28769 7.37438
H 10.038 8.55888 8.55412
C 7.38328 5.39343 8.66866
H 6.73608 5.35217 9.53554
H 3.68045 13.1315 7.82061
Si 11.593 10.6482 7.94572
O 12.7565 10.7171 6.75666
C 11.9776 15.505 2.70661
H 11.2236 16.3234 2.37499
H 19.8978 3.0717 15.4428
H 12.6717 15.1711 1.88079
C 12.267 11.0635 9.54389
H 13.2494 11.5344 9.47823
H 11.5477 11.472 10.2613
H 12.3852 10.1424 10.1229
Si 13.6651 9.96728 5.64598
O 13.6957 8.34721 6.1836
C 14.6355 12.877 2.31311
H 14.0291 13.8611 2.38166
H 15.1538 13.0038 3.31993
H 15.3292 12.7799 1.45606
C 15.5342 10.3396 5.90217
H 16.4691 9.54915 6.73786
H 16.1663 10.9409 5.06134
H 15.6721 11.4818 6.30695
Si 12.2701 7.82932 6.66184
O 12.7704 6.48239 7.30972
C 13.3673 7.05853 2.92103
H 13.3506 6.29604 3.65809
H 12.4626 7.0604 2.37765
H 13.5662 8.12403 3.11875
C 11.1598 7.65504 5.23616
H 10.8096 6.62234 5.21543
H 10.2798 8.2401 5.58635
H 11.6941 7.92747 4.27808
Si 12.4745 5.10335 7.98959
O 12.2967 5.36478 9.64469
C 15.9343 6.78954 7.94807
H 16.8272 7.39884 7.90402
H 15.8508 6.25614 8.92572
H 15.1939 7.57172 7.75398
C 14.1194 4.21329 8.16562
H 14.3271 3.94223 9.22844
H 14.3055 3.2897 7.55708
H 14.8998 4.86381 7.79488
Si 11.2058 4.93991 10.7895
O 9.71382 4.90182 10.1917
C 11.8328 3.58851 11.853
H 12.4825 3.01471 11.2913
H 12.3046 4.12455 12.655
H 11.089 3.00046 12.6557
C 12.0724 15.2094 13.8717
H 10.3932 12.9408 4.41292
H 18.4574 1.71276 13.2087
H 14.5811 13.3141 13.1445
Si 8.7573 4.1072 9.01961
C 6.4694 4.93698 7.48783
H 5.83881 5.79807 7.09854
H 7.00705 4.50664 6.66627
C 17.2485 9.874 1.81418
H 16.9297 11.0268 1.99097
H 17.1913 9.63604 2.8898
H 16.5155 9.35444 18.6338
Si 20.1498 5.52432 8.04098
O 18.7817 5.90859 6.97663
C 16.5526 16.3764 4.41452
H 15.66 16.0664 3.75339
H 17.5414 15.9781 4.12993
H 16.5538 17.5261 4.29356
C 4.81913 13.4354 12.6917
H 9.06789 11.383 10.7649
H 6.67053 10.9748 10.8418
H 3.60288 11.2522 12.5527
Si 18.9602 7.46598 6.32404
O 18.546 7.12385 11.9156
C 9.09373 1.78139 3.69154
H 12.1824 16.61 6.15915
H 2.20765 3.25908 8.66493
H 12.7383 14.549 14.5001
C 19.966 5.79448 9.77722
H 11.801 16.111 5.6876
H 13.0633 14.2299 10.3845
H 20.1757 12.8581 6.42659
Si 18.8428 8.19092 12.9815
O 19.156 8.72281 7.60329
C 18.2449 10.1095 11.2189
H 18.6739 10.8088 10.5355
H 17.1068 11.6839 8.19993
H 20.2128 10.1379 12.5888
C 17.7022 13.5591 17.8868
H 17.6252 13.7809 1.47596
H 15.598 14.2527 17.3219
H 18.6801 10.6888 13.0679
Si 2.08751 7.72109 11.0283
O 1.99539 16.3698 10.1631
C 4.52015 5.32638 12.5861
H 3.17204 1.48031 7.17637
H 17.5819 2.05288 8.3332
H 12.4618 6.70521 13.6847
C 4.72663 11.8643 17.4793
H 4.20926 11.739 16.4599
H 13.8994 6.59019 17.5035
H 19.6883 11.5303 5.80539
Si 3.35271 3.47028 3.11446
O 2.2211 15.239 12.7296
C 2.03828 1.45761 7.00497
H 2.518 15.0084 17.0725
H 8.71239 15.2555 3.42576
H 19.0383 11.3655 5.29758
C 17.508 17.7045 13.0442
H 13.5404 2.10784 17.7082
H 17.7019 7.90683 5.45164
H 1.57163 12.8134 18.1236
Si 2.83764 16.1969 11.4368
C 9.92556 3.30852 7.61173
H 13.3151 1.63558 9.1795
H 9.66927 2.07364 4.70469
H 11.023 15.8215 14.3685
C 1.63999 4.87747 1.44129
H 1.61806 6.52866 3.26554
H 7.41793 12.4055 15.4671
H 6.30178 6.66726 5.23114
Si 19.7623 16.9995 10.694
O 1.8472 14.0802 15.2146
C 18.3508 14.9883 12.0343
H 12.8411 13.143 6.27277
H 19.2703 5.01844 16.0895
H 6.80286 16.9152 6.99681
C 18.3861 15.5777 10.7693
H 16.8452 17.8194 12.2716
H 4.98262 2.41635 4.91288
H 17.6554 15.7032 9.90255
Si 3.12827 14.5214 14.028
O 3.82747 15.6549 14.8681
C 19.775 17.0548 2.46328
H 15.4977 2.61588 2.81892
H 5.40969 4.65929 12.8156
H 10.5207 13.3056 9.55142
C 19.7669 11.0663 17.164
H 11.9177 3.1883 6.41013
H 17.8227 11.7556 2.92302
H 1.89282 8.79053 14.7761
Si 5.2248 16.7525 14.4914
O 6.02668 16.211 13.1562
C 6.4116 17.0195 15.9934
H 6.59789 16.1622 16.6741
H 7.10993 2.33022 2.94791
H 2.45639 3.77478 14.9667
C 4.22482 1.61844 14.5233
H 3.42999 1.79163 13.5536
H 3.25702 17.2088 12.4832
H 2.06286 2.33135 4.66053
Si 6.08009 14.6195 12.567
O 7.99881 12.2034 12.7625
C 19.177 9.96681 12.4985
H 15.9827 3.22685 4.77416
H 4.5901 12.9545 11.714
H 17.3646 11.0855 15.2568
C 17.7588 12.6204 8.42357
H 2.23256 11.1472 9.32221
H 10.5779 8.00491 18.6009
H 4.851 9.42527 12.5601
Si 19.2229 2.6159 18.6387
O 1.43213 3.86042 15.1184
C 7.62856 1.83412 3.62532
H 8.682 2.2697 10.7939
H 10.4485 11.5212 12.3548
H 12.5165 15.5704 12.8517
C 4.53407 3.39914 4.68648
H 18.5368 16.2131 18.2736
H 16.2459 7.47772 3.22515
H 2.0428 4.79836 17.7502
Si 2.53144 2.38016 18.4296
C 3.84298 3.4799 18.0351
H 13.3046 17.7582 12.2476
H 4.4564 3.38603 17.0889
H 4.24586 1.83793 10.1724
C 5.37522 7.08087 17.0801
H 9.02771 7.18266 3.59645
H 10.4642 10.2866 2.87428
Si 8.12222 13.7257 13.3708
O 9.58689 14.1956 12.8615
C 8.49564 2.38691 9.82413
H 3.24364 1.76244 14.8179
H 3.56505 8.78564 18.5455
H 4.94278 5.53949 15.8735
C 1.90385 6.04911 10.6181
H 3.61412 17.4678 1.59769
H 4.6632 10.9454 18.0597
H 17.3859 2.09533 2.65574
Si 10.9139 13.5398 13.679
O 10.5768 12.9132 15.0572
C 2.27952 2.16042 3.62467
H 6.20179 17.744 16.7135
H 7.14996 8.18621 11.2879
H 10.7081 5.75964 3.61694
C 11.3943 12.0551 12.6267
H 4.04019 4.79334 11.7677
H 3.29824 11.4894 5.13282
H 4.27785 5.89327 7.35629
Si 9.48732 13.2191 16.261
O 10.0332 12.0092 17.4194
C 7.84119 13.3861 15.3333
H 7.4058 14.125 16.2213
H 2.44207 5.69458 11.4651
H 11.5591 8.30143 11.0395
C 10.4433 14.7686 17.0336
H 9.87972 14.6498 17.9709
H 11.3881 8.43955 10.3254
H 11.2813 14.2914 17.1887
Si 11.1333 10.5241 17.2795
O 9.88375 10.0327 15.8274
C 6.4317 17.6861 7.8202
H 18.0611 9.71658 18.4846
H 5.82915 4.09231 7.79294
H 12.7565 10.2157 4.53543
C 12.5653 10.8725 16.1928
H 13.1078 9.90373 16.1007
H 11.8361 10.7954 15.3374
Si 9.31597 8.77725 14.8405
O 9.76636 7.03676 15.3229
C 10.2151 8.84432 13.2063
H 9.76971 9.65449 12.6344
H 11.0867 9.34289 13.6851
H 10.4936 7.96677 12.6438
C 7.5289 9.1095 14.3307
H 7.25348 8.53441 13.4315
H 5.26274 4.13288 4.42824
H 7.71291 9.96956 13.7084
Si 7.19516 3.84804 15.7521
C 5.83534 6.1882 15.9279
H 5.46775 9.19322 14.9216
H 5.96042 6.57194 14.9214
C 4.86209 2.69257 10.3097
H 4.42869 3.64751 10.8812
H 5.39314 2.36734 11.2217
H 5.65019 2.85696 9.55184
Si 17.7579 15.9136 13.5592
O 18.8981 15.2591 14.709
C 1.52033 14.5668 5.96652
H 18.5799 2.4538 5.21039
H 4.78911 12.8757 14.681
H 15.8888 14.4949 10.1599
C 15.9268 15.3102 13.7699
H 15.9584 14.2233 13.6509
H 15.3563 15.4547 14.7627
H 15.1571 15.6599 13.0523
Si 19.5589 13.8011 14.9473
O 19.0625 12.9012 13.6864
C 20.4111 1.80925 2.57426
H 6.78482 12.3651 3.04299
H 1.96308 7.89861 13.5166
H 4.02167 7.32249 4.11108
C 1.54163 16.3407 17.5382
H 10.2017 15.7393 16.8156
H 18.6208 1.3995 17.493
H 8.22429 14.8617 6.67048
Si 18.4324 13.0649 12.1283
O 17.0662 12.2736 12.0761
C 7.41237 6.80394 4.92792
H 4.18197 10.5814 14.0127
H 16.5728 3.15514 8.84029
H 5.75811 11.9815 17.3645
C 12.6496 2.35366 3.41798
H 13.3117 3.13898 3.69887
H 4.95533 15.3757 5.46209
H 12.0046 2.57752 4.26529
Si 16.4926 10.6353 11.5234
O 15.5418 9.9856 12.9235
C 13.4862 12.0338 16.3472
H 14.3966 11.8587 16.8904
H 12.9631 13.001 16.5903
C 15.7711 9.40693 10.0877
H 16.687 8.8404 10.3382
H 14.8873 8.79849 9.97666
H 15.859 9.73581 9.00504
Si 15.8926 9.41449 14.4036
O 17.297 7.93035 13.9404
C 16.0981 4.21251 5.48724
H 17.0904 4.2541 4.75732
H 1.92709 10.5749 9.31105
H 15.2008 4.91084 5.36438
C 16.6247 10.4559 15.8349
H 17.1174 9.77196 16.5739
H 20.1645 11.0564 15.8809
H 15.8965 11.1134 16.3173
Si 16.4375 6.39499 13.9223
C 10.7303 4.10207 15.1247
H 10.7784 3.00258 14.9533
H 9.85518 4.42303 14.5971
H 11.6737 4.51269 14.6792
C 15.3944 6.64884 12.2052
H 14.8042 5.70378 12.0396
H 14.8075 7.58355 12.3519
H 16.1633 6.5738 11.4172
523
 Atoms. Timestep: 14000
Si 2.72655 16.0571 2.42744
O 2.23073 16.0717 4.16902
C 5.40503 14.4145 5.35863
H 5.33496 14.8456 4.327
H 4.42648 14.3666 5.87898
H 14.0315 7.08257 11.2757
C 12.1372 16.0418 5.2471
H 11.6188 16.9349 5.5991
H 2.13434 3.82875 5.07889
H 5.60917 16.7696 6.58954
Si 20.5004 15.4751 5.12119
O 4.12103 15.7172 1.71798
C 16.3169 12.2891 18.3904
H 14.3361 14.6058 3.05911
H 13.7344 17.0592 8.45625
H 8.64851 16.6254 4.21367
C 4.3107 10.9863 13.6833
H 8.2365 16.7436 18.4199
H 11.4626 15.3605 4.7531
H 10.4667 11.6405 8.04578
Si 19.1764 5.44513 16.6425
O 4.43862 10.3015 5.01424
C 5.94328 8.94382 16.3659
H 20.4644 11.5674 6.68642
H 12.8243 15.4625 6.06394
H 2.3678 1.5257 4.3255
C 9.15226 17.7311 2.24182
H 12.1162 5.63478 11.2
H 8.83024 3.55171 6.42257
H 16.8587 17.507 4.50343
Si 18.5941 12.5505 16.1421
O 18.9593 15.2775 4.96576
C 4.72676 4.93824 3.69264
H 11.1155 10.8989 14.6723
H 4.56314 12.999 16.3604
H 12.7299 1.19008 15.0429
C 2.23658 4.23132 6.0421
H 5.86677 13.4163 5.33162
H 7.97713 17.6024 12.3219
H 17.6097 1.69492 14.1105
Si 20.3082 3.70229 9.07756
O 2.21351 10.9951 3.93658
C 19.6452 1.79173 3.35679
H 2.914 7.86023 4.69845
H 5.32731 10.6055 13.4722
H 18.637 14.4397 7.27028
C 4.14592 6.63559 6.82806
H 6.08939 6.66588 3.93279
H 20.4993 16.8849 5.31279
H 17.0769 16.7615 15.9708
Si 2.64738 10.1166 5.30393
C 2.82457 7.42257 6.89556
H 4.01505 5.79821 7.54173
H 11.3702 9.40179 8.25169
H 4.06473 12.9403 1.86748
C 2.90024 16.1112 7.44993
H 13.1516 5.71706 3.32434
H 11.1577 9.01523 11.1531
H 5.75458 14.7129 10.9839
Si 6.09924 7.9101 17.8339
O 6.57647 8.60107 1.61723
C 19.0782 2.64769 10.2151
H 2.38456 12.3195 6.68572
H 15.9223 5.77567 8.12373
H 12.879 16.9574 2.19514
C 8.32085 17.688 18.7001
H 3.98544 8.68894 1.91813
H 6.8749 11.7412 14.4465
H 15.7483 15.4455 7.81555
Si 8.09853 7.9745 1.8888
O 7.84332 6.80256 18.4231
C 10.6755 9.44977 3.19791
H 10.9308 10.3272 2.47166
H 11.6106 9.02729 3.4273
H 14.4839 13.6931 4.71791
C 9.88159 8.83468 1.86573
H 17.4645 3.76904 16.7863
H 12.1658 11.7327 13.7426
H 11.3578 12.5875 3.19862
Si 8.16476 5.59799 17.2536
O 9.70357 4.85574 17.4854
C 6.83716 4.45206 17.5637
H 17.5542 4.14474 9.01688
H 19.3725 11.0482 10.7669
H 14.8669 12.0051 14.4563
C 12.9084 15.618 11.3087
H 11.9996 15.1471 11.1231
H 12.9682 16.2532 12.1575
H 13.9288 15.1219 11.4165
Si 11.0135 4.59914 16.3234
O 11.8288 2.83057 16.5341
C 10.0477 5.37544 3.01541
H 11.1059 5.27352 3.18376
H 9.65512 5.27029 1.97342
H 10.0524 6.45836 3.26324
C 12.1943 6.12513 16.809
H 11.5438 6.96105 16.4359
H 14.9647 8.37443 14.5495
Si 9.0608 1.65832 17.1353
O 9.27413 17.3306 15.7513
C 3.03908 2.38824 18.1444
H 13.12 13.3351 16.3885
H 20.6177 17.6842 7.99398
H 2.49849 2.97891 17.1604
C 10.6412 4.70664 6.54525
H 2.67507 6.53428 12.5226
H 2.97711 11.1968 3.26978
H 13.4049 2.69609 2.1047
Si 8.08348 17.3793 14.654
C 7.46188 11.3115 4.08728
H 7.31709 12.2993 3.57844
H 5.99516 2.29443 17.2636
H 8.03443 10.8636 3.29591
C 8.91082 17.3821 12.9474
H 7.56965 2.12622 14.3403
H 9.06214 1.67847 12.7373
H 8.6472 16.2542 12.5046
Si 2.39042 10.0178 17.4061
O 20.414 8.70656 17.3134
C 14.4021 16.5441 16.7964
H 2.76806 2.61287 8.89155
H 6.5651 1.58238 4.51744
H 3.70362 12.3302 1.89191
C 4.35181 12.4652 13.9336
H 18.285 3.45347 5.65257
H 3.66816 15.2294 9.7027
H 12.7983 11.5117 17.4994
Si 20.4662 7.18557 17.8401
O 19.7638 6.34774 1.38838
C 19.2333 14.6379 8.0012
H 3.47418 6.76304 14.1111
H 2.47235 17.6175 10.8768
H 8.35144 6.35804 12.203
C 20.3445 9.58335 13.4239
H 1.34995 9.07331 12.7335
H 20.2389 9.35912 10.2632
H 17.1308 3.82245 8.7532
Si 18.7712 5.63411 2.48217
O 17.3519 5.56787 1.5165
C 15.6314 16.1609 17.6611
H 14.8655 8.13948 17.3608
H 6.21796 17.0622 9.54097
H 18.8468 11.9182 5.40016
C 17.0301 2.66605 1.2248
H 14.1224 15.6935 8.48663
H 13.2508 15.9864 1.84081
H 13.6285 15.8308 16.6188
Si 16.9316 4.28163 18.0502
O 15.2838 4.75835 17.5444
C 13.2717 5.8262 15.8896
H 18.763 3.45255 10.7428
H 12.811 5.42191 14.9566
C 17.0074 6.09623 11.9213
H 17.9001 5.51333 11.5903
H 17.0706 7.16815 11.6026
H 16.0511 5.69443 11.5349
Si 14.9923 4.7774 16.0367
O 16.0138 5.9536 15.1183
C 14.6374 3.11959 15.1596
H 15.3372 2.27434 14.8796
H 5.73186 9.97618 16.6319
H 15.9385 16.0153 18.6929
C 1.81863 2.98538 6.84139
H 3.65579 2.74332 13.6244
H 14.5763 14.0064 8.48338
H 19.2481 13.8529 8.61655
Si 13.2228 1.98573 15.8829
C 14.0693 17.9033 17.2759
H 14.3213 8.24019 18.1717
H 6.9122 1.88215 7.29684
H 14.971 1.25328 12.2321
C 2.371 8.36587 5.68133
H 3.94913 4.73205 4.55238
H 3.07566 5.35888 9.99966
H 1.75829 3.67449 16.6513
Si 9.93865 1.87456 7.58178
O 9.20469 17.3183 6.60834
C 20.2184 16.6268 1.36757
H 4.92212 7.34328 7.29853
H 7.27419 12.7501 1.18099
H 19.4908 15.9045 18.4496
C 7.54714 6.86848 11.6942
H 10.1193 5.61701 6.61833
H 8.83957 16.152 2.88246
H 6.66684 6.20895 11.7282
Si 8.03329 17.2116 7.88429
O 8.12372 15.6344 8.37639
C 2.1673 11.2954 6.67103
H 8.05328 11.3722 4.96327
H 18.6234 12.6462 10.787
H 3.67399 6.56551 17.3702
C 16.7826 15.9076 16.6922
H 5.18357 6.38843 16.269
H 18.9219 7.38172 8.08599
H 14.3131 3.40789 14.1126
Si 9.17335 14.2909 8.04242
O 8.59567 13.0627 8.95097
C 4.55096 12.9116 8.75548
H 4.43193 13.9448 8.40014
H 5.46521 12.9544 9.33029
H 3.75266 12.5503 9.37165
C 9.03429 13.9077 6.23176
H 14.829 3.00992 9.51918
H 8.01607 13.4821 5.94795
H 9.6275 13.1225 5.74642
Si 8.94178 12.0659 10.1994
O 7.92083 10.791 10.1481
C 10.9299 14.6676 8.2064
H 18.9686 10.2321 6.5154
H 10.8504 15.7805 8.10733
H 11.4439 14.4374 9.15752
C 20.4246 12.4787 16.9528
H 17.418 15.0717 16.5784
H 10.8858 1.27615 3.94104
H 15.9364 11.3067 18.7157
Si 6.77073 9.91116 9.14369
O 7.07576 8.27779 9.2073
C 5.04392 9.9293 9.78715
H 4.34902 10.4526 9.08275
H 4.59864 8.96394 10.1184
H 5.02547 10.5686 10.6795
C 6.85199 10.7537 7.55312
H 7.46207 11.6791 7.62478
H 7.28013 10.0517 6.81139
H 5.80829 10.8155 7.12275
Si 8.1094 7.11281 9.82849
C 9.6905 7.95946 9.86042
H 10.542 7.47052 10.3552
H 9.99401 8.16447 8.83444
H 9.53899 8.8877 10.3619
C 7.67194 5.37043 9.03621
H 7.02241 4.71737 9.7236
H 4.64857 12.2954 7.82877
Si 11.904 10.8889 8.14017
O 12.7928 11.05 6.75029
C 14.3776 13.6824 3.65939
H 13.4932 13.0125 3.30808
H 20.6794 3.74291 12.4869
H 15.2621 13.1677 3.19979
C 12.8961 11.8855 9.36056
H 12.9496 12.8439 8.85169
H 12.4679 11.9497 10.3553
H 13.9726 11.7241 9.43016
Si 13.5807 9.85274 5.87656
O 13.052 8.36577 6.3275
C 18.3738 11.8938 4.36026
H 17.4037 12.4103 4.2882
H 19.0943 12.3029 3.65482
H 18.1035 10.8931 4.02873
C 15.3569 9.99947 6.25242
H 16.1856 9.66576 5.56752
H 15.802 11.0092 6.25281
H 15.5778 9.26571 7.07084
Si 11.6493 8.03087 7.31274
O 11.7201 6.58773 7.87647
C 13.7839 6.43893 2.76932
H 13.039 7.03985 2.23188
H 14.3865 5.87963 2.0533
H 14.4686 6.98685 3.48819
C 10.2797 8.23413 6.09378
H 10.4333 9.14543 5.46016
H 10.4079 7.31123 5.44005
H 9.29843 8.04589 6.4928
Si 12.1112 4.99598 7.76118
O 12.1664 4.08786 9.10799
C 16.2925 6.38521 7.3573
H 15.8248 6.34763 6.34296
H 17.4018 6.27411 7.38472
H 15.9779 7.36059 7.70718
C 13.6208 4.87896 6.71205
H 14.2672 3.98839 6.52024
H 13.3511 5.36482 5.73223
H 14.3352 5.61274 7.20233
Si 11.3561 4.43026 10.6012
O 9.71666 4.47077 10.2547
C 11.3513 2.77628 11.5472
H 10.5767 2.11994 11.2233
H 12.276 2.25989 11.6218
H 10.9093 2.82552 12.6516
C 11.5176 14.8638 14.3549
H 6.5298 10.7539 4.11295
H 19.1522 17.3746 13.144
H 13.0091 13.3859 17.0717
Si 8.80066 3.86386 8.84241
C 6.88155 5.42716 7.72647
H 5.87267 5.80906 8.00902
H 7.1566 6.20302 6.98827
C 17.23 9.37372 2.2257
H 18.227 9.60178 1.7664
H 17.2308 8.32101 2.21697
H 17.1509 9.42118 3.23569
Si 1.40942 5.87347 6.7276
O 19.7477 6.49816 5.70994
C 16.4634 17.1499 5.53384
H 15.6876 17.8042 5.74515
H 17.1905 17.2255 6.35615
H 15.9433 16.0975 5.43549
C 3.95323 13.5591 12.9826
H 10.3989 11.9228 10.5159
H 8.37358 12.7665 11.545
H 3.85428 10.3621 14.4834
Si 19.7653 8.04221 5.32188
O 18.6158 6.05795 14.8836
C 9.99215 1.31924 3.54938
H 16.7057 12.576 6.01619
H 1.39082 1.95223 6.29837
H 12.5439 14.5561 14.874
C 20.0719 5.56811 8.57877
H 17.0286 13.2356 6.00559
H 13.2786 16.2848 10.4048
H 3.20339 15.5072 8.15964
Si 20.2978 5.82169 14.7082
O 18.8718 9.24484 6.24843
C 19.2718 10.0005 10.4294
H 19.035 9.73771 11.456
H 15.5049 15.25 9.51387
H 17.1956 9.59246 10.056
C 17.0997 12.6234 17.2248
H 16.483 13.1957 16.2905
H 15.5415 13.013 18.7467
H 18.3033 9.16047 8.53199
Si 2.12868 8.18101 8.61496
O 20.523 15.6049 10.2957
C 3.66602 6.73377 13.0272
H 6.19516 16.5193 10.1001
H 19.5369 1.83971 10.7786
H 11.0006 9.10278 11.8717
C 3.84092 13.725 16.8361
H 3.87494 14.4664 17.8258
H 13.5762 6.86423 15.7699
H 3.63887 16.9245 7.25352
Si 4.81003 3.06958 2.80168
O 2.43092 15.7288 12.4309
C 2.0079 2.64044 8.176
H 19.7584 1.61758 1.19527
H 7.45472 1.26323 1.59545
H 1.9316 14.223 7.06344
C 17.777 17.8131 13.1122
H 14.2615 1.46439 18.1149
H 19.0951 8.40173 3.82684
H 20.6474 13.6041 17.3439
Si 2.49266 16.0092 10.7581
C 9.62865 3.713 7.02367
H 12.6201 15.8889 4.16173
H 13.1106 3.67861 3.50375
H 11.1875 15.7359 14.9829
C 20.3329 4.06047 17.1185
H 19.3226 10.0443 13.423
H 7.55247 14.3436 18.3168
H 6.83304 5.05599 4.24301
Si 19.1859 16.0266 9.21823
O 1.56314 14.3125 14.7036
C 17.8432 15.2296 11.6783
H 10.7885 12.1227 3.55445
H 17.2107 4.55455 13.4636
H 5.49408 1.31148 7.74756
C 17.6907 15.8171 10.5573
H 17.9119 1.65158 12.3407
H 4.98123 2.37289 5.41767
H 16.6325 16.1922 10.2643
Si 2.74756 14.8669 13.7178
O 3.57829 16.0844 14.5965
C 1.62323 2.28535 3.75949
H 16.9956 1.91291 18.2093
H 4.08171 5.70437 12.9277
H 11.5386 14.2606 7.41668
C 20.0048 11.3365 17.3256
H 11.1442 4.57247 5.55947
H 18.4317 14.659 4.46998
H 2.55942 5.82872 17.552
Si 4.89998 16.8758 14.1124
O 5.35674 16.1481 12.6741
C 6.19769 16.6203 15.3874
H 6.45053 15.609 15.8635
H 9.0758 1.58281 4.93838
H 19.3091 2.83293 12.7567
C 3.53873 2.83567 14.6731
H 3.30439 1.79587 14.9183
H 1.8115 3.55196 10.3562
H 1.52942 1.43844 8.5257
Si 5.54868 14.589 12.4403
O 7.35531 11.808 13.5601
C 18.081 9.31214 9.63854
H 17.3318 4.55434 4.60912
H 3.46561 13.2184 12.0473
H 18.3672 8.88778 16.335
C 15.0757 15.0186 8.57469
H 17.6213 11.5806 8.67435
H 10.3009 8.0332 1.3717
H 3.49387 5.94252 9.9806
Si 18.5823 2.96608 2.10343
O 19.8971 3.49737 13.0322
C 9.16195 16.794 3.53057
H 8.62127 1.51905 10.0005
H 10.4645 11.3629 13.0758
H 11.548 15.3384 13.1802
C 5.28355 1.92681 4.38633
H 18.7027 1.35331 3.96901
H 18.0612 6.27808 3.59256
H 19.4384 3.54295 17.6016
Si 1.30329 17.4781 17.157
C 3.66746 1.33366 17.747
H 14.453 1.3874 12.8765
H 20.6116 2.22373 16.7986
H 5.86312 3.11296 12.065
C 5.14343 6.43616 17.3831
H 4.06381 5.23217 2.85137
H 9.97669 9.88084 3.8921
Si 7.71223 13.3374 12.8944
O 9.19973 13.9269 13.4616
C 8.53267 1.96591 8.94376
H 3.09832 3.80261 15.0199
H 4.28936 9.22126 2.19877
H 5.25292 5.08289 1.38648
C 20.1452 6.84624 8.90056
H 4.34534 2.98403 15.3944
H 2.6892 13.1706 17.0002
H 16.2422 2.15175 1.97749
Si 10.3155 13.4056 14.4574
O 9.72462 13.1475 15.8761
C 3.26014 2.85959 1.91807
H 5.65325 17.1574 16.3272
H 7.47822 7.82435 12.2719
H 9.5129 4.76279 3.69158
C 11.1073 11.6926 13.9019
H 4.33425 7.53422 12.7543
H 2.57974 10.6945 7.484
H 4.49169 6.19686 5.80494
Si 9.54086 12.9682 17.5499
O 9.99751 11.5548 18.0823
C 7.72615 13.2791 18.0658
H 7.26508 13.0651 17.1748
H 19.0639 5.58356 8.13476
H 12.3925 9.88544 13.1845
C 10.1003 14.2197 18.5004
H 9.28048 14.5213 1.69987
H 12.9042 9.63957 13.6947
H 11.0319 13.7208 1.3354
Si 10.314 9.98334 17.9737
O 9.07302 9.16922 16.6756
C 6.20882 17.6299 7.3436
H 16.3422 9.61343 1.64653
H 6.76808 4.48792 7.213
H 13.659 9.99555 4.30585
C 11.8901 9.59102 16.923
H 12.0807 8.51368 17.054
H 11.8687 9.69791 15.7643
Si 8.62316 8.22099 15.562
O 8.35311 6.58797 15.9863
C 9.69114 8.41428 13.9973
H 9.4575 9.41271 13.5581
H 10.767 8.37365 14.1458
H 9.29781 7.68403 13.2855
C 6.89692 8.67771 15.1359
H 6.41585 7.87204 14.5767
H 4.93612 17.6812 4.49883
H 7.04479 9.56988 14.5748
Si 7.1061 2.91469 16.6909
C 5.55909 5.02268 17.9292
H 5.05462 8.55208 15.8878
H 4.66933 4.44229 17.6204
C 6.67184 2.46741 11.6873
H 7.63625 2.87286 11.896
H 6.82977 1.65485 12.417
H 6.19152 2.43679 10.7268
Si 17.3142 15.945 13.2052
O 18.3624 15.3498 14.2915
C 1.99071 15.3333 6.64569
H 18.4644 17.2398 8.7303
H 5.01875 12.7871 14.6988
H 15.5431 3.25337 9.19407
C 15.6124 15.2655 13.5597
H 14.7409 15.1526 12.8841
H 15.5517 14.2838 14.1063
H 15.1439 15.8529 14.413
Si 19.2456 14.1038 14.433
O 19.6021 13.2367 12.9563
C 2.12295 3.07727 2.48892
H 6.12052 15.0779 5.92814
H 20.313 9.25042 14.4681
H 4.86206 9.69224 4.47082
C 19.6841 17.6242 2.10862
H 10.0923 15.1805 17.8624
H 20.2528 3.80966 2.24747
H 9.24874 14.8028 5.64656
Si 18.1646 13.2073 12.1255
O 17.0254 12.5896 13.1572
C 5.95352 5.60011 4.07822
H 3.81737 10.7823 12.7246
H 18.4668 1.8129 9.59919
H 3.63178 14.551 16.0335
C 14.1926 2.90187 2.95342
H 14.2031 1.90466 3.66739
H 3.67491 17.3274 18.3445
H 14.8548 3.72603 2.85563
Si 15.7404 11.5635 13.3732
O 16.3036 10.0926 13.6727
C 13.1167 10.3791 17.3897
H 13.8743 10.3076 16.6812
H 13.5785 10.2271 18.341
C 14.8563 11.5901 11.8201
H 15.3788 12.0291 10.9919
H 14.7688 10.5577 11.4187
H 13.7671 11.9307 12.0581
Si 16.3825 8.7913 14.732
O 17.3584 7.79104 13.9445
C 17.2966 3.83223 5.39956
H 17.1683 4.49558 6.21891
H 18.2976 11.8795 8.52264
H 16.4113 3.10432 5.53579
C 17.3095 9.00273 16.2922
H 17.05 8.20682 16.9996
H 18.1108 8.28538 10.1214
H 17.088 10.0146 16.7118
Si 17.1344 6.04891 13.8935
C 10.2407 4.58317 14.4671
H 10.3643 5.5218 13.977
H 11.0177 3.95141 14.0038
H 9.22611 4.26609 14.4809
C 13.9297 8.07132 10.824
H 12.8983 8.12269 10.3472
H 14.0132 8.87266 11.5796
H 14.4697 8.22827 9.87618
523
 Atoms. Timestep: 14500
Si 20.1967 17.3751 2.76929
O 20.8059 16.6844 4.17383
C 2.54521 14.2255 2.35951
H 1.46319 14.2736 2.59935
H 2.94347 13.2837 2.82418
H 13.7233 7.70155 8.4318
C 12.352 14.0907 5.98736
H 13.3666 14.1663 5.72377
H 1.83833 4.84074 3.92039
H 7.14221 1.65902 7.4667
Si 20.1428 16.2574 5.63217
O 1.30629 16.5159 1.59037
C 17.9127 12.3342 18.3269
H 14.8364 14.6802 4.1178
H 13.2164 17.588 12.507
H 9.39414 1.39422 2.87201
C 3.97917 10.6402 14.3819
H 8.46385 1.58011 0.89245
H 11.8993 14.9231 5.44808
H 9.97681 11.2599 7.42515
Si 20.7147 5.50787 16.4036
O 3.41292 11.5988 6.07324
C 6.78216 9.06869 17.173
H 1.33968 11.5695 8.09138
H 11.6924 13.9532 6.91649
H 2.19742 2.92316 3.34008
C 7.56839 17.2661 2.65465
H 12.1141 6.05938 11.0826
H 8.99117 3.00735 7.0811
H 15.0844 15.5217 7.20205
Si 20.5562 13.2765 17.4116
O 20.262 14.6677 5.55835
C 6.65133 3.95948 3.4969
H 12.4188 13.941 12.6764
H 5.15339 10.2942 2.1971
H 12.985 17.3053 15.0208
C 2.10363 5.06855 5.14122
H 2.65914 14.0114 1.2646
H 9.1308 1.75318 13.3706
H 19.0493 1.10391 14.5971
Si 1.67733 4.91538 8.11612
O 1.28059 11.9782 4.26284
C 20.1878 2.56546 3.13512
H 2.50688 9.48487 3.80668
H 4.27725 10.3595 13.3083
H 17.7012 16.198 8.19722
C 4.03491 7.72726 5.40038
H 7.63741 4.92403 5.44524
H 18.7435 16.9001 5.53599
H 11.0039 16.8254 3.10034
Si 1.88334 10.9346 5.61656
C 2.52941 7.98283 5.89543
H 4.62281 7.04274 6.0073
H 11.3879 8.95883 7.31166
H 2.40196 6.79674 1.37961
C 2.66822 17.0184 7.53782
H 16.1665 6.19023 3.79848
H 10.7223 8.61961 11.3551
H 5.57386 13.7194 11.1234
Si 7.43698 7.72983 18.3281
O 7.73719 8.69337 1.66131
C 20.7299 3.53686 9.01631
H 20.1837 9.93709 7.72944
H 17.0318 6.31163 7.72343
H 5.61678 15.8835 4.28418
C 6.85189 15.9107 4.39251
H 6.2579 6.46417 3.1338
H 6.86248 11.635 15.0224
H 12.9777 1.66089 9.45247
Si 9.02582 8.80739 2.7845
O 8.24927 6.44686 17.9324
C 11.7955 9.15321 2.41553
H 11.5224 9.10608 3.4777
H 12.2415 9.99788 2.04939
H 15.6499 14.1947 2.57865
C 10.3865 9.04361 1.71744
H 18.1573 5.18454 16.6776
H 11.5526 12.524 12.3325
H 12.2906 12.4349 3.25931
Si 8.17503 5.50251 16.4463
O 9.41603 4.4186 16.0304
C 6.59165 4.81341 16.5436
H 17.5134 2.69689 7.78294
H 19.2721 10.4916 9.73832
H 14.7496 11.6519 15.2512
C 14.7931 16.0003 12.0771
H 13.844 17.0136 12.3837
H 15.5493 16.182 11.4291
H 15.0548 15.5812 13.046
Si 10.8154 3.68192 15.5226
O 11.4415 2.27184 16.0817
C 11.0354 4.3909 2.1925
H 10.7385 4.33232 3.23897
H 11.7608 5.23768 2.00439
H 10.2344 4.51094 1.52386
C 12.0497 5.21768 15.4672
H 11.8739 5.62013 16.4833
H 15.4209 7.74381 15.5345
Si 6.41051 2.82041 17.4355
O 7.24953 2.27812 16.2903
C 4.53816 1.36736 18.5656
H 14.58 13.4195 18.1499
H 14.2387 14.898 9.63275
H 4.61659 17.3644 17.8557
C 10.7048 4.14511 6.47317
H 4.1056 7.45919 14.1732
H 19.9884 12.0005 4.49924
H 15.6787 1.7875 4.51101
Si 6.53006 1.94236 14.83
C 8.77868 11.7345 4.51876
H 9.29066 12.5652 4.98117
H 5.59927 4.67186 13.6905
H 7.92417 11.3226 5.04687
C 7.88946 1.71696 13.5935
H 7.7645 4.58199 14.3275
H 7.38472 17.7487 12.807
H 7.70905 2.61122 12.9217
Si 20.6844 9.23014 16.2821
O 1.20317 8.58665 17.7748
C 12.5772 17.8329 18.2359
H 4.53192 5.04884 7.37352
H 4.26844 2.58731 4.90342
H 18.2148 4.2646 1.45083
C 4.28571 12.1072 14.5446
H 17.6478 4.34829 4.50469
H 20.5623 11.7659 11.5689
H 13.8465 8.46408 15.9857
Si 20.621 7.19566 18.5159
O 19.0659 6.68333 18.6668
C 17.9579 15.0622 8.72918
H 4.48956 6.88504 12.5506
H 19.8962 11.4177 11.7185
H 9.21878 6.12315 12.0892
C 20.0738 9.24296 14.4192
H 19.9257 10.0946 13.6554
H 18.6626 9.2264 8.90646
H 3.63639 15.0342 10.3453
Si 18.0273 5.64927 1.62552
O 16.9791 5.70315 18.2238
C 12.2288 17.3099 1.45704
H 13.2759 6.18892 1.35776
H 5.84533 17.1526 12.1536
H 19.4622 14.9583 3.48902
C 17.2583 2.72823 17.3109
H 13.8608 17.2356 9.04609
H 8.77631 4.2665 4.39258
H 10.4248 15.6337 1.62266
Si 16.9352 4.56707 17.0447
O 15.3593 4.21493 16.5273
C 13.3433 5.35715 14.7515
H 19.8695 3.66096 9.49117
H 13.2981 5.64679 13.6507
C 15.1743 6.90011 12.2534
H 15.003 7.92805 12.6221
H 14.3528 6.17217 12.2559
H 15.2965 7.1112 11.211
Si 14.683 3.99609 15.0652
O 16.0731 4.88921 14.1577
C 14.0935 2.34868 14.8505
H 14.755 1.56015 14.4984
H 7.03123 10.0286 17.6295
H 4.73457 14.881 18.8801
C 2.73867 4.17907 6.03776
H 2.724 1.83404 11.7476
H 14.536 18.1608 10.2981
H 17.3004 14.322 8.33881
Si 13.0232 1.59258 16.2003
C 13.8254 18.11 17.6577
H 13.5914 5.75056 18.1453
H 5.67747 1.30894 8.52286
H 15.9449 3.16101 10.9234
C 1.96712 9.14747 4.78111
H 5.95315 4.73313 3.81742
H 4.55515 6.41989 9.96756
H 1.61001 2.98104 16.5279
Si 10.3554 1.31683 8.24707
O 9.22137 17.127 8.12169
C 17.9478 1.43757 2.8512
H 4.57197 8.65436 5.31255
H 5.20016 13.1914 1.566
H 17.4867 1.77005 3.82769
C 8.29827 6.54681 11.6669
H 10.0824 5.01645 6.26039
H 7.66269 15.0707 2.16064
H 7.60012 5.72313 11.7609
Si 8.0241 17.5759 9.15619
O 7.87151 15.9875 9.77169
C 20.5814 10.8159 7.26326
H 8.3539 12.0765 3.55781
H 18.3792 12.2244 12.1888
H 3.57209 4.51857 18.6114
C 11.0632 16.3764 2.06678
H 4.06659 6.16528 18.869
H 19.9224 7.35355 9.19392
H 13.4493 2.39498 13.9382
Si 8.74275 14.6042 9.51593
O 8.0024 13.0563 10.0344
C 5.58715 13.8965 7.40126
H 4.963 13.6515 6.53292
H 5.11173 14.2056 8.34058
H 6.12304 12.9765 7.71477
C 8.86345 14.4458 7.6642
H 18.6006 1.87028 10.3671
H 8.13326 15.0506 7.15441
H 8.68273 13.3296 7.35632
Si 8.39405 11.5223 10.2393
O 7.57158 10.578 9.25204
C 10.4281 14.7131 10.4032
H 17.9562 9.03417 5.38156
H 11.3269 14.4196 9.81018
H 10.3935 15.6141 11.0256
C 2.178 11.7324 16.9927
H 11.3744 15.2327 2.27253
H 6.76123 0.903864 18.9439
H 17.373 13.1218 1.24905
Si 6.47755 9.29009 9.05571
O 7.21743 7.95415 9.41361
C 5.05376 9.70514 10.1771
H 5.14807 9.18196 11.1226
H 4.99053 10.7757 10.4057
H 4.10679 9.467 9.68178
C 6.2237 9.54145 7.23615
H 6.42699 8.53422 6.78375
H 5.1998 9.75793 6.90512
H 6.95943 10.2128 6.80242
Si 8.33268 6.77106 9.74464
C 9.76019 7.33385 8.70195
H 9.54576 7.24972 7.63661
H 9.97783 8.3743 8.88314
H 10.6911 6.73192 8.83586
C 7.84813 5.05685 9.06488
H 7.09258 4.75105 9.78043
H 6.31612 14.6708 7.04197
Si 11.3435 10.6641 7.57237
O 12.039 10.9681 6.03301
C 15.2297 15.0463 3.14028
H 14.3307 15.3274 2.51233
H 20.6594 7.28067 11.0369
H 15.9926 15.8632 3.24955
C 12.3576 11.012 9.01542
H 13.246 10.371 9.15439
H 12.7958 12.181 9.19179
H 11.7556 10.8682 9.91092
Si 13.2881 10.145 5.28081
O 12.8874 8.48181 5.2519
C 18.7041 14.5565 2.86356
H 17.9878 15.362 2.56222
H 19.2267 14.1829 1.98879
H 17.9875 13.8446 3.26291
C 15.0063 10.2874 6.26773
H 15.1713 9.37911 6.95722
H 15.7749 10.0471 5.57251
H 15.1978 11.0856 6.94386
Si 11.7793 7.64669 6.14961
O 12.7006 6.41384 6.6188
C 15.1152 5.92154 3.90149
H 15.0542 4.86514 4.21209
H 14.6586 5.95216 2.92113
H 14.5149 6.53542 4.52978
C 10.3819 7.43298 5.00776
H 9.49253 6.83258 5.30521
H 10.1251 8.44596 4.69405
H 10.8037 6.89514 4.13854
Si 12.3327 4.84826 7.24754
O 12.6127 5.24626 8.79888
C 17.063 7.41398 7.754
H 16.4068 7.81034 8.54098
H 16.889 7.76408 6.69969
H 18.037 7.60735 8.19191
C 13.8065 3.60043 6.79152
H 13.8794 2.85038 7.58424
H 13.7759 3.17006 5.76101
H 14.7929 4.05398 6.82475
Si 12.2159 4.82675 10.3536
O 10.5306 4.41242 10.4429
C 13.4593 3.96436 11.3614
H 14.431 4.38811 11.0137
H 13.3069 4.30653 12.3758
H 13.5728 2.9275 11.4608
C 9.81647 15.352 14.5108
H 9.66559 11.0893 4.49545
H 18.2787 18.1014 13.049
H 14.8692 13.7243 17.5984
Si 9.35229 3.70105 9.20856
C 7.2282 5.07575 7.6433
H 6.17058 5.45247 7.49924
H 7.77809 5.65009 6.89184
C 16.4796 8.84456 2.68237
H 16.9085 9.88798 2.58343
H 15.9358 8.7213 3.66965
H 15.9088 8.41697 1.86002
Si 1.16409 6.44021 5.74502
O 19.7175 7.27627 4.88474
C 15.7865 15.8005 6.42847
H 15.0019 16.0684 5.64831
H 16.5089 14.9122 6.27699
H 16.4288 16.6482 6.76085
C 3.99894 12.835 13.359
H 9.85318 11.3067 9.92721
H 8.34014 11.2296 11.8473
H 4.48961 9.94244 15.0321
Si 19.8596 8.75545 4.39001
O 1.70476 6.53749 15.3891
C 8.48527 1.22017 2.31055
H 17.6844 11.8148 3.63785
H 2.89692 3.33758 5.49234
H 10.5578 15.6169 15.3554
C 20.3633 5.99118 7.29721
H 17.3198 12.1263 4.31665
H 14.0153 15.5358 11.4063
H 3.538 17.7366 8.0132
Si 1.82213 5.80869 13.9093
O 18.6142 9.63777 5.0936
C 18.3461 9.97582 9.70582
H 17.9779 9.37707 10.5865
H 13.0069 17.6363 10.7493
H 17.7104 10.9855 7.93707
C 19.1989 12.1108 18.0942
H 19.4363 10.9916 18.0183
H 17.2592 11.5189 18.1593
H 16.4465 10.8027 9.30032
Si 2.17882 8.5422 7.58419
O 20.377 15.8203 10.3701
C 4.41272 7.76948 13.1829
H 5.39313 17.5737 11.9906
H 2.02136 3.36421 9.57098
H 11.1134 8.51613 10.7336
C 4.20268 9.89479 1.97273
H 3.42401 10.2862 1.24459
H 14.0742 6.02547 15.3393
H 3.29152 16.1229 7.40952
Si 6.45878 2.11357 3.41262
O 2.53213 15.1785 12.1953
C 3.49959 4.31765 7.35041
H 17.4257 17.5481 2.83958
H 7.42397 15.96 5.21626
H 20.4227 17.7676 7.23605
C 17.9792 17.7347 14.1933
H 14.6878 1.03255 18.4212
H 19.4318 8.79457 2.91064
H 2.97331 11.6985 17.6089
Si 2.44706 15.6971 10.7145
C 9.95948 3.2635 7.49862
H 12.0057 13.1498 5.36981
H 14.3776 3.31185 3.5856
H 8.88715 15.472 14.787
C 1.2391 3.82539 17.2542
H 20.0561 8.14933 14.002
H 4.44805 13.7022 17.6925
H 7.66934 5.90569 3.84598
Si 18.8218 15.627 10.2373
O 1.39983 13.7921 14.2788
C 17.9034 14.8785 12.9708
H 11.7567 12.193 3.74697
H 18.1209 4.94077 12.339
H 6.0173 16.8363 7.94377
C 18.1268 15.1704 11.6553
H 17.6031 17.7964 15.0937
H 4.20357 1.36517 3.39408
H 17.5027 2.05266 8.22127
Si 2.76488 14.3205 13.5581
O 3.53334 15.3089 14.5701
C 1.72653 2.08555 2.66793
H 17.3998 2.27907 16.324
H 3.49577 8.31215 12.871
H 10.3087 13.8353 11.0873
C 1.53834 10.7555 16.5063
H 10.9354 3.57781 5.58087
H 19.8361 13.769 5.24829
H 2.35519 4.31053 16.696
Si 4.97956 15.9889 14.2056
O 6.16311 14.9086 13.5732
C 5.51746 17.3955 15.2341
H 6.2618 16.9091 15.9412
H 4.94035 4.61297 1.56835
H 1.51673 3.68134 14.4791
C 3.09171 1.15642 12.5331
H 2.67246 17.056 10.3258
H 1.17152 6.93149 10.0963
H 3.53682 3.39468 7.99921
Si 5.84114 13.5979 12.5455
O 7.42869 11.3662 14.3097
C 17.4284 11.0329 9.00255
H 19.2898 5.06633 4.9308
H 3.75642 12.0598 12.5649
H 18.3568 8.17725 16.9974
C 13.5913 17.956 9.87105
H 13.3982 12.7374 9.03311
H 10.6474 7.52043 18.2632
H 4.58681 5.96218 10.4832
Si 18.6573 2.69742 18.2595
O 2.09345 4.25979 13.8718
C 7.50639 15.8755 3.08105
H 9.54528 1.69015 10.881
H 12.4292 12.6397 13.8403
H 9.96932 16.181 13.7054
C 4.86912 1.64785 4.33806
H 20.1611 3.55703 3.61701
H 19.3314 6.21446 2.78443
H 2.19947 4.1238 17.7647
Si 2.11008 17.1053 17.9866
C 3.1512 1.63425 18.3472
H 16.3192 2.9175 10.2451
H 16.7522 5.55998 2.21561
H 4.89563 2.8168 10.4637
C 4.4905 5.2187 18.5295
H 6.86259 4.31347 2.50427
H 12.0973 8.07788 2.18527
Si 7.74401 12.355 13.0029
O 8.99216 13.1927 13.2168
C 9.15408 1.81194 9.82884
H 2.08845 1.23704 12.9288
H 6.08891 6.54178 3.8536
H 4.32114 5.51418 16.2491
C 20.5657 7.47384 8.25022
H 3.57023 1.6454 13.4027
H 3.99202 9.97275 2.93412
H 16.4031 2.32336 17.6215
Si 10.3352 13.7125 14.0862
O 10.34 12.7688 15.5361
C 5.82583 2.01416 18.8539
H 4.58808 17.4888 15.7781
H 7.95308 7.35523 12.2824
H 11.608 3.48134 1.96805
C 11.7944 13.1854 13.1643
H 5.3012 8.39914 13.1805
H 19.5612 10.9928 6.8567
H 3.88775 7.48905 4.36215
Si 11.2533 12.4013 16.8819
O 10.4272 11.4198 17.9368
C 5.04631 13.9019 18.6146
H 5.70201 13.4322 18.0318
H 19.3984 5.88262 7.30313
H 13.1096 8.52031 12.7514
C 11.8616 13.8752 17.9386
H 10.8768 14.3675 18.0231
H 12.3708 8.39473 12.8015
H 12.2671 13.4148 18.9456
Si 10.6433 9.55599 17.9238
O 9.55681 9.14808 16.7764
C 6.59991 17.8521 8.10852
H 17.428 8.3626 3.00186
H 7.23209 4.04648 7.20528
H 13.5416 10.285 3.8561
C 12.2773 9.56753 17.0248
H 11.8584 9.73762 16.0255
H 12.7245 10.5891 17.3244
Si 8.87142 8.39192 15.4597
O 8.64389 6.74318 15.4431
C 9.63949 9.28769 14.0536
H 9.05051 9.16874 13.1113
H 9.82451 10.3308 14.272
H 10.6267 8.84291 13.8125
C 7.01529 8.87566 15.6788
H 6.45388 7.93941 15.4891
H 5.09174 17.7194 4.60787
H 6.67528 9.61723 14.9748
Si 6.41812 4.08558 14.7278
C 5.03991 5.5258 17.1097
H 5.70442 8.86748 17.2577
H 5.5386 6.49309 16.9456
C 4.89838 3.20014 11.468
H 3.86617 3.66928 11.6883
H 5.26845 2.4103 12.094
H 5.60282 4.1481 11.5505
Si 17.6906 15.9678 14.7119
O 18.9974 15.446 15.5582
C 1.49105 17.0073 6.96389
H 19.0216 5.1415 12.5266
H 4.50062 12.5731 15.5019
H 18.9663 1.30803 10.1828
C 16.0133 15.8573 15.4289
H 15.1157 16.0575 14.8138
H 15.8815 14.8247 15.7262
H 15.8525 16.5347 16.3053
Si 19.8959 13.9689 15.3877
O 18.8227 12.7157 14.9076
C 2.17009 1.93364 1.3288
H 2.95796 15.2131 2.59641
H 19.0751 8.87132 14.9921
H 3.70069 12.465 5.6587
C 19.009 1.96576 2.42771
H 12.4115 14.6633 17.8112
H 2.39387 16.5596 16.4137
H 9.84696 14.6881 7.22142
Si 18.1186 12.9424 13.3966
O 16.4283 12.5461 13.5769
C 7.72052 4.65739 4.39094
H 2.89201 10.3783 14.5197
H 1.25167 2.78996 8.32987
H 4.50158 8.70495 2.2284
C 14.8383 2.08969 3.6275
H 15.1126 1.77518 2.57667
H 20.3259 15.8008 1.30451
H 13.9818 1.21665 3.97717
Si 15.5725 11.2802 14.1169
O 16.3574 9.81615 14.3253
C 13.3762 8.55607 16.8633
H 12.9958 7.59356 17.3011
H 14.1827 8.86532 17.6084
C 14.5279 10.9531 12.5464
H 14.1696 11.9102 12.0179
H 15.0367 10.3566 11.7802
H 13.6304 10.4169 12.7835
Si 16.6612 8.50132 15.427
O 17.4713 7.27636 14.4036
C 18.3316 4.71789 5.35757
H 18.4088 3.99324 6.15184
H 14.1635 14.236 9.28144
H 18.0029 5.66052 5.72213
C 17.4443 8.81742 17.0606
H 16.8003 8.28455 17.7936
H 17.7162 12.0094 9.35821
H 17.711 9.72112 17.5971
Si 16.5897 6.16058 13.4148
C 10.6722 3.38631 13.706
H 10.3409 2.36127 13.4096
H 9.72422 3.89272 13.4531
H 11.3725 3.80166 12.9423
C 14.2114 7.69093 9.38075
H 14.6949 8.68825 9.52299
H 13.4636 7.71456 10.2481
H 14.8861 6.79547 9.43622
523
 Atoms. Timestep: 15000
Si 20.5709 14.7356 2.57345
O 1.28824 14.2444 4.10897
C 4.57774 12.347 2.36828
H 4.45687 12.1705 3.44414
H 3.94448 13.1439 1.92691
H 12.6225 8.71332 10.6643
C 11.3636 17.9973 7.99781
H 10.9319 17.018 8.33936
H 1.72869 5.99068 3.32797
H 4.82819 2.15206 7.69592
Si 20.1814 14.8843 5.15035
O 1.88614 15.7779 1.8818
C 19.5346 14.2798 18.1045
H 15.1425 15.3693 17.2552
H 13.1662 17.0342 12.4617
H 5.88165 17.4699 2.96891
C 4.75255 11.5504 15.3958
H 8.77124 1.18767 4.38785
H 10.9849 18.1039 7.01156
H 10.8525 10.1904 7.00412
Si 1.80209 4.52179 16.1021
O 3.79204 11.7261 5.77065
C 6.18091 8.69277 17.8208
H 20.384 11.76 7.31735
H 12.5976 15.5271 4.68995
H 2.43774 3.71647 2.58061
C 6.64243 17.0009 3.76465
H 11.5579 5.44694 11.769
H 8.9143 3.38833 6.71925
H 16.5117 14.1117 7.27843
Si 1.48583 12.9771 17.7288
O 19.6923 14.2597 6.58606
C 8.77393 3.7876 2.61179
H 12.4986 14.166 13.0487
H 5.75783 8.65627 3.60894
H 13.3204 17.5387 18.2328
C 1.86793 5.56229 4.3844
H 5.58163 12.8476 2.12853
H 8.28829 1.2141 13.312
H 19.6898 1.77213 13.7594
Si 2.6357 5.52299 7.59194
O 20.7015 11.5063 4.85549
C 20.3824 2.45481 2.96207
H 2.67337 9.21052 4.1457
H 3.76741 11.05 15.1145
H 20.1106 17.5273 11.266
C 3.90364 7.69908 5.28222
H 9.76294 5.50699 3.52638
H 18.8912 13.9869 4.17244
H 9.49145 15.4071 2.33298
Si 2.325 11.2015 5.75826
C 2.65373 8.21683 5.89238
H 4.36863 6.8394 5.81239
H 12.4202 8.98526 7.86639
H 2.18637 1.93896 14.0857
C 1.69343 17.8202 5.24519
H 16.5742 8.28842 18.9041
H 11.7727 12.1448 12.2311
H 4.92351 13.2362 11.3511
Si 6.94325 7.52672 1.16294
O 8.11888 8.4201 1.78707
C 3.62059 4.45588 8.84379
H 2.00532 10.6317 8.3705
H 16.4591 4.81548 4.98694
H 4.45856 14.3729 4.66655
C 4.81916 15.4415 4.3424
H 8.65618 10.0907 5.56782
H 8.5642 11.9584 14.5659
H 15.1873 3.46813 10.0625
Si 8.8661 9.95663 1.4216
O 7.78046 6.13692 18.5994
C 11.4609 10.6482 2.30562
H 12.4905 10.4892 2.80616
H 10.6898 11.4025 2.29114
H 14.8023 15.4836 0.996942
C 10.9138 9.47669 1.6001
H 18.1141 3.00994 15.357
H 12.9118 15.0988 14.4917
H 14.1011 11.9138 3.06981
Si 8.04127 5.46833 17.1063
O 9.4264 4.63569 16.9355
C 6.45759 4.43331 17.057
H 4.19805 4.82769 9.63791
H 14.1713 8.30647 8.67148
H 15.0011 12.0304 14.7678
C 14.1968 15.1687 10.2975
H 12.6442 17.1545 12.9992
H 13.237 15.7005 10.3107
H 14.2369 14.1965 9.93564
Si 10.8418 3.98748 16.2249
O 10.8479 2.30562 16.0142
C 14.8381 4.34661 2.57863
H 13.7615 4.56301 2.48825
H 14.9149 3.3232 2.05889
H 15.1341 4.36224 3.6899
C 12.3684 4.24745 17.1693
H 12.646 3.61889 18
H 14.93 8.32874 15.9277
Si 6.72624 2.5549 18.0538
O 6.65164 1.4377 16.8141
C 4.97819 1.41212 1.45761
H 14.7177 12.5344 17.5304
H 17.5691 17.327 9.45817
H 6.07107 18.0548 1.74654
C 10.8701 4.31174 7.07661
H 4.45798 8.61638 14.1197
H 1.1085 12.4266 5.20455
H 13.4114 1.71717 2.94446
Si 6.46785 1.73579 14.804
C 9.39402 12.3915 5.478
H 9.55959 13.4371 5.63137
H 4.71124 3.93411 14.7926
H 9.96561 11.8161 6.21183
C 7.1928 18.0975 13.1123
H 6.86451 5.35465 12.4848
H 7.15526 17.1404 13.3811
H 6.67174 5.9267 13.1486
Si 1.54546 9.1931 16.0169
O 2.41123 7.79525 16.51
C 11.6354 17.5657 18.5821
H 3.36968 3.05861 6.43937
H 5.91707 4.1646 4.86005
H 13.9867 16.7697 5.87829
C 4.58317 12.8501 14.6945
H 19.1705 3.84752 5.31852
H 20.0878 6.9389 14.2941
H 13.1421 7.85838 1.19097
Si 1.84641 6.30657 17.3868
O 20.001 6.77756 17.7805
C 20.0833 17.075 10.0013
H 4.08013 6.91643 13.7059
H 19.378 6.92236 14.8324
H 9.56871 7.29646 11.5486
C 1.65294 9.28891 13.8969
H 20.5384 9.01949 13.1852
H 14.9561 8.13751 10.3054
H 18.5334 15.2216 8.9168
Si 18.6471 5.8863 18.2716
O 18.5956 4.68219 16.8434
C 11.0752 16.5672 1.15531
H 18.3895 5.15174 16.0294
H 3.83832 16.4365 10.1881
H 15.0547 15.1543 5.56917
C 17.0318 2.14733 18.1262
H 15.5016 1.80109 10.7167
H 9.27409 4.15112 4.79519
H 9.08054 16.7513 18.8702
Si 17.406 3.40703 16.611
O 15.8616 3.67279 16.2927
C 13.2773 5.12893 16.4479
H 2.26698 8.39542 10.6233
H 12.7616 5.65227 15.6745
C 16.2312 6.32743 11.5709
H 16.9998 7.16821 11.4777
H 15.3445 7.00764 11.5746
H 16.0094 5.65207 10.738
Si 14.6415 4.24817 15.3726
O 14.8616 4.75108 13.888
C 14.0753 2.29898 15.1435
H 14.9162 1.63035 15.4072
H 6.12939 9.5484 18.4974
H 6.5903 15.79 16.8768
C 2.92394 4.67004 4.78636
H 20.4716 3.88514 8.11826
H 15.006 1.77639 9.02712
H 1.39965 17.2822 9.99341
Si 12.4818 1.4696 16.1214
C 12.636 0.963414 18.07
H 13.9975 17.4368 5.96666
H 5.76957 1.99016 9.3735
H 19.6387 3.66383 8.62612
C 2.27384 9.33057 5.23161
H 8.50127 4.49073 1.82477
H 4.02535 7.18634 11.1502
H 1.81634 2.62392 13.6839
Si 9.7091 1.5912 8.10255
O 8.47877 18.011 7.22609
C 19.1956 17.4337 18.8132
H 4.59709 8.59594 5.2124
H 6.41033 14.5838 17.5499
H 18.2898 16.7837 18.9854
C 8.66162 7.80963 11.1238
H 10.4675 5.33691 6.94426
H 7.05116 15.2089 4.87287
H 7.8859 7.63293 11.8433
Si 7.33604 18.1059 8.51665
O 7.34559 16.6578 9.29647
C 1.69247 11.0418 7.48983
H 8.32593 12.2357 5.74871
H 19.3572 12.2482 12.189
H 3.45126 5.61728 18.9075
C 9.66346 15.8231 1.26597
H 5.16783 5.63592 1.50684
H 20.6741 6.42425 8.74752
H 13.6895 2.08205 14.1388
Si 8.27423 15.2121 9.14389
O 7.71255 13.8875 9.97589
C 4.88328 14.4876 8.00172
H 3.8622 14.2242 8.30362
H 4.96839 14.3317 6.94869
H 5.06431 15.5637 8.19942
C 8.50401 14.7915 7.34816
H 15.8316 17.9896 12.6838
H 9.01047 13.7778 7.51897
H 9.09779 15.604 6.92828
Si 8.12583 12.2498 10.23
O 6.94508 11.074 9.89508
C 9.92047 15.3654 10.1756
H 18.7784 10.339 6.17437
H 10.3751 16.3823 10.2109
H 9.57228 15.0935 11.208
C 2.00483 10.9128 18.0682
H 9.38207 15.339 18.4744
H 8.17923 1.65838 18.6891
H 19.3295 16.1056 1.68175
Si 5.92554 9.7778 9.53504
O 6.46292 8.14765 9.59506
C 4.39546 10.068 10.5334
H 4.63759 10.0536 11.6097
H 4.02007 11.081 10.3814
H 3.63661 9.30094 10.3922
C 5.75306 10.0588 7.71367
H 6.61223 9.5211 7.32432
H 4.84804 9.66582 7.21527
H 5.85155 11.1288 7.40761
Si 7.91343 7.24237 9.427
C 9.06959 7.94556 8.00913
H 10.0377 8.26189 8.46642
H 9.33146 7.1847 7.2694
H 8.70489 8.80364 7.45773
C 7.44992 5.39907 9.30668
H 6.89874 5.19524 10.2627
H 5.51813 13.7906 8.52884
Si 12.1455 10.4743 7.81699
O 13.2439 11.0125 6.74899
C 15.5362 15.0239 18.1682
H 15.65 13.9954 18.4062
H 1.71091 8.60316 10.8585
H 16.3589 15.6642 18.3272
C 12.1911 11.6287 9.24429
H 12.4691 12.6559 9.00724
H 11.1263 11.5813 9.67315
H 12.7752 11.1498 10.0767
Si 14.2257 10.0325 5.70701
O 14.0583 8.45177 6.06096
C 15.2873 14.6446 4.63446
H 16.3918 14.7658 4.49053
H 14.9633 13.6343 4.51161
H 14.9065 15.1414 3.74561
C 16.0184 10.3294 5.46217
H 16.1415 10.1397 4.2694
H 16.3445 11.2743 5.73233
H 16.7562 9.66148 5.99449
Si 12.7547 7.6484 6.66779
O 12.8828 6.35195 7.51855
C 15.9116 8.08425 1.77242
H 15.3765 7.04804 1.87529
H 15.1337 8.81785 1.71534
H 16.5076 8.35426 2.60627
C 11.4381 7.65622 5.44764
H 11.5399 8.48233 4.74871
H 11.4037 6.69122 4.87713
H 10.4393 7.86288 5.89198
Si 12.4996 4.64678 7.80311
O 12.5881 5.01034 9.43972
C 16.933 5.79372 4.90638
H 17.8415 5.90075 4.31835
H 17.2106 5.98036 6.00539
H 16.153 6.52825 4.69616
C 13.9668 3.75676 6.97173
H 14.1929 4.50236 6.23783
H 14.845 3.66729 7.65803
H 13.7522 2.77131 6.50596
Si 11.4743 4.59113 10.5994
O 9.97605 4.82849 10.1425
C 11.9342 2.83902 11.1517
H 12.9105 2.94828 11.5748
H 11.006 2.35148 11.6738
H 12.0838 2.12627 10.3117
C 9.70397 15.7887 15.3353
H 9.69396 12.0936 4.47803
H 19.2449 17.3294 15.0489
H 15.244 12.1442 17.9158
Si 8.78985 4.12025 9.14584
C 6.49348 5.17178 8.09259
H 5.81601 5.99243 7.93883
H 7.11681 5.1918 7.19834
C 17.5582 11.5448 1.38774
H 18.1746 11.573 18.4624
H 16.6506 12.149 1.43506
H 17.6003 10.5256 1.39779
Si 20.3825 6.34824 5.41882
O 19.4265 7.6679 5.21121
C 16.5709 15.2039 7.21369
H 16.9413 15.5827 6.23143
H 17.2751 15.5581 8.08936
H 15.5285 15.4217 7.60377
C 3.60212 13.1091 13.6608
H 9.38677 11.8026 9.53863
H 8.12572 12.1271 11.7994
H 5.66012 11.0726 14.9627
Si 20.1655 9.12722 5.21126
O 2.17011 4.88612 14.296
C 7.82318 17.9482 3.90713
H 16.4115 12.002 8.76902
H 3.77101 4.6555 4.03489
H 8.95109 15.8465 16.0589
C 19.5353 5.9448 7.03081
H 16.6397 12.6957 8.95047
H 15.0785 15.4636 10.9017
H 2.51466 17.9988 4.64708
Si 1.23571 5.28707 13.1222
O 19.3805 9.78257 6.55963
C 15.1019 8.06831 9.17759
H 15.3657 6.96953 8.89889
H 16.5408 2.63654 9.47602
H 16.1616 9.0668 7.73616
C 20.2369 13.6272 1.11893
H 19.6392 12.6591 1.53597
H 18.4893 14.1191 18.2735
H 15.6872 10.0221 8.97995
Si 2.39734 7.90784 7.65055
O 20.846 14.2061 9.53412
C 4.89784 7.67136 13.8139
H 4.24409 16.7201 10.8775
H 2.74163 5.11527 9.21437
H 11.0636 12.1827 12.0098
C 5.69159 9.69379 3.61202
H 6.28426 10.2198 2.76935
H 13.8873 5.70776 17.109
H 1.12944 1.59774 5.29618
Si 6.89673 2.98569 2.86497
O 1.79935 13.8137 12.025
C 2.67992 4.01699 6.1414
H 18.8501 17.6298 17.5396
H 4.68635 16.495 3.7414
H 2.26786 15.8662 5.91648
C 18.2829 17.4787 14.5523
H 12.831 2.02549 18.7645
H 19.5659 9.78255 4.09991
H 2.50911 10.9666 1.04066
Si 1.83708 13.0962 10.4951
C 9.68608 3.48675 7.50619
H 12.1317 1.6217 8.21654
H 14.3479 17.4488 2.53061
H 9.37395 16.3466 14.4855
C 2.50911 2.86034 16.5615
H 20.7659 10.1059 14.6461
H 6.65992 15.8902 18.8074
H 10.8678 3.97195 3.85897
Si 19.7 15.3066 9.94449
O 20.8399 13.9259 14.7709
C 18.4355 14.3996 12.6566
H 14.782 12.0308 3.47449
H 19.0176 7.67506 9.99752
H 5.16474 1.0638 8.13402
C 18.9367 14.9961 11.6216
H 20.2883 1.80902 13.9916
H 7.39532 3.56129 5.39655
H 17.9271 4.36321 14.8798
Si 2.16408 14.2316 13.6647
O 2.81728 15.708 13.965
C 1.86043 2.69541 2.43619
H 17.3765 0.985468 17.8847
H 5.35297 7.76304 12.8397
H 10.7284 14.6429 10.0044
C 1.13673 10.6172 17.1671
H 11.0479 3.92472 6.04029
H 20.4292 13.8753 7.22128
H 1.32565 2.20922 16.4783
Si 4.24455 16.6575 13.616
O 5.29902 15.3678 13.0681
C 4.78684 1.01146 14.3525
H 4.26368 1.46544 15.328
H 4.58078 4.13723 1.34207
H 2.32102 7.54457 12.6001
C 20.259 4.38533 11.7099
H 1.44246 11.7293 9.85075
H 19.1349 7.03342 10.2578
H 1.64083 3.71608 6.64734
Si 5.32202 13.6712 12.8103
O 7.69872 11.876 14.1825
C 16.1726 9.07096 8.83049
H 17.9551 3.02571 6.50401
H 3.28045 12.1564 13.1422
H 18.104 9.95633 15.9137
C 15.4936 2.4705 9.79951
H 11.8685 15.5767 5.05701
H 11.1865 8.56674 2.07143
H 3.95886 6.71824 11.702
Si 18.416 2.89504 1.37899
O 1.31817 6.97419 12.4921
C 6.28806 15.7158 4.23216
H 8.22828 1.92056 10.3652
H 11.8051 15.7662 13.2491
H 10.5602 16.4123 15.7232
C 6.86624 3.98591 4.49892
H 20.5631 2.3722 4.00634
H 19.3966 3.057 18.433
H 3.22174 2.51298 17.404
Si 1.29323 17.0828 1.29747
C 3.64512 1.66212 1.27451
H 19.3713 17.7207 9.5633
H 18.2938 4.31322 1.94735
H 5.88625 3.46117 11.8506
C 4.56021 5.04267 18.7751
H 9.33817 3.41787 1.6602
H 11.7074 11.6875 1.36093
Si 7.66733 13.0516 13.0812
O 8.95421 14.1316 13.1861
C 8.65802 2.24442 9.4411
H 20.1106 3.39563 12.156
H 8.2461 9.44557 5.37572
H 4.49036 5.13384 16.9491
C 1.1684 6.24049 7.69074
H 19.4229 4.70889 11.2188
H 5.99412 9.4731 4.66361
H 16.012 2.94175 18.53
Si 10.3078 14.2298 14.4241
O 10.0584 12.8192 15.405
C 5.87441 2.54232 1.44505
H 4.60694 2.06506 13.6018
H 8.82443 8.87316 11.1057
H 15.4992 5.01646 2.02426
C 12.0602 14.8416 13.8095
H 5.68994 7.30245 14.4834
H 20.3744 10.9127 7.94049
H 3.75371 7.11665 4.35113
Si 10.6511 12.5963 17.0924
O 11.4941 10.9509 17.1468
C 6.18805 15.5259 17.9255
H 4.67371 15.5348 18.202
H 18.6728 5.26149 7.34385
H 12.4828 10.3106 14.1484
C 9.05346 12.7675 18.0561
H 7.98553 13.5538 17.8723
H 12.6141 10.8483 14.656
H 9.0372 11.4897 17.9613
Si 10.8757 9.46293 17.6181
O 9.62403 8.82371 16.7875
C 5.72674 1.75172 8.31197
H 18.1224 11.9156 2.28512
H 5.97144 4.22881 8.16671
H 13.5044 10.1498 4.31772
C 12.1617 7.93281 17.1992
H 11.6881 6.92006 17.1204
H 12.4895 8.26768 16.2188
Si 8.3434 8.3242 15.8177
O 8.07126 6.72318 16.0418
C 8.92065 9.24158 14.3294
H 9.58225 8.66484 13.6437
H 8.07226 9.58834 13.7416
H 9.51359 10.0141 14.825
C 6.74571 9.06879 16.4086
H 6.17849 8.78559 15.5456
H 7.42491 4.66571 4.13357
H 6.85708 10.1341 16.2386
Si 6.14943 3.82837 15.3818
C 5.33546 5.32734 17.5595
H 5.10673 8.43083 17.7674
H 5.29017 6.3826 17.7964
C 5.20597 2.80479 11.3004
H 4.11269 2.74771 11.5792
H 5.10866 3.37476 10.3678
H 5.56034 1.87308 10.9815
Si 17.897 15.6006 14.3863
O 18.2564 14.5972 15.7344
C 1.40506 16.4727 5.79135
H 1.55911 4.74809 10.9728
H 4.80717 13.6642 15.3746
H 15.8119 17.1869 12.4171
C 16.1088 15.5004 14.4553
H 15.5972 16.2463 15.0373
H 15.4924 15.4167 13.5668
H 16.0708 14.5693 15.0654
Si 19.661 13.5649 15.8851
O 18.9252 12.4229 14.8796
C 2.41073 1.53617 1.58082
H 4.68939 11.4277 1.8828
H 2.93428 9.84364 13.672
H 4.33654 11.8209 4.99499
C 19.3802 1.42441 2.08323
H 9.01806 12.7234 1.37515
H 16.9669 0.970793 15.265
H 7.60134 14.5288 6.80188
Si 18.5323 12.7197 13.3381
O 16.9628 12.0546 12.9176
C 9.63362 4.39497 3.79404
H 4.73995 11.6321 16.4932
H 4.15695 3.33503 9.078
H 4.57979 9.85475 3.39813
C 14.0447 1.06205 3.11254
H 15.0365 1.39287 2.53626
H 2.4427 14.2552 17.9451
H 13.6569 18.1288 4.15424
Si 15.5896 11.3594 13.5624
O 15.8775 9.80079 14.1655
C 13.2832 8.10119 18.1924
H 13.7755 9.07797 18.295
H 13.9666 7.33195 17.708
C 14.5381 11.2857 12.1475
H 13.8003 10.515 12.1967
H 13.9206 12.2114 11.9276
H 15.195 11.1299 11.3127
Si 16.2434 8.48633 15.1541
O 16.43 7.02407 14.3755
C 18.5066 2.92868 5.55198
H 19.05 1.9443 5.59452
H 17.0081 17.79 9.56524
H 17.9099 2.88123 4.57027
C 17.7013 9.07194 16.3145
H 18.4386 8.36479 16.5902
H 17.2515 8.91121 9.21518
H 17.2479 9.39445 17.284
Si 16.2697 5.71759 13.2868
C 10.948 4.69162 14.4885
H 10.8609 5.78565 14.6404
H 11.9912 4.5848 14.0274
H 10.189 4.42738 13.7801
C 12.5003 8.37597 11.6784
H 13.367 8.58512 12.3039
H 11.6782 9.0542 12.0389
H 12.2192 7.30634 11.794
523
 Atoms. Timestep: 15500
Si 19.9932 14.4974 2.44007
O 18.6457 14.1905 3.28475
C 2.64824 10.3872 18.9347
H 1.75474 11.1306 18.781
H 2.67128 9.2886 18.431
H 12.0698 9.33399 9.63043
C 11.5398 1.52694 7.96167
H 13.1241 2.10761 8.60517
H 3.79346 5.00016 4.24123
H 5.63081 1.66931 10.8435
Si 18.2733 14.7204 4.82292
O 20.1438 16.0999 2.35057
C 20.0436 14.1632 17.4073
H 15.2987 18.0554 2.11853
H 11.6372 1.81764 11.5142
H 5.29278 1.22728 3.97408
C 5.00042 12.4008 16.8027
H 8.68865 1.08435 4.04076
H 10.9502 17.8247 7.83812
H 11.8973 9.98154 4.56569
Si 1.10838 4.78745 15.1892
O 2.76927 12.2611 4.63505
C 6.8002 7.89385 1.8218
H 2.4936 12.3723 7.52132
H 13.7968 11.3325 15.7782
H 2.39981 17.4649 3.42551
C 6.0421 18.0777 4.15909
H 11.543 7.02259 10.5761
H 8.89972 3.81451 6.72593
H 16.7318 13.6378 9.34186
Si 18.7173 12.491 1.28334
O 17.5245 13.5678 5.77404
C 9.71688 2.79707 2.3235
H 11.7188 15.2237 14.5846
H 7.3171 12.2824 3.51745
H 13.49 1.96969 17.0252
C 3.17787 4.88177 5.22583
H 3.72967 10.7301 18.6998
H 7.19898 3.0345 13.0163
H 2.94913 2.87733 15.1595
Si 1.64809 2.79464 8.19328
O 20.2883 11.5363 5.18748
C 1.38274 1.92437 2.37311
H 2.29697 9.28339 3.75907
H 5.45282 12.7726 17.7095
H 1.25915 16.8176 9.64648
C 4.45142 8.77375 4.8674
H 10.344 1.42283 4.06534
H 17.2107 15.7525 4.84999
H 12.1283 15.1607 18.1799
Si 2.06916 11.0262 5.4348
C 3.15506 8.46413 5.39193
H 4.41908 8.96882 3.78611
H 11.6862 8.57275 6.43966
H 20.4482 2.58966 11.476
C 20.6859 16.1399 5.45187
H 17.0004 8.52057 4.0071
H 11.0007 10.1826 11.5767
H 3.40755 13.2041 10.4172
Si 8.49307 7.23309 1.97204
O 9.31486 7.76872 3.29981
C 20.0184 2.18721 7.93256
H 2.27189 11.1211 8.29132
H 18.5329 4.74522 6.03909
H 4.53392 15.7335 6.41076
C 4.89813 16.5469 5.78126
H 8.25586 7.764 6.54627
H 8.76284 10.8634 13.6729
H 15.0675 2.88788 12.1732
Si 9.80995 9.36262 3.67194
O 9.05134 5.89388 0.951554
C 10.8658 11.6478 2.2338
H 11.5141 11.548 3.16125
H 9.87917 11.9037 2.41232
H 14.3257 18.1887 19.087
C 10.8449 9.83268 2.23642
H 19.0239 2.96335 15.9471
H 11.826 13.7452 13.508
H 14.8612 9.33807 2.2193
Si 9.10923 5.74582 17.3828
O 10.5605 6.12243 16.7874
C 8.41323 4.2103 16.7448
H 19.3271 1.48945 8.45635
H 17.0717 7.61405 7.84814
H 14.4631 11.6696 13.205
C 12.7422 13.0189 10.5815
H 12.4373 1.6431 11.7808
H 12.0248 12.7531 11.4179
H 12.7033 12.4677 9.64282
Si 11.6966 5.43262 15.8543
O 11.2321 3.91871 15.2302
C 15.3105 4.98748 2.89573
H 15.0191 5.74809 2.09864
H 16.0205 5.3944 3.64229
H 15.7012 4.17159 2.31062
C 13.177 5.25835 17.066
H 13.1808 5.45852 18.186
H 15.9089 8.60345 16.31
Si 7.89455 2.79072 17.5183
O 6.84518 1.56078 16.9196
C 5.67918 2.48217 1.08901
H 13.7444 16.4415 14.6894
H 17.6495 17.8724 8.96681
H 20.5093 13.8361 16.1615
C 10.7726 5.07836 6.80141
H 5.00624 9.44779 15.3305
H 20.1595 12.4004 5.5685
H 12.161 15.3796 5.04857
Si 6.64122 1.75648 15.2423
C 10.0453 15.1871 3.46209
H 10.4297 14.5578 4.26898
H 5.5904 2.72369 15.2824
H 8.92641 15.1167 3.35684
C 7.90553 2.5565 14.0409
H 3.06817 8.18475 11.4435
H 8.91724 2.44418 13.3816
H 3.12054 8.11718 12.1818
Si 20.9657 8.86993 16.1291
O 1.33645 7.6992 17.243
C 11.6333 17.799 16.9724
H 3.76211 2.03225 7.3554
H 6.40621 5.22581 3.49179
H 12.7254 13.199 5.75784
C 4.70821 13.3801 15.7549
H 14.9843 0.889271 4.95251
H 18.4478 3.63978 11.4681
H 13.5009 8.87976 1.03097
Si 20.6069 6.22526 16.9891
O 19.2696 6.37379 18.2234
C 20.0232 16.7363 9.69858
H 5.86586 8.84072 13.9489
H 18.4895 3.53003 10.8024
H 7.89959 8.78018 12.1959
C 1.10268 9.13012 14.4891
H 2.35861 9.23213 14.7176
H 16.3436 8.29559 9.32096
H 18.9876 14.3923 8.82882
Si 17.6512 6.3237 17.9969
O 17.4414 4.28572 17.6652
C 11.3544 16.6842 17.4549
H 20.1158 9.18305 10.7571
H 4.78111 14.9749 11.0935
H 12.1308 13.7829 3.06942
C 17.4572 1.63488 17.2342
H 15.9648 3.94507 10.9322
H 10.2176 18.13 2.70967
H 10.2178 15.0133 18.0094
Si 17.6552 3.22612 16.5673
O 16.5387 3.41145 15.3083
C 14.4484 4.96599 16.5789
H 18.9052 9.21107 8.33414
H 14.9935 5.71008 15.9189
C 14.4167 6.80969 11.4714
H 13.7929 7.71942 11.2569
H 13.907 6.07776 10.8476
H 15.5459 6.80973 11.4026
Si 15.0387 3.8796 14.9788
O 15.2637 4.93351 13.7833
C 13.8353 2.63474 14.483
H 14.4504 1.7031 14.3311
H 6.61335 8.77042 2.5473
H 3.32913 15.3065 1.70269
C 3.39219 3.65936 5.84078
H 15.687 15.7691 7.0246
H 16.5066 2.33588 11.1359
H 19.648 17.0186 8.78546
Si 11.9819 2.58352 14.9221
C 12.3854 1.87489 16.6419
H 12.1166 13.3558 5.62127
H 5.22666 1.09995 9.19788
H 16.2078 15.3728 6.35092
C 2.02871 9.28146 4.86039
H 9.85959 3.76493 2.14047
H 5.20481 4.95632 12.7338
H 2.69519 5.89553 8.24134
Si 9.97408 2.21912 8.10207
O 8.50746 1.49564 7.52751
C 2.79859 18.1164 16.9658
H 5.35 8.11771 5.13374
H 5.01975 16.0194 0.927126
H 3.12466 17.6472 16.0785
C 8.07093 7.70127 12.0991
H 10.5847 6.1555 7.03744
H 6.90641 16.3572 5.10705
H 9.0294 7.43971 12.5887
Si 7.751 1.33637 9.09016
O 7.93651 16.8511 9.33428
C 2.07899 11.5288 7.33734
H 10.3124 16.1518 3.90406
H 18.9429 11.5502 11.9165
H 1.98864 5.41268 1.68892
C 11.328 15.4415 18.1139
H 2.29388 6.44278 2.7251
H 2.01837 4.86039 9.61869
H 13.7343 2.85137 13.4226
Si 8.84742 15.4478 9.32819
O 7.82462 14.2325 9.56584
C 5.19638 13.6374 7.83284
H 5.98898 13.9265 7.14234
H 4.79871 12.6604 7.49146
H 5.49679 13.651 8.90728
C 9.26321 15.3112 7.45749
H 14.0153 15.7842 12.2067
H 9.6175 16.192 6.88038
H 8.24462 15.0627 7.12645
Si 8.0636 12.6336 9.95152
O 7.03103 11.4039 9.67215
C 10.4223 15.0704 10.3482
H 18.8516 10.0162 5.08109
H 10.4976 15.204 11.3867
H 10.652 13.9941 10.2269
C 18.4744 10.3589 16.9413
H 11.1012 12.8304 18.1507
H 8.96874 1.74599 17.7445
H 20.2657 11.7881 16.4575
Si 6.02972 9.95073 9.5446
O 6.69498 8.53406 9.86217
C 4.43794 10.3194 10.4715
H 4.77522 10.3942 11.5296
H 4.19616 11.2579 9.9445
H 3.62386 9.59391 10.4179
C 5.85569 9.84623 7.7083
H 6.4815 8.97889 7.46045
H 4.81373 9.72454 7.42079
H 6.22027 10.6874 7.15016
Si 7.98635 7.51071 10.1696
C 9.31843 8.50395 9.41945
H 8.92719 8.92465 8.49744
H 9.60347 9.34765 10.0905
H 10.2297 7.98961 9.09829
C 7.67995 5.77967 9.40059
H 7.06434 5.29137 10.1635
H 4.32386 14.315 7.81286
Si 11.9385 10.1328 6.02881
O 13.4233 10.7832 6.41648
C 15.1403 17.779 0.957712
H 15.9903 1.14706 18.9375
H 19.3883 8.78183 8.1541
H 15.0592 17.0071 18.4034
C 10.6679 11.0658 7.00763
H 10.2803 11.9335 6.48438
H 9.74572 10.576 7.4117
H 11.2212 11.2938 7.92299
Si 14.866 9.99885 5.9591
O 14.4474 8.41454 5.82306
C 13.179 13.8371 2.76491
H 13.7124 12.9018 2.95061
H 13.1658 14.1086 1.70891
H 13.7352 14.6698 3.23463
C 16.2374 10.0572 7.18694
H 16.83 9.1943 7.14552
H 17.0352 10.8966 6.8987
H 15.9013 10.1044 8.27493
Si 13.1035 7.5528 5.87784
O 12.9354 6.68662 7.18569
C 17.1816 8.0008 3.07774
H 16.3054 7.31366 2.84589
H 17.9365 7.26246 3.28394
H 17.4314 8.67765 2.27893
C 12.6328 6.99544 4.17921
H 13.4175 7.23447 3.46525
H 12.3292 5.94571 3.97527
H 11.8109 7.61501 3.81671
Si 12.5511 5.02018 7.35614
O 12.7843 4.92558 9.00392
C 17.8882 5.56999 5.70587
H 16.9022 5.33592 6.10221
H 17.9578 5.68174 4.55396
H 18.18 6.49734 6.21697
C 13.7239 4.02805 6.49425
H 13.2832 3.8571 5.56214
H 14.6931 4.65053 6.34131
H 14.0863 2.95551 6.82704
Si 11.8593 5.63855 10.2004
O 10.2557 5.20717 10.0005
C 12.2812 4.299 11.5879
H 11.8848 4.62075 12.6068
H 11.7029 3.46884 11.3017
H 13.321 4.01533 11.5553
C 9.09713 15.746 15.0063
H 10.6005 15.0302 2.49874
H 1.48228 17.2597 18.0371
H 14.0511 16.4926 15.4382
Si 9.03898 4.48559 9.33036
C 6.863 5.82044 8.11066
H 6.01734 6.52016 8.20143
H 7.49937 6.0799 7.25804
C 16.241 12.9424 18.1018
H 15.3628 13.6148 17.7137
H 16.814 12.5948 17.2785
H 16.5215 13.6558 18.8098
Si 2.28488 6.23691 6.00176
O 20.8656 7.00724 5.39188
C 15.8656 14.0253 9.9001
H 15.8766 13.7373 10.989
H 14.9331 13.7083 9.36587
H 15.963 15.1068 9.68723
C 4.13702 13.2 14.4116
H 9.48948 12.2545 9.8483
H 7.50802 12.9183 11.3425
H 4.02347 12.1224 17.2816
Si 20.3471 8.54216 4.57304
O 1.97612 5.54982 13.5022
C 7.39332 0.99423 3.63114
H 19.0818 11.5352 7.74289
H 3.95049 2.88885 5.09923
H 8.50227 15.9471 14.0113
C 1.33614 5.71199 7.58946
H 18.3222 11.4133 7.73815
H 13.7244 13.45 10.8944
H 20.5416 16.9906 4.82087
Si 1.29318 4.83704 12.2387
O 18.9907 9.13463 5.32901
C 16.4526 7.41149 8.71601
H 15.4853 6.94158 8.41177
H 14.6887 2.52533 10.5961
H 16.9989 6.01267 10.4594
C 19.4662 13.7638 18.4321
H 1.03189 13.5534 1.94405
H 3.68007 17.955 17.5001
H 17.5798 5.51805 8.76751
Si 3.10845 7.70808 7.19199
O 1.23855 14.3524 9.99996
C 5.32502 8.51498 14.842
H 5.42803 14.792 10.9618
H 19.6735 2.50445 9.11103
H 10.9105 10.1225 12.3267
C 6.348 11.7941 3.4389
H 6.26072 11.5382 4.54775
H 15.1655 5.11753 17.4535
H 1.78306 16.0772 5.52553
Si 7.66291 3.02993 2.77584
O 2.42146 13.2846 12.4317
C 2.94601 2.55719 6.91275
H 2.29438 1.74206 17.2013
H 4.48809 17.572 6.19843
H 20.1653 14.5624 6.6861
C 19.0501 17.4714 13.8154
H 11.5072 1.96063 17.1515
H 20.1757 7.67976 3.14787
H 17.93 11.3633 16.2463
Si 2.07816 13.1639 10.7571
C 9.71401 3.98895 7.41232
H 11.8765 1.7216 7.07815
H 12.8874 17.0249 5.10921
H 10.0435 16.3005 14.8376
C 2.57348 3.53907 15.6869
H 20.7819 9.93223 13.5412
H 3.45999 16.4664 2.58644
H 11.6644 1.7967 2.78418
Si 19.6696 14.7899 10.0283
O 1.37092 14.093 14.6113
C 18.7468 14.3665 12.7728
H 14.6001 9.5603 2.96851
H 12.8199 15.2822 9.21154
H 2.31776 3.59713 11.2589
C 19.1525 14.3708 11.536
H 3.42021 17.1429 8.40725
H 7.51641 4.97815 4.56016
H 20.8005 9.17335 10.6623
Si 2.6781 14.244 13.767
O 3.22794 15.9378 13.8682
C 2.5363 17.9168 2.36072
H 17.308 1.63002 18.3553
H 5.93618 7.94081 15.4778
H 11.2431 15.5881 9.8429
C 19.8404 10.3558 16.7894
H 10.6232 4.99976 5.70207
H 17.5514 12.5608 5.88991
H 3.50666 4.49032 16.1679
Si 4.7479 16.5993 14.0242
O 5.81374 15.3897 13.8544
C 5.4438 0.979288 14.2372
H 4.63999 1.00992 15.1014
H 1.98321 5.32247 16.358
H 19.3187 4.10319 13.5791
C 1.68067 2.86641 11.7657
H 1.29673 11.698 10.5881
H 13.1096 15.8911 9.38457
H 2.40469 1.63348 6.52187
Si 5.84936 13.7255 13.9119
O 8.11508 10.9615 12.9712
C 17.314 6.30708 9.47168
H 15.6172 1.33237 3.44701
H 3.70284 12.2022 14.2858
H 18.6191 9.02378 13.929
C 15.6067 2.90464 11.211
H 14.1448 11.9581 15.8206
H 11.7885 9.78361 2.34125
H 4.91923 5.58616 13.0529
Si 18.1736 2.72536 2.40697
O 20.1586 3.59107 13.7414
C 5.91665 16.859 4.92473
H 9.53997 2.69197 10.7611
H 11.9162 13.5615 15.2148
H 8.65461 16.1227 15.8461
C 7.5145 4.79283 3.46915
H 1.76992 3.02524 2.57166
H 17.663 4.28214 1.73268
H 2.14276 3.61443 16.8701
Si 20.762 17.5118 1.30031
C 4.5877 2.1309 1.45027
H 19.6617 17.6868 10.4793
H 17.2442 2.60595 3.58785
H 4.09448 4.70877 10.8411
C 2.90791 5.87868 2.06189
H 9.5499 2.49981 1.33584
H 11.5073 11.9501 1.13772
Si 7.70732 12.5438 12.822
O 8.9975 13.5526 13.213
C 9.17823 2.46514 9.77109
H 18.1685 17.4584 13.5637
H 8.2663 7.92579 5.80402
H 4.97602 5.57363 1.28633
C 1.67079 4.69425 8.58787
H 3.32308 17.8554 8.27711
H 6.63062 11.2322 2.55717
H 17.706 18.0043 16.6889
Si 9.60185 13.9999 14.7538
O 9.28109 12.7188 15.7857
C 6.93348 2.8947 1.12694
H 20.1967 5.54117 11.6403
H 7.17332 7.26882 12.5585
H 14.3546 4.78581 3.37678
C 11.45 14.1721 14.4551
H 4.47359 7.97551 14.5856
H 1.22582 11.9046 7.58828
H 4.99733 9.54485 5.41295
Si 9.36722 12.5602 17.4438
O 9.31063 10.8611 17.9761
C 4.52485 15.4244 2.13825
H 5.25455 14.5567 2.85957
H 20.3431 6.08994 7.70979
H 11.7524 9.58459 14.5911
C 8.24846 13.3786 18.6421
H 7.55194 12.9409 18.2941
H 12.1097 10.1843 14.3144
H 8.28906 13.7422 1.52361
Si 10.4247 9.60649 18.5568
O 9.22771 8.3173 18.6661
C 6.01525 1.77898 9.6181
H 16.0075 12.0413 18.8282
H 6.47964 4.80062 7.84864
H 15.3742 10.5038 4.63708
C 11.7972 8.81113 17.4133
H 11.1167 8.23916 16.8217
H 12.4027 9.32235 16.6991
Si 8.02732 8.3895 17.3671
O 7.95561 6.89512 16.8344
C 8.33075 9.16988 15.6894
H 7.50772 9.59854 15.0614
H 9.21888 9.83329 15.6742
H 8.68571 8.38069 15.0211
C 6.51717 8.46658 18.5241
H 5.62645 7.96579 18.1456
H 8.38735 5.10768 3.02834
H 6.25205 9.50764 18.8289
Si 8.61504 4.41428 14.9945
C 4.02394 6.0117 1.18816
H 6.01585 7.22881 2.26883
H 4.05736 6.15974 18.1348
C 4.71024 5.29481 10.2161
H 5.58791 4.8551 10.5813
H 4.55561 5.08518 9.19839
H 4.61908 6.43752 10.3174
Si 18.214 15.9333 13.918
O 18.4084 14.96 15.2007
C 19.6505 15.4225 5.76229
H 19.3981 18.2389 13.0605
H 4.53303 14.2929 16.3782
H 13.2985 15.9353 12.72
C 16.2851 15.8646 14.077
H 16.0979 16.9098 13.7491
H 15.7227 15.0381 13.5904
H 15.8835 15.8646 15.1228
Si 19.7215 13.9307 14.8629
O 19.059 12.4442 14.5119
C 3.53523 1.33343 1.87432
H 2.74784 10.2463 1.90923
H 20.835 8.17998 13.7787
H 2.28018 13.1025 4.57813
C 19.9483 1.68173 2.46182
H 8.3239 14.5672 18.3635
H 10.9521 1.72178 14.5151
H 9.9057 14.4731 7.22778
Si 18.4819 12.5351 12.9773
O 16.8159 12.2506 13.0692
C 10.5181 1.73777 3.01322
H 5.5801 11.499 16.5848
H 4.3063 6.96881 7.45718
H 5.59157 12.5958 3.17122
C 12.7364 16.0533 5.617
H 12.5137 16.0034 6.69385
H 20.1921 11.9995 2.03553
H 13.5554 15.2696 6.03057
Si 15.7357 10.9866 13.2389
O 16.0099 10.1745 14.5755
C 12.7961 7.89201 18.1156
H 13.5929 7.69043 17.498
H 12.387 7.00806 18.7119
C 16.1003 10.0364 11.7103
H 17.207 10.0297 11.9224
H 15.7593 9.05689 11.4244
H 16.0412 10.6197 10.8124
Si 16.3979 8.6164 14.9311
O 15.2878 7.47271 14.0991
C 14.7572 1.54487 3.9271
H 14.8106 2.69464 3.88068
H 17.222 18.1705 8.34192
H 13.9989 1.15297 3.31669
C 18.0276 8.11885 14.261
H 17.793 7.4574 13.4184
H 18.3478 6.70852 9.56988
H 18.7148 7.67029 15.0001
Si 14.5941 6.31863 13.1854
C 11.9867 6.63917 14.4609
H 11.0016 7.01744 14.0432
H 12.6386 7.43477 14.8126
H 12.7913 6.2866 13.6895
C 13.0106 9.5693 9.13008
H 13.5958 8.67871 9.20737
H 12.7135 9.74017 8.10281
H 13.4433 10.4047 9.65823
523
 Atoms. Timestep: 16000
Si 19.2538 15.8124 2.09127
O 17.6944 15.0983 2.1614
C 5.13882 10.4406 3.18754
H 4.77402 9.71301 2.51097
H 5.0541 11.2619 2.40254
H 15.3373 7.14633 9.67317
C 11.4461 1.49048 8.8853
H 11.5972 2.22442 9.98731
H 3.15822 6.15666 3.86138
H 4.76779 18.2928 9.00715
Si 17.8591 14.2631 3.71143
O 18.6081 17.2775 1.6866
C 20.7093 13.8995 1.4008
H 14.3453 14.6712 16.7049
H 14.5305 2.70646 4.74443
H 4.47271 16.349 6.63135
C 4.22745 11.9287 17.2135
H 8.45261 1.86939 5.43467
H 10.9684 17.887 8.56078
H 12.6206 10.7435 5.41755
Si 1.50853 6.15374 15.5086
O 1.88179 11.1124 4.05199
C 6.75701 7.93614 1.2268
H 1.41715 13.2104 5.87104
H 14.8611 9.36903 16.5799
H 2.78164 1.40299 18.0731
C 5.87948 18.3083 4.81078
H 12.5133 5.64378 11.6951
H 8.6506 3.7116 7.39367
H 15.9906 14.9065 10.5499
Si 18.908 14.3912 17.5454
O 17.8667 12.6 3.55268
C 9.34611 2.27279 2.72059
H 11.6442 12.1578 15.0637
H 5.97101 12.995 4.24743
H 11.8109 2.03193 18.058
C 2.63105 5.80769 4.70341
H 4.6793 10.4884 4.1414
H 5.76982 3.20989 13.7572
H 3.73471 7.06735 15.6435
Si 1.61567 4.02647 7.7981
O 19.8281 10.041 5.36985
C 1.8316 1.75144 1.00482
H 2.21879 8.56815 5.24076
H 5.02911 11.7586 18.0073
H 19.1851 15.7387 8.4337
C 4.65765 7.88035 6.23492
H 9.26052 4.231 3.61657
H 16.9661 14.4956 4.68984
H 9.52106 17.02 1.92092
Si 1.79063 10.8796 5.72408
C 3.63545 8.67362 6.91229
H 4.44881 6.84396 6.07297
H 12.6295 8.45928 6.31594
H 19.8614 5.22608 10.5233
C 19.4546 16.6841 4.43204
H 17.15 6.83488 2.01506
H 10.8727 11.2775 11.8092
H 4.22983 15.4447 10.6976
Si 8.31808 7.18498 0.844221
O 9.61196 7.09442 1.68092
C 1.5429 2.47446 8.9698
H 1.78186 12.5437 7.2926
H 16.7384 3.6344 3.34227
H 3.61949 17.618 5.73776
C 4.10357 16.5479 5.5197
H 9.84111 8.52103 5.54079
H 6.36982 10.6998 13.0358
H 16.0497 16.3126 5.42962
Si 10.6941 8.33047 2.53175
O 8.15563 5.99777 18.1343
C 9.22898 11.1195 2.80559
H 8.19382 11.2769 2.47991
H 9.53377 12.1552 2.31079
H 14.5948 16.3295 16.2215
C 9.98423 10.1036 1.97925
H 18.9885 3.07182 15.8146
H 10.1679 11.0868 15.2312
H 12.4988 8.9858 3.69299
Si 8.54096 5.89537 16.3877
O 10.1879 5.90062 16.54
C 7.66022 4.50969 15.7382
H 2.49182 1.90548 9.22366
H 17.2024 4.04238 8.29729
H 15.493 11.7502 12.9617
C 12.9513 12.9619 11.8869
H 10.8101 3.67067 4.15363
H 13.1553 13.9439 12.0611
H 11.9203 12.6002 11.8718
Si 11.4636 5.2263 15.7695
O 11.4472 3.57902 15.734
C 14.0499 2.95032 1.8481
H 14.755 2.69037 2.67049
H 14.4399 3.17457 0.828507
H 13.3378 3.6589 2.21181
C 13.2301 5.77681 16.089
H 13.6352 6.56558 15.4033
H 15.5747 8.55381 14.4179
Si 6.94583 3.05149 16.5764
O 7.43475 1.84683 15.6866
C 6.76085 2.39605 1.24089
H 15.1449 10.6764 1.70349
H 14.623 14.3411 7.29858
H 20.8268 12.9952 19.1013
C 10.3606 4.84966 7.39633
H 1.49639 10.2337 10.6993
H 19.3055 10.8816 5.28046
H 12.9279 17.0863 5.20105
Si 6.67146 1.37397 14.2547
C 8.69654 14.8246 4.55104
H 7.70905 15.1906 4.19786
H 5.55452 2.84538 16.4978
H 9.26851 14.394 3.71916
C 6.8406 2.94798 13.1992
H 3.47631 6.21028 10.1929
H 6.40464 2.92693 12.1264
H 3.60184 6.32713 10.9565
Si 19.4094 9.71745 18.8344
O 19.6111 8.01706 18.8013
C 11.8044 17.522 17.9061
H 3.37286 5.09082 7.31302
H 5.9525 4.54424 3.53712
H 12.2677 13.4078 5.65637
C 4.49168 13.1031 16.3809
H 15.5627 16.6323 2.22896
H 18.572 1.89457 10.4844
H 11.6125 7.22901 18.4933
Si 20.4849 7.12472 17.6427
O 20.6622 5.68394 18.4275
C 20.2014 15.5383 8.47498
H 2.77505 9.41269 11.4878
H 18.4197 1.0516 10.6095
H 9.64136 7.4354 12.5601
C 20.1786 10.7322 17.3142
H 1.66384 6.09887 16.7496
H 15.5184 4.31498 7.98189
H 20.191 12.9661 9.08337
Si 19.8801 4.56081 19.1796
O 18.5779 4.08798 18.1035
C 11.9264 16.9282 19.0612
H 19.3739 7.86166 10.1659
H 2.34067 18.0046 11.6462
H 13.8809 14.4933 2.1434
C 18.0131 1.11896 17.8364
H 15.7743 17.6884 4.57517
H 4.44019 16.5897 0.930226
H 10.9384 16.0323 2.30936
Si 18.134 2.90535 17.0888
O 16.4519 3.05149 16.7558
C 14.3009 4.82779 16.7331
H 20.9671 5.46778 3.07131
H 15.271 5.39439 16.8765
C 16.0396 4.49561 11.8048
H 15.3182 4.83806 11.0536
H 15.9582 3.54133 12.2566
H 17.0674 4.5878 11.3976
Si 15.234 3.49485 15.6885
O 15.981 4.67741 14.6953
C 13.994 2.12944 15.1024
H 14.1384 1.32385 15.8938
H 7.06494 8.77226 1.86889
H 1.20727 14.1783 2.27371
C 2.95758 4.60778 5.30666
H 15.9471 11.9395 4.6179
H 16.0065 17.7959 6.20346
H 20.4919 16.6547 8.59953
Si 12.0593 1.98085 15.6007
C 11.7189 1.17049 17.3594
H 11.7599 14.0437 5.63836
H 5.53473 1.78676 10.5223
H 15.1408 11.8913 4.64713
C 2.32282 9.07367 6.31255
H 9.23967 2.44029 1.68056
H 5.08545 8.99565 13.2234
H 4.08587 9.71716 7.16058
Si 9.53553 2.1319 8.70788
O 8.37798 1.19089 8.03321
C 4.72032 17.5968 16.5946
H 5.65715 7.93638 6.68565
H 3.79223 15.0173 2.10572
H 8.34551 2.03901 18.5877
C 8.72261 7.89766 12.2015
H 10.0166 5.90945 7.45891
H 5.20517 1.43303 5.41684
H 7.79876 7.54823 12.7204
Si 7.52787 0.961366 9.63045
O 8.09919 17.0025 9.99998
C 1.47367 12.357 6.43694
H 9.21067 15.5947 5.07328
H 20.2284 11.412 12.0845
H 2.92007 4.43599 1.87014
C 10.6685 17.0326 1.89548
H 4.03209 4.00945 19.0697
H 19.5561 3.60809 7.30408
H 14.1377 1.50516 14.236
Si 9.20313 15.7567 9.95935
O 8.22302 14.4642 10.0758
C 5.2636 14.1663 7.42589
H 5.24031 13.2746 8.00953
H 5.51542 13.4448 11.9456
H 5.1196 15.0537 8.03748
C 9.71182 15.64 8.1306
H 13.1235 15.1249 16.8935
H 10.4699 14.9108 7.76448
H 10.1623 16.6215 7.89957
Si 9.07874 12.9638 10.1834
O 8.21428 11.6187 9.99449
C 10.4471 15.9407 11.3431
H 16.9994 8.0273 3.81931
H 11.1038 16.8348 11.373
H 9.85717 16.0851 12.2563
C 17.4909 9.70775 0.83744
H 9.68607 13.3527 19.1431
H 13.0919 15.2821 17.8672
H 16.2479 11.0166 18.0763
Si 7.10134 10.4803 9.29516
O 7.65872 9.05288 9.89414
C 5.41258 10.9633 9.79171
H 4.62381 10.1944 9.75812
H 5.46378 11.3769 10.8103
H 5.22098 11.8789 9.20949
C 7.5226 10.4174 7.47544
H 7.00377 9.50707 7.17058
H 7.3355 11.3444 6.80736
H 8.58489 10.1009 7.36474
Si 8.48142 7.71958 10.3693
C 10.2758 7.93061 9.84753
H 11.1319 7.57741 10.4649
H 10.4651 7.61272 8.81007
H 10.3631 9.04558 9.90553
C 7.75204 6.00085 10.1291
H 7.58133 5.76654 11.2166
H 6.23132 14.6279 7.04479
Si 13.2379 10.158 6.68618
O 14.8381 10.0894 6.78132
C 15.0302 15.6511 16.8509
H 19.6781 9.68925 2.3232
H 20.7842 4.53431 2.98615
H 15.9635 15.6752 17.264
C 12.3624 10.6484 8.31867
H 12.7908 10.1471 9.17808
H 12.5077 11.6874 8.46469
H 11.2542 10.5733 8.20116
Si 15.8752 8.76687 6.42321
O 14.9076 7.35149 6.55803
C 13.2002 13.7105 2.16366
H 12.4121 13.9416 3.0119
H 12.536 13.9525 1.27369
H 13.5762 12.7146 2.2319
C 17.2627 8.88269 7.7183
H 18.1987 8.44518 7.43841
H 17.3881 9.91296 7.84662
H 16.9171 8.49888 8.68382
Si 13.3097 7.00146 6.58145
O 12.5795 6.52878 7.96493
C 16.0526 6.72422 2.10447
H 15.7298 7.6972 1.98202
H 15.5928 6.21014 2.9354
H 15.7317 6.1135 1.19893
C 12.5326 6.43755 4.99433
H 12.4757 7.26652 4.24859
H 13.067 5.65492 4.45511
H 11.4893 6.22585 5.26645
Si 12.2113 4.77927 7.93889
O 12.3261 4.51125 9.60624
C 17.4049 3.83594 2.49377
H 16.9014 4.07297 1.5707
H 17.9475 2.85491 2.35163
H 18.0407 4.62962 2.81527
C 13.573 2.75293 5.15627
H 12.8848 1.82877 4.71187
H 13.8204 2.63442 6.26795
H 13.1174 3.68717 4.80494
Si 11.6823 4.527 11.1879
O 10.0597 4.65896 10.903
C 12.0699 2.99212 12.2946
H 11.4001 2.19343 12.0192
H 13.0846 2.57684 12.195
H 11.8435 3.30049 13.3341
C 10.3425 15.0375 15.0104
H 8.67811 13.9109 5.15631
H 4.15417 0.931087 16.3753
H 15.1859 10.6992 2.51472
Si 8.79504 4.4189 9.85444
C 6.31423 6.00923 9.63295
H 5.73384 6.75965 10.1987
H 6.17604 6.22806 8.57005
C 17.5231 11.7515 15.4761
H 17.2716 11.8703 14.3719
H 18.2111 12.3656 16.0795
H 16.6194 11.7485 16.1511
Si 1.04175 6.7755 5.32926
O 20.7097 7.95694 4.25897
C 15.5009 15.4358 9.69079
H 16.2946 15.7215 8.99486
H 15.0656 16.3493 10.2157
H 14.5648 15.0213 9.20087
C 3.8872 13.3001 15.0769
H 9.71838 13.0481 11.523
H 7.46137 13.8972 12.4786
H 3.35075 12.2679 17.7219
Si 19.4063 8.98784 4.0871
O 20.8431 5.96612 14.1683
C 7.09714 1.54619 4.56553
H 17.6135 13.7713 7.12238
H 3.64219 3.81618 4.79002
H 11.2071 14.9772 14.3433
C 19.764 5.25693 5.75503
H 17.3444 13.9757 7.78665
H 14.0445 12.9315 12.2575
H 19.1242 17.3691 3.7969
Si 20.7662 5.7264 12.576
O 17.9489 8.38761 3.6001
C 16.5204 4.65862 7.68675
H 16.661 5.68087 8.06099
H 17.3624 17.6294 5.327
H 17.1261 3.48168 5.8725
C 19.8042 14.6014 18.9595
H 1.60177 9.8855 1.59359
H 4.61814 16.6665 17.2893
H 15.6598 4.49377 5.75301
Si 1.79837 7.76513 7.4011
O 2.0188 14.0402 10.3155
C 2.27317 10.4081 11.4712
H 2.72572 0.916173 11.1747
H 20.7572 2.64965 9.14724
H 10.3574 11.0818 12.3201
C 4.98275 13.5306 4.20151
H 5.07272 14.4975 4.73995
H 13.9982 4.44157 17.6895
H 20.3872 16.9961 4.7041
Si 7.53547 2.31887 3.01864
O 2.9144 14.3566 12.845
C 3.04132 4.31655 6.6619
H 5.71282 17.9176 17.3274
H 3.2246 15.7352 5.27881
H 20.5935 14.6611 4.01939
C 18.8892 18.3035 14.2543
H 10.6265 1.03641 17.3539
H 2.53317 10.0536 1.70598
H 18.1679 10.7721 1.34399
Si 3.24939 14.5901 11.3185
C 9.45964 3.9717 8.18061
H 11.7375 1.90139 7.70233
H 11.4579 17.3073 4.16797
H 10.7058 15.5657 15.8177
C 2.95269 7.31847 15.0756
H 20.9973 11.3559 17.5276
H 5.87845 15.394 1.7084
H 10.4578 4.23408 2.37228
Si 20.6074 14.1596 9.87594
O 1.26722 14.8623 15.1012
C 19.7744 15.2994 12.6134
H 12.9954 9.429 4.159
H 14.4865 15.2571 12.1704
H 19.0133 3.70707 11.6658
C 19.7515 14.4356 11.6147
H 3.04315 16.4503 8.89036
H 6.96059 4.0768 4.94957
H 19.7846 8.13929 9.59982
Si 2.84891 14.6411 14.5282
O 3.90641 15.8852 14.797
C 3.07137 1.62068 19.0685
H 16.655 1.0569 18.0078
H 2.97733 11.1145 11.0023
H 11.1215 15.0666 11.4283
C 16.7593 10.9049 18.8807
H 10.3432 4.53334 6.36323
H 18.3813 12.415 2.76789
H 3.57879 6.99206 14.1288
Si 5.33338 16.6858 15.3991
O 6.20144 15.319 15.6228
C 6.11326 17.4052 13.6117
H 6.59112 16.3929 13.2145
H 2.45282 5.09237 18.3001
H 3.24914 4.60025 15.6045
C 19.2913 4.73591 11.5683
H 4.86917 13.8644 11.4015
H 4.10275 14.2348 6.76142
H 3.53451 3.34223 6.75522
Si 5.69999 13.7933 15.2001
O 6.24301 11.6033 12.8095
C 16.6574 4.4528 6.18596
H 15.0164 18.3007 1.81544
H 3.87303 12.5076 14.2705
H 18.0435 7.96305 15.6205
C 16.3585 17.2996 5.30695
H 15.3124 8.90484 16.921
H 10.9212 10.6286 1.9261
H 4.43879 9.26756 12.9102
Si 20.9894 1.788 2.3945
O 2.26622 4.67887 15.618
C 5.06291 17.2879 4.8881
H 8.77774 2.15567 11.1808
H 10.8908 11.9295 16.6444
H 9.57755 15.737 14.5734
C 6.86542 4.02653 3.87283
H 20.8386 1.37259 9.15236
H 0.916704 1.5354 4.14336
H 2.85042 8.43199 15.1256
Si 19.1285 1.16301 1.01752
C 5.41222 1.98863 1.32093
H 20.5609 15.4008 7.46986
H 20.8331 3.0039 3.1695
H 4.20026 3.75112 11.762
C 3.3184 4.76108 0.934039
H 10.0737 1.6204 2.75059
H 9.60847 11.0278 3.99725
Si 7.01489 12.8955 13.4437
O 8.52053 12.8312 14.1994
C 8.46789 2.5522 10.1748
H 20.1522 18.0016 15.2668
H 10.3071 8.46226 6.21107
H 5.02952 6.16164 18.766
C 20.2939 4.4022 6.84145
H 2.70974 17.0378 8.36324
H 4.25153 12.9345 4.63139
H 18.1008 17.7538 17.1116
Si 9.56525 13.4291 15.2822
O 8.87984 13.7437 16.7525
C 7.45266 2.65594 18.3988
H 1.58101 6.38526 12.5804
H 8.84896 8.99797 12.3856
H 13.4398 2.03627 1.68328
C 10.6427 12.006 15.5617
H 1.78002 10.6166 12.4562
H 20.3133 11.7974 6.76441
H 4.72702 8.63196 5.40095
Si 8.79482 13.0006 18.2276
O 9.0573 11.4272 17.7916
C 4.58737 15.6375 1.64619
H 4.50005 15.2197 18.4524
H 18.5998 5.10338 5.60173
H 11.8781 8.97926 13.8226
C 7.24017 13.6089 18.9812
H 7.31916 15.0372 19.0123
H 11.4643 9.60557 13.7604
H 6.50872 13.4036 18.4065
Si 9.86465 10.189 18.5848
O 8.75359 8.67803 17.9408
C 5.5561 0.926675 9.9006
H 18.1318 10.9082 15.5638
H 5.79424 5.07187 9.8462
H 16.2145 8.6426 4.9681
C 11.406 9.57388 17.558
H 11.0583 9.44349 16.4831
H 12.0283 10.3426 17.4254
Si 7.36886 8.64188 16.9837
O 7.92819 7.35365 15.8569
C 7.01672 10.3586 16.1459
H 6.05525 10.4658 15.6697
H 7.189 11.1407 16.9116
H 7.86764 10.4337 15.4645
C 6.08232 8.33595 18.36
H 5.2777 7.54283 18.2242
H 7.62225 4.73481 3.52563
H 5.63 9.3675 18.4758
Si 7.65744 4.4663 14.01
C 4.20391 5.7497 1.12153
H 6.13377 7.42425 1.96915
H 4.62959 6.17725 1.97783
C 3.51478 4.2846 12.4593
H 3.74724 3.69529 13.3934
H 3.82478 5.35769 12.4291
H 2.43933 4.26503 12.0958
Si 18.6377 16.4987 13.7463
O 18.7917 15.3489 14.9839
C 19.4453 15.3292 4.20364
H 18.2766 1.25974 14.7038
H 4.4487 14.0136 17.0432
H 13.9283 15.5397 12.2342
C 17.4178 16.5681 12.4294
H 16.7795 17.4831 12.7216
H 17.6628 16.9361 11.3757
H 16.7591 15.675 12.5737
Si 20.0648 14.453 14.3172
O 19.5356 12.9652 13.9895
C 4.31384 1.48209 1.01314
H 6.10035 9.80584 3.25837
H 20.3097 10.5291 16.2408
H 1.97093 10.3508 3.43768
C 20.7355 2.38892 19.0086
H 7.19893 13.1367 1.45904
H 11.3055 1.03665 14.7194
H 8.82061 15.7018 7.43988
Si 19.365 12.6945 12.2835
O 17.83 12.1827 11.9978
C 10.0296 3.63073 3.28909
H 4.03828 10.9868 16.6608
H 20.6387 8.41132 8.24224
H 4.72086 13.7654 3.23304
C 11.8047 16.7782 5.34091
H 11.6589 15.7521 5.43916
H 17.2888 14.549 17.3152
H 11.1445 17.4861 6.10584
Si 16.549 11.2581 12.0208
O 17.0168 9.67632 12.5728
C 12.0766 8.25399 18.1147
H 12.7331 8.51639 19.0818
H 12.6335 7.80336 17.3626
C 15.7287 11.2308 10.3416
H 15.0216 12.0938 10.381
H 16.2929 11.2914 9.40053
H 15.2124 10.2572 10.4059
Si 16.8903 8.47356 13.7228
O 16.9331 6.85708 13.2409
C 14.7092 16.7618 1.60619
H 13.7576 16.501 2.27933
H 14.6562 13.7885 6.86999
H 14.7953 16.536 18.8662
C 18.407 8.44603 14.6863
H 18.9497 9.4331 14.927
H 17.1461 5.27445 5.67068
H 19.1054 7.70528 14.3145
Si 15.9235 5.58701 13.362
C 11.1669 5.66224 14.0522
H 12.0453 5.88721 13.4242
H 10.4726 4.91123 13.6931
H 10.5809 6.58847 14.178
C 14.6088 7.82957 10.0957
H 14.3313 8.62126 9.41881
H 13.7232 7.27848 10.4409
H 15.1011 8.32001 10.9253
523
 Atoms. Timestep: 16500
Si 1.35249 15.4441 1.21777
O 20.338 15.43 1.76943
C 6.48087 6.61474 5.61578
H 5.7619 7.2099 6.08884
H 7.51165 6.85749 5.73739
H 14.1865 7.06868 10.7925
C 10.7139 1.53444 7.42234
H 10.9457 2.25241 6.37542
H 2.55902 6.0247 4.59831
H 5.7904 17.8841 9.26035
Si 19.8032 14.2508 2.76026
O 1.47457 17.3683 1.18311
C 1.92939 13.597 17.9996
H 16.0094 13.7262 15.7958
H 11.7802 2.94909 4.09141
H 1.68895 17.7614 5.53131
C 3.70304 11.7586 15.1384
H 5.02448 17.2661 1.53032
H 10.1915 10.33 13.246
H 12.4732 11.7848 7.29897
Si 1.91372 6.74255 16.759
O 0.929982 12.7153 6.37702
C 6.40863 8.18318 18.5362
H 1.60611 13.5034 9.60027
H 17.6656 5.98437 17.9662
H 8.19221 0.798892 1.78858
C 3.5073 1.5286 4.18836
H 12.7919 5.64319 10.9547
H 7.6689 3.88235 7.50372
H 14.5606 16.7761 5.86378
Si 20.681 15.5982 17.1914
O 18.7068 13.3856 1.7116
C 6.5755 0.777228 4.49057
H 11.5252 12.9911 15.1681
H 6.50073 12.8382 5.56205
H 14.2288 17.3636 16.345
C 2.1813 6.18921 5.68675
H 6.50259 5.62377 6.1085
H 8.91267 2.05962 13.6291
H 2.64534 8.89598 15.6873
Si 2.44367 3.18661 8.4615
O 19.3075 9.13906 5.31342
C 2.31914 2.42371 18.9278
H 4.04908 10.6954 7.0759
H 4.44758 11.3097 14.4999
H 17.1706 14.9829 8.82163
C 4.09379 8.31302 8.2025
H 8.15565 17.0999 4.67928
H 19.172 14.6767 3.88068
H 10.4228 17.7824 6.6558
Si 1.74879 11.7843 8.02872
C 2.73964 8.8889 7.48388
H 4.91239 8.54654 7.52377
H 13.0271 6.75017 3.71346
H 20.3461 2.88924 13.3252
C 0.753377 13.4343 3.04169
H 16.0833 5.42912 0.793215
H 13.3345 12.0436 14.9148
H 20.0778 17.9485 11.0919
Si 7.99033 7.60103 19.1549
O 8.46912 7.71963 2.0919
C 2.06816 2.55153 9.92995
H 3.24293 13.4494 8.32307
H 16.5395 2.77787 5.26655
H 1.38245 1.69002 5.83921
C 1.05257 0.850357 5.14114
H 9.75542 8.36193 5.99791
H 6.6832 11.1496 13.8079
H 17.7728 17.2918 4.51869
Si 10.0763 8.05635 2.49695
O 7.9982 6.06882 18.5885
C 8.74283 10.858 3.11423
H 7.8396 11.0623 2.62166
H 9.31289 11.8295 3.49268
H 15.5773 15.2506 14.7039
C 9.90382 10.0852 2.33973
H 18.5778 2.37491 15.384
H 11.6439 14.7083 15.0554
H 16.6745 11.0077 3.93827
Si 8.44987 5.70477 17.0667
O 10.015 5.3127 17.102
C 7.1903 4.67194 16.0634
H 2.04151 2.99493 11.1686
H 16.3603 4.26773 8.9074
H 15.4867 10.2546 13.8518
C 13.5021 13.8453 12.2868
H 6.89305 16.886 3.20419
H 13.5686 13.0966 11.4436
H 12.7837 14.6835 12.0988
Si 11.2384 4.43761 16.2414
O 10.8874 2.87679 15.919
C 15.0082 0.764692 2.60891
H 15.4637 1.5444 3.07792
H 19.6131 17.9119 19.1435
H 15.0645 1.12934 1.53815
C 12.7312 5.16809 16.8
H 12.5349 6.24741 16.9574
H 16.0775 8.19846 14.8673
Si 5.99119 3.49814 16.8485
O 6.06994 1.96661 16.2102
C 7.38164 2.46805 19.1731
H 19.038 12.4777 6.97403
H 15.6347 13.8221 7.04832
H 1.54644 13.2313 16.9551
C 9.46538 4.85395 6.82569
H 1.03602 7.2725 10.9592
H 20.2696 9.35746 5.5189
H 12.4629 12.7818 5.62597
Si 6.82658 1.37454 14.8089
C 9.33699 14.633 3.70018
H 10.2136 14.0447 3.43816
H 4.55934 4.26632 16.9707
H 9.27255 15.3881 2.88701
C 8.3508 2.47603 14.4131
H 5.7068 4.72058 12.3926
H 8.86494 2.16278 15.3943
H 5.64324 4.53226 11.6286
Si 18.5545 9.29267 17.9629
O 19.5779 7.87412 18.2826
C 12.3054 18.108 16.4862
H 2.12685 5.78182 8.12289
H 6.2649 3.64344 3.67678
H 9.10613 12.5986 6.37127
C 3.49563 13.2171 14.8296
H 14.9371 15.5764 0.995953
H 14.5505 4.24721 12.3556
H 11.6416 8.51294 17.5239
Si 20.7872 6.69988 18.3448
O 20.729 5.15874 18.75
C 17.3449 14.0443 9.19584
H 0.967467 6.38681 9.31556
H 13.6953 4.02215 12.6066
H 9.06273 9.09086 12.0091
C 19.9065 10.8124 17.6558
H 1.30056 7.57281 18.9534
H 17.2763 3.06549 7.97665
H 19.5287 12.971 10.382
Si 20.1889 3.52861 19.0903
O 19.0253 3.60811 17.8908
C 11.5614 18.3774 17.6082
H 19.4892 3.34574 10.3007
H 3.34156 2.82484 13.5042
H 14.6232 11.8597 3.65664
C 17.4506 0.703505 16.7731
H 19.207 17.8868 5.29636
H 5.13453 15.4889 0.940122
H 11.5152 17.4881 19.1894
Si 17.9947 2.57306 16.8963
O 16.6347 3.48289 16.7901
C 13.9628 4.59315 17.204
H 19.7068 4.53796 2.55008
H 14.3437 5.33528 18.0263
C 17.0372 4.21712 12.396
H 16.2998 3.40329 12.5759
H 18.0931 3.94178 12.6292
H 17.0939 4.57635 11.3131
Si 15.3711 4.14476 15.9886
O 15.6691 5.44196 14.8615
C 14.6521 2.57573 15.2153
H 14.9483 1.76677 15.87
H 5.89646 8.7914 19.1343
H 3.25754 13.8667 18.2626
C 3.08912 5.45718 6.37285
H 15.1875 15.6046 4.07012
H 17.9107 17.4944 6.39932
H 17.4575 13.1192 8.60305
Si 10.8989 1.24109 15.6442
C 13.188 17.0625 16.339
H 9.55095 12.7939 7.04013
H 4.9203 0.842514 10.6795
H 15.5905 15.5493 4.74243
C 3.02497 10.347 7.55309
H 5.62169 1.1008 3.86556
H 7.11134 6.96097 13.4146
H 2.03864 8.65928 8.2629
Si 9.22048 2.12364 8.1429
O 7.86754 1.04851 8.2334
C 2.9599 17.664 15.6694
H 4.10149 7.22871 8.11862
H 6.44652 16.5845 0.707235
H 9.03836 1.96953 1.66148
C 9.44294 8.09075 11.8876
H 8.85001 5.71124 6.45029
H 20.4729 3.85781 4.25597
H 10.518 7.94157 12.1077
Si 7.6848 0.763175 9.79322
O 8.27122 17.1121 10.0553
C 2.46187 13.0295 8.99536
H 8.51517 13.9265 3.84161
H 19.6823 12.2038 13.6587
H 4.77663 5.97842 3.4192
C 10.8341 17.8505 18.6081
H 3.54593 7.01307 2.68567
H 21.1766 4.33492 7.23052
H 13.598 2.44622 15.3004
Si 8.68633 15.6849 9.19625
O 7.8961 14.2498 9.84247
C 4.19143 16.0421 7.6
H 4.92748 15.4677 8.1245
H 2.67321 9.42727 11.0269
H 3.57093 16.2884 8.4141
C 8.81258 16.021 7.25066
H 14.2493 14.8549 15.6926
H 8.14231 15.2367 6.85845
H 9.8211 15.7095 6.89178
Si 9.36787 13.3395 9.99367
O 8.88021 11.908 9.53424
C 10.282 14.9319 9.67588
H 17.3863 8.25171 5.27787
H 10.9964 14.5127 8.89917
H 10.5575 15.4779 10.5675
C 16.9848 8.84935 18.6578
H 8.94085 14.8648 19.2341
H 15.5031 15.1633 16.7517
H 20.7265 10.7257 16.8249
Si 7.81581 10.5654 9.16151
O 7.97066 9.07926 9.75412
C 6.05938 11.086 9.54713
H 5.45042 10.1965 9.39579
H 5.91977 11.3232 10.6157
H 5.65542 11.8257 8.85052
C 7.77167 10.566 7.293
H 7.34416 11.56 7.1157
H 8.61784 10.4331 6.61462
H 7.00507 9.81249 7.10108
Si 8.82358 7.59462 10.2294
C 10.2633 7.49954 9.01559
H 9.94033 6.5677 8.49399
H 10.2998 8.35001 8.31182
H 11.2291 7.4721 9.5626
C 7.84874 5.8872 10.1739
H 7.46456 5.68823 11.1957
H 4.40339 17.1594 7.6018
Si 12.1941 10.3999 7.84289
O 13.62 9.68912 7.30024
C 15.2763 14.7957 15.7025
H 19.3669 8.67009 2.98325
H 19.7993 5.14897 2.72604
H 10.486 17.5701 6.00167
C 12.7346 10.208 9.69647
H 12.4044 10.9092 10.5623
H 12.5189 9.13558 9.84571
H 13.8191 10.2329 9.73512
Si 14.6053 9.09553 6.17631
O 14.0398 7.56432 5.83206
C 13.8333 11.6434 2.83637
H 12.8458 11.9522 3.29131
H 14.1437 12.1482 1.88759
H 13.7575 10.5666 2.63448
C 16.3986 8.91447 6.98071
H 16.4729 9.25135 8.07268
H 16.7362 7.90825 7.14873
H 17.186 9.56273 6.47566
Si 13.4854 6.27602 4.977
O 12.1055 5.92481 5.9181
C 15.6024 5.35531 1.76156
H 15.0843 6.25856 1.90708
H 16.3033 5.065 2.53331
H 14.8212 4.57317 1.67648
C 14.789 4.90107 4.92813
H 14.96 4.57207 5.9575
H 14.5613 4.06133 4.25035
H 15.7141 5.40466 4.5975
Si 11.2437 5.76482 7.32678
O 12.1364 5.24039 8.473
C 17.4583 2.52688 4.73461
H 17.294 1.69809 4.02532
H 18.2811 2.32932 5.38628
H 17.7882 3.34875 4.05448
C 11.7524 1.92049 3.98364
H 12.4725 1.78599 3.30523
H 12.2205 1.46683 5.09766
H 10.6939 1.43906 3.88115
Si 11.9683 4.70591 10.1117
O 10.2976 4.76455 10.2669
C 12.749 3.13663 10.2195
H 12.1313 2.57446 10.9954
H 12.8011 2.59577 9.26211
H 13.7652 3.07397 10.6047
C 9.09081 16.0061 15.8817
H 9.56528 15.11 4.7017
H 3.84928 18.0355 16.759
H 19.063 11.8571 7.43661
Si 8.77712 4.18165 9.6731
C 6.63398 6.12843 9.31488
H 5.91558 6.78482 9.8369
H 6.90077 6.66272 8.39485
C 15.8794 12.2085 17.5176
H 15.9334 11.3601 18.1628
H 16.2871 13.1852 17.9118
H 16.6106 12.1512 16.7833
Si 20.7447 5.9633 5.61107
O 20.2797 6.75827 4.29132
C 14.4078 16.6906 6.98166
H 15.2283 17.2481 7.45489
H 14.3974 15.6071 7.16354
H 13.409 17.0633 7.33478
C 3.38763 13.7966 13.2386
H 10.3879 10.6388 12.2839
H 7.46261 14.1317 12.2915
H 3.86691 11.6897 16.1739
Si 18.9319 7.96531 4.1032
O 0.993399 5.87226 15.638
C 4.43811 2.34988 4.87709
H 18.6792 8.81959 9.23708
H 3.83227 4.73438 5.84585
H 8.09213 16.2936 15.5018
C 20.4477 4.15036 5.42803
H 18.9104 8.76544 9.91584
H 14.1504 13.7555 13.2056
H 1.26371 13.3217 4.08275
Si 1.06487 5.16297 14.1887
O 17.4407 7.52328 4.55768
C 16.7104 4.00681 7.90031
H 15.825 3.78486 7.28266
H 18.666 16.0988 5.73685
H 18.0821 4.82274 6.38923
C 1.71347 15.2266 18.1321
H 5.387 9.18146 4.51323
H 2.25916 17.9777 14.7141
H 16.7153 5.81871 6.6515
Si 2.26391 8.1364 5.81932
O 20.2312 15.2741 9.21492
C 1.46677 6.4668 10.3346
H 4.03711 2.49701 13.1417
H 1.38988 1.33815 12.0749
H 13.9216 12.4179 15.2006
C 5.57142 12.8226 4.95828
H 5.62744 11.8795 4.37924
H 13.8012 3.68272 17.8279
H 21.1189 12.3009 2.97157
Si 6.07892 2.19822 5.61284
O 1.81615 15.4449 11.0624
C 2.97015 5.09732 7.74915
H 2.35798 16.9363 16.4567
H 20.8402 1.31718 4.86164
H 2.99864 14.0921 2.51796
C 19.2866 0.970427 12.149
H 13.103 16.1879 15.8576
H 6.10973 9.19766 4.26167
H 14.8679 8.93215 19.3688
Si 21.1731 16.2927 10.413
C 8.71208 3.9849 7.87837
H 11.7284 1.37642 7.68952
H 13.7484 13.6782 4.7626
H 9.73193 16.6813 15.315
C 2.37402 8.65348 16.6784
H 20.6337 11.0851 18.4005
H 4.7938 16.5502 18.5886
H 8.50496 18.0926 3.51406
Si 18.9353 14.4146 10.3217
O 0.831992 15.4322 13.8559
C 18.7725 15.4626 11.8054
H 17.4372 10.9818 4.05665
H 15.2811 0.750067 12.54
H 1.15925 2.90554 14.485
C 18.6855 14.3156 12.3302
H 4.52148 10.7052 2.62425
H 7.30601 4.52252 4.89708
H 19.0077 3.95761 10.0738
Si 2.18602 15.3918 12.9467
O 3.20535 16.6323 13.0748
C 3.65923 2.20897 0.687371
H 14.732 2.39579 14.0291
H 2.53281 6.70176 10.2429
H 14.7126 15.9454 9.56448
C 15.8168 8.55707 18.9028
H 9.82354 4.19149 5.97186
H 18.1976 12.6412 2.17533
H 1.80455 9.3994 17.2798
Si 4.40716 17.1212 14.2727
O 5.15345 15.5574 14.993
C 5.65264 18.4311 13.8217
H 6.34278 18.1777 12.8698
H 5.18606 7.47965 2.37918
H 3.32313 5.67708 17.8831
C 20.9454 3.40149 14.0858
H 2.67447 10.1797 10.9021
H 3.66882 15.6967 6.66695
H 3.88583 5.23621 8.34103
Si 4.99352 14.1412 13.9704
O 7.18149 11.6295 13.0878
C 17.4405 5.18491 7.20018
H 14.2702 14.4271 19.3431
H 3.50689 13.0001 12.462
H 19.5372 8.18749 15.7461
C 18.4021 17.1016 5.46504
H 17.2744 5.62614 17.4645
H 10.7837 10.6309 2.92779
H 6.64517 7.52176 13.5125
Si 1.68437 2.32368 2.39762
O 3.21105 5.7543 16.8626
C 2.09486 1.22706 4.1094
H 9.35278 2.60089 11.0536
H 11.2481 13.9242 13.6447
H 9.09189 16.4341 16.9111
C 7.07616 3.54662 4.47325
H 3.04766 8.75062 4.7661
H 16.8181 0.761405 17.8243
H 3.4291 8.30474 17.3124
Si 21.0247 18.1316 18.7952
C 6.14376 2.85522 18.8995
H 16.6086 13.6739 9.90109
H 14.1747 17.9101 2.7055
H 4.70975 6.29783 13.627
C 4.56427 6.61461 2.49002
H 6.34006 0.772164 5.742
H 8.35717 10.3799 4.0224
Si 7.06592 13.3013 13.4949
O 8.0476 13.6103 14.7869
C 8.69454 2.34917 10.18
H 18.4233 18.409 12.3674
H 9.6948 8.61053 5.29701
H 3.90117 4.42503 1.483
C 20.4657 3.5939 6.85871
H 4.33135 10.2506 3.22687
H 5.33743 13.5511 4.25162
H 18.3794 18.1173 17.4595
Si 9.35721 14.2134 15.4992
O 9.71406 13.3731 16.9678
C 8.13802 1.53195 1.19228
H 1.14066 6.64973 13.4645
H 8.9102 7.442 12.6124
H 16.843 17.8689 16.3969
C 11.0233 13.835 14.7188
H 1.46865 5.48153 10.7785
H 2.94124 12.4404 9.83985
H 4.16182 8.89281 9.10789
Si 8.87301 13.3381 18.3834
O 9.5508 12.1139 19.1746
C 5.35093 16.5031 0.717573
H 1.52908 12.8817 18.7767
H 19.892 2.93184 7.42091
H 13.3202 8.08711 12.8184
C 7.08953 13.2208 18.2408
H 6.55941 12.2061 18.5915
H 12.993 8.74244 12.6306
H 6.34895 14.0844 17.9582
Si 10.1024 10.6075 19.3286
O 9.14407 8.68054 18.3248
C 5.81879 0.875675 10.0795
H 14.8625 12.4313 17.1349
H 6.04392 5.20216 9.06807
H 14.8936 9.90152 4.88583
C 11.7727 10.3948 18.6172
H 11.8596 11.1291 17.8622
H 12.1883 10.6307 0.850932
Si 8.43103 8.86247 16.8152
O 8.57779 7.29292 16.2891
C 9.24041 10.0088 15.6204
H 8.6323 9.88898 14.693
H 9.27546 11.0344 16.0344
H 10.2247 9.60853 15.2263
C 6.65819 9.10997 17.1109
H 6.29829 8.32823 16.4418
H 8.09328 3.12811 4.18529
H 6.04848 10.041 17.0589
Si 7.48092 4.25544 14.3513
C 4.31478 5.54607 1.39128
H 5.98352 7.24017 18.2957
H 4.729 5.70858 19.1669
C 3.87546 6.7677 13.0454
H 3.07644 6.19558 12.5884
H 3.27116 7.43204 13.7052
H 4.24745 7.23683 12.1144
Si 19.6016 16.9308 12.7184
O 19.2065 16.8406 14.3275
C 1.96332 14.2368 2.34592
H 0.915541 2.25765 10.0581
H 2.7927 13.7429 15.5295
H 14.7139 15.6056 10.2289
C 16.0314 18.0938 11.6998
H 16.9288 17.523 12.1718
H 15.6926 0.962967 10.78
H 15.9489 17.2976 10.8667
Si 20.0057 15.5647 15.0238
O 19.1903 14.133 15.0939
C 4.72595 2.64963 19.0986
H 6.10017 6.37849 4.68911
H 19.2885 11.6631 17.3159
H 0.809687 12.2137 5.51474
C 1.15499 2.28172 0.708724
H 7.23427 12.5606 17.3498
H 11.323 0.894682 14.1577
H 8.29643 16.9509 6.98384
Si 18.6702 13.2069 13.8228
O 17.3087 12.1039 13.9597
C 7.56978 17.6626 3.95073
H 2.75242 11.2202 14.9959
H 20.9514 10.8834 8.79079
H 4.73213 12.8365 5.57322
C 12.7284 13.7288 5.02737
H 12.1158 13.5813 4.20375
H 19.3662 14.7268 17.4812
H 12.3856 14.5063 5.62707
Si 16.7364 10.699 13.1925
O 17.7008 9.32056 13.2075
C 12.4205 9.12017 18.0336
H 12.6437 8.39068 18.8415
H 13.3313 9.33159 17.5578
C 16.441 11.0658 11.427
H 15.3489 11.1075 11.335
H 16.8942 12.07 11.2485
H 16.6514 10.3739 10.5758
Si 17.5152 8.10703 14.4322
O 17.9057 6.63981 13.8579
C 13.9471 14.947 1.58178
H 13.0176 15.4433 1.38927
H 15.7588 13.3715 6.45555
H 14.4705 14.5823 2.52996
C 18.482 8.52721 15.901
H 17.8578 7.87627 16.5735
H 18.0627 5.71891 7.92043
H 18.4592 9.62945 15.7585
Si 16.6796 5.58869 13.5113
C 11.2854 5.51193 14.5561
H 12.2365 6.02474 14.523
H 11.2115 4.83719 13.6885
H 10.4478 6.23147 14.6012
C 15.1789 7.19715 10.3448
H 15.408 8.27775 10.3365
H 15.8779 6.68778 10.999
H 15.1458 6.80214 9.3279
523
 Atoms. Timestep: 17000
Si 0.948377 15.5713 1.06593
O 20.7338 14.9091 2.28273
C 8.52795 6.61502 4.99916
H 8.98169 6.45738 5.94673
H 8.67851 7.74618 4.90012
H 15.9152 6.03592 11.0638
C 11.4543 1.20415 7.88715
H 12.4083 0.847069 8.65232
H 1.18779 7.65961 5.24622
H 6.41 1.18206 10.9676
Si 1.19713 14.0689 3.13332
O 21.3605 17.1595 1.04527
C 20.894 13.4074 18.0068
H 16.2993 16.1997 15.5982
H 10.3271 4.12685 1.54396
H 0.793212 1.31258 3.44328
C 3.17114 12.0161 12.4734
H 6.40094 17.2466 1.00898
H 12.8188 10.1372 13.5364
H 11.3527 12.6944 7.18949
Si 1.81126 7.35171 16.6213
O 3.26548 11.2944 5.59406
C 6.70078 7.82491 16.9696
H 3.25785 13.3523 7.15064
H 16.2086 3.04658 1.51936
H 8.90601 3.13863 2.0227
C 2.70063 3.28933 4.36354
H 12.9383 5.58687 11.8465
H 8.9076 3.97232 7.50302
H 14.9189 16.3036 9.71223
Si 21.0667 15.6497 16.7747
O 21.2928 12.6901 3.30954
C 5.47786 18.4022 6.2421
H 9.8823 13.3095 14.0975
H 7.17719 10.844 5.56406
H 12.708 16.2717 15.4447
C 1.43997 6.97669 6.01006
H 8.9035 6.00036 4.1518
H 5.31768 3.83984 12.9248
H 1.84225 8.86569 14.6059
Si 2.64512 3.57792 6.93555
O 18.684 8.88817 7.7443
C 2.56042 2.28404 18.9505
H 3.54619 8.97732 6.70498
H 4.04251 12.3287 11.9098
H 16.6353 14.7354 8.47376
C 4.99344 8.21683 8.82826
H 5.6561 17.1261 4.72644
H 1.31863 14.991 4.16781
H 8.93836 3.76408 3.97689
Si 2.58403 11.2522 7.04054
C 3.69825 8.95784 8.80899
H 5.03216 7.47806 8.02022
H 12.0879 8.20373 5.11246
H 20.3122 4.2767 13.1979
C 2.7764 13.7659 2.1579
H 14.8749 1.28309 4.47907
H 14.335 10.8163 15.6889
H 19.1022 9.38276 18.8561
Si 8.04644 7.83243 18.2057
O 7.94583 8.49197 0.961961
C 3.68803 2.58284 7.9997
H 4.58815 12.1113 7.7306
H 19.4442 17.7274 2.77103
H 20.5921 2.84527 3.22493
C 0.688281 2.2549 3.23738
H 9.8209 9.40786 5.89306
H 7.2926 11.4334 13.894
H 16.2431 15.8577 4.25695
Si 9.34727 8.50895 1.94081
O 8.94406 6.52507 17.8209
C 9.35748 11.0283 2.64989
H 8.51417 11.6173 2.36489
H 10.1221 11.8324 2.90734
H 16.2728 16.8345 14.0349
C 9.96306 10.1718 1.52673
H 1.65392 3.34335 13.3445
H 10.6199 14.3691 15.3789
H 15.2232 17.1253 2.13316
Si 9.25851 5.85651 16.3033
O 10.5527 5.03338 16.676
C 7.93279 4.79248 15.7001
H 2.85654 1.64016 8.65344
H 17.379 1.86785 10.5313
H 15.6412 12.118 14.3483
C 13.8673 14.2385 11.6295
H 6.32148 18.3898 3.84699
H 13.7394 15.3288 11.8177
H 13.2902 13.8978 12.5184
Si 11.6684 4.03263 16.1267
O 11.6335 2.47055 16.8898
C 12.1014 15.8322 5.51716
H 12.0245 16.666 4.84886
H 21.1522 16.9719 17.3756
H 11.6037 15.8576 6.44432
C 13.2715 4.81445 16.4795
H 13.5857 5.73733 15.9595
H 14.6772 8.19799 14.6281
Si 6.55443 3.81631 16.4279
O 6.6815 2.24853 15.7648
C 7.45815 3.51539 19.0806
H 19.014 13.1133 5.30095
H 18.2214 12.2305 7.4881
H 21.1909 12.5522 18.6506
C 10.8555 4.69429 7.14788
H 19.7081 7.00214 12.1665
H 18.43 9.65473 7.22593
H 13.9746 13.238 5.46777
Si 6.06724 1.75116 14.3123
C 9.02567 15.8973 2.57581
H 9.74186 15.2606 3.07247
H 5.18878 4.19963 16.1542
H 9.07443 16.9165 3.0667
C 6.25836 3.37791 13.3116
H 3.49877 2.43727 11.8009
H 6.8173 3.20252 12.3358
H 3.62197 2.58617 11.0723
Si 18.9622 7.90447 0.922326
O 19.6 6.33596 1.39338
C 11.7639 17.3407 16.5948
H 2.44438 5.75539 7.67668
H 5.56586 4.60951 6.18655
H 10.0806 12.4144 5.49893
C 2.81474 13.2934 13.2179
H 11.027 14.0442 1.27272
H 12.7554 7.21262 14.9896
H 12.0416 8.7166 18.7708
Si 19.2455 4.71628 1.23723
O 19.87 3.91482 18.9127
C 17.1793 15.1498 9.33926
H 19.3191 8.36815 11.0206
H 12.1431 7.31886 15.0214
H 11.2191 8.0631 11.5887
C 18.9143 8.89293 2.59321
H 1.94673 4.29598 19.1374
H 17.4922 3.61543 9.9577
H 19.046 14.764 7.38347
Si 20.8179 3.2431 17.7576
O 19.7659 2.56076 16.8508
C 11.3275 17.1756 17.8487
H 0.862195 2.09743 10.1388
H 20.5023 1.7669 14.4552
H 14.8099 11.0863 1.85107
C 18.3636 18.402 18.2379
H 16.3503 16.3868 6.01533
H 5.64117 15.9242 1.71314
H 10.9307 0.779001 5.09309
Si 18.2483 1.7867 16.9667
O 16.8981 2.65776 16.7733
C 14.3741 3.92395 17.0164
H 17.598 4.45418 5.30306
H 15.0139 4.44807 17.7723
C 17.8608 4.7015 12.7327
H 16.9489 4.33343 12.2112
H 18.2077 3.70629 13.0661
H 18.4406 5.00726 11.8536
Si 15.9059 3.46979 15.8295
O 17.0928 4.89282 15.5712
C 15.671 2.68912 14.1491
H 14.6438 2.44861 13.814
H 5.58382 8.21808 17.2455
H 19.8882 13.4885 17.3862
C 2.73237 6.45828 5.77906
H 18.0315 11.9758 19.287
H 14.978 15.6837 5.53325
H 17.0748 14.5919 10.2288
Si 10.6167 1.09411 16.8664
C 11.7634 16.6365 15.4586
H 9.84042 13.0011 5.1916
H 6.32646 17.8355 10.4144
H 18.3509 11.7961 18.5739
C 2.97785 9.19757 7.62976
H 4.38237 18.4194 6.41616
H 4.12814 8.70187 13.8964
H 3.20603 9.57422 9.54667
Si 9.95397 2.0784 8.33479
O 8.50814 1.52598 7.95186
C 3.14925 18.5011 15.2729
H 5.63057 8.25491 9.72874
H 6.74321 15.6969 1.03751
H 11.3512 0.831403 4.48646
C 10.2436 7.75881 11.98
H 10.4907 5.20057 6.20782
H 20.4763 4.90037 4.62653
H 10.3842 6.88132 12.6144
Si 8.27895 0.808342 9.69335
O 8.96127 17.1981 9.59112
C 3.49134 12.645 7.88603
H 9.40565 16.0263 1.49395
H 20.2813 11.2428 12.9817
H 4.80849 6.29348 19.2244
C 10.7631 16.9018 18.9708
H 5.30803 6.30027 2.16496
H 19.634 2.3316 7.57656
H 16.0034 3.19225 13.1649
Si 9.15278 15.6324 9.1312
O 7.85784 14.5588 9.69109
C 3.8366 15.0479 5.78807
H 3.11093 14.2196 5.55685
H 20.719 11.202 10.1164
H 4.87425 14.7427 6.14257
C 9.22092 15.1515 7.39992
H 15.1815 15.4563 14.3271
H 9.54297 14.1606 7.039
H 9.69358 15.9219 6.77192
Si 8.86541 13.4427 10.5927
O 8.80546 11.7922 10.3294
C 10.3562 14.5712 10.2918
H 16.1664 6.69835 7.11488
H 11.3542 14.3271 9.97416
H 10.5589 15.2155 11.1638
C 17.2369 7.43427 19.3474
H 6.85243 13.6736 18.9868
H 14.9438 17.2506 14.9603
H 17.836 9.52081 2.59551
Si 7.83064 10.4185 9.99686
O 8.34783 8.82293 10.3454
C 6.07794 10.618 10.6632
H 5.60907 11.2897 9.9142
H 5.43253 9.74874 10.7657
H 6.0996 11.2359 11.5768
C 8.02318 10.5545 8.13042
H 7.80182 11.5228 7.7207
H 9.11581 10.3726 7.94355
H 7.44307 9.82026 7.54618
Si 9.19544 7.40506 10.4655
C 10.7199 7.23046 8.86239
H 9.73487 6.91733 8.44953
H 10.9889 8.25896 8.63174
H 11.098 6.942 9.85225
C 8.43026 5.68373 10.2989
H 8.47101 5.39145 11.368
H 4.00006 15.6656 4.86023
Si 11.776 11.3667 7.80948
O 13.0759 10.8259 6.87316
C 15.5837 16.3662 14.8726
H 18.0416 8.4886 5.40508
H 17.7244 4.59151 4.46977
H 9.13261 3.26136 4.50347
C 12.2567 11.6349 9.55445
H 11.371 11.8302 10.1527
H 12.8113 10.76 9.99528
H 12.8433 12.5213 9.66649
Si 14.4798 9.84891 6.79811
O 14.3593 8.52708 5.86661
C 15.1558 10.2647 2.50701
H 15.5093 9.40533 2.03978
H 15.835 10.5779 3.34274
H 14.3241 9.88278 3.14477
C 14.7823 9.33683 8.5243
H 13.9155 9.48039 9.15329
H 14.8663 8.26892 8.42218
H 15.7274 9.67079 9.00328
Si 13.1906 7.3984 5.54623
O 12.9015 6.58137 6.92068
C 15.4938 2.06167 4.0339
H 16.1884 1.63296 3.36775
H 15.891 2.68272 4.83323
H 14.7677 2.67839 3.49251
C 13.8613 6.24985 4.25167
H 14.7446 5.76347 4.70022
H 13.0907 5.51674 3.99608
H 14.1993 6.67253 3.30577
Si 11.9275 5.95403 8.06978
O 12.8874 5.33348 9.19059
C 18.6497 17.3735 3.32659
H 17.7291 18.2008 3.45475
H 18.5754 17.1755 4.4223
H 18.2512 16.4514 2.99956
C 11.4966 4.24061 1.69924
H 12.1415 5.08438 1.08011
H 11.6447 4.7921 2.80514
H 12.2658 2.92172 1.69754
Si 12.4755 4.74819 10.7271
O 10.8226 4.82656 10.6978
C 13.2733 3.11833 10.8407
H 12.7117 2.30433 10.3783
H 14.2528 3.19514 10.3706
H 13.4655 2.9198 11.8878
C 7.91153 16.4216 15.7338
H 8.01217 15.4599 2.64819
H 2.27145 0.763478 14.6519
H 19.4988 13.4202 4.80492
Si 9.61371 4.19611 9.77374
C 7.01729 5.47602 9.88818
H 6.34161 5.99593 10.6096
H 6.83583 5.82986 8.85371
C 17.3579 13.9754 16.665
H 17.7734 13.8038 17.7017
H 16.1965 13.8298 16.7281
H 17.67 14.895 16.2392
Si 20.962 5.58632 6.13116
O 19.49 6.51154 6.52587
C 14.1262 16.5259 9.00488
H 14.5414 16.9412 8.06103
H 13.4855 17.3246 9.34531
H 13.5549 15.6358 8.73375
C 2.98779 14.5246 12.0708
H 13.0083 9.76461 12.7226
H 8.23928 13.723 11.9076
H 3.41891 11.1471 13.1411
Si 18.3495 7.73103 6.60789
O 1.70594 5.95814 15.6249
C 3.50997 3.01007 5.31688
H 17.6075 10.1703 10.2985
H 3.2468 6.65072 4.8608
H 8.80625 17.0586 15.5026
C 21.244 3.96365 7.1395
H 17.8706 9.98441 10.9422
H 14.5433 13.9935 10.8604
H 3.21112 13.8529 3.2107
Si 21.2562 4.83424 15.2081
O 17.0523 7.01409 7.23059
C 18.0034 2.62063 9.99606
H 18.4596 2.28632 9.07763
H 16.3068 14.6447 5.47168
H 16.7512 3.92373 7.70379
C 21.2926 14.8333 18.3297
H 5.26175 8.85603 1.89235
H 20.265 7.67253 18.8648
H 15.3543 2.71604 7.44642
Si 1.50332 8.07702 7.82657
O 19.6922 16.657 8.93672
C 19.1924 7.94677 12.0076
H 20.8873 1.73884 15.2248
H 18.0765 0.615206 15.889
H 14.0768 10.1435 15.5503
C 6.23193 11.2792 5.31918
H 6.38213 12.3706 5.3586
H 14.0775 2.99591 17.5628
H 3.38552 12.9906 1.51448
Si 5.08305 2.28625 6.41546
O 1.06479 16.0573 11.0687
C 3.18967 5.53575 6.77107
H 2.87528 0.889028 16.1686
H 18.4621 4.09391 2.33062
H 3.79645 15.5265 1.54036
C 19.4906 17.2312 11.9244
H 11.1518 16.5765 14.7529
H 5.96713 9.21195 1.72925
H 15.5724 5.9611 1.10902
Si 20.2469 16.243 10.7486
C 9.88963 3.91963 7.98287
H 12.0823 1.5073 7.42006
H 15.3959 12.8902 4.5172
H 7.79102 16.488 16.8159
C 1.09013 8.8321 15.4548
H 19.6458 9.80673 2.42116
H 5.73622 15.9244 18.5572
H 7.46415 17.2639 5.01037
Si 19.0219 15.0814 8.80338
O 1.11205 15.9547 13.8575
C 19.648 14.2929 10.3905
H 14.544 17.5587 2.1538
H 13.7544 0.843942 13.3289
H 21.378 5.55625 12.663
C 19.4752 13.1703 10.9986
H 3.07717 9.66227 19.222
H 7.19262 3.63066 6.50506
H 21.2407 2.38291 10.8232
Si 2.05983 16.0564 12.4458
O 2.90909 17.5091 12.5937
C 3.81863 2.60605 18.6661
H 16.3998 1.78435 14.1882
H 18.1533 7.77026 12.2866
H 14.9963 13.1229 7.24042
C 16.1135 6.76044 0.693197
H 11.6139 4.02943 6.59452
H 20.2892 12.7147 3.09529
H 20.8361 8.45049 15.0016
Si 3.8877 17.5634 13.8238
O 3.946 15.9761 14.3021
C 5.77277 18.0991 13.4625
H 6.30701 17.3438 12.6011
H 3.88981 7.37179 1.62214
H 3.2061 8.60028 17.8674
C 0.6912 4.34437 13.4764
H 21.1208 10.7319 9.93873
H 3.15196 15.5409 6.51761
H 4.1753 5.49493 7.21487
Si 4.21153 14.5764 13.5436
O 6.4978 11.8885 13.6233
C 15.6964 3.7049 7.70442
H 11.0207 15.5222 0.754183
H 3.35248 14.3517 11.0443
H 16.4902 9.91642 16.9394
C 16.0014 15.6698 5.32488
H 15.6525 2.81745 1.05166
H 11.0709 10.3925 1.64482
H 4.35689 8.0096 14.0567
Si 2.25489 4.38722 1.97287
O 3.26228 7.85685 17.2097
C 1.61004 3.29362 3.28291
H 9.80222 2.32196 11.104
H 10.293 15.0801 13.743
H 7.05262 16.8752 15.3035
C 6.20369 3.66468 6.00094
H 1.005 6.95536 9.21752
H 17.968 17.5172 17.8808
H 0.964079 9.89348 15.9998
Si 1.30218 18.0154 18.4718
C 6.39613 3.43003 18.2538
H 16.8811 16.2351 9.40474
H 12.4087 14.7701 5.17452
H 3.46824 5.96067 10.1686
C 4.38608 6.34193 1.42673
H 6.34952 18.0839 7.17164
H 9.25517 10.256 3.44571
Si 6.27245 13.4661 13.3918
O 7.26717 14.7294 13.9395
C 9.37948 2.46603 10.1496
H 18.9519 2.8506 10.7279
H 10.5183 9.19018 6.10003
H 3.921 5.4327 3.31322
C 20.7645 2.6976 7.3842
H 2.47347 9.87012 0.721779
H 5.53897 10.9454 6.05426
H 17.2743 0.819993 18.7079
Si 8.26967 14.7623 15.2143
O 8.25627 13.6069 16.4736
C 8.08565 3.69459 1.36035
H 19.8419 5.11726 15.5063
H 9.87454 8.64394 12.4833
H 0.680762 7.0973 17.5627
C 9.95697 14.3478 14.5165
H 19.4469 8.62121 12.8459
H 3.1102 12.9095 8.98048
H 5.4541 9.04432 8.17323
Si 7.86846 12.8817 17.9338
O 9.22493 12.0198 18.0919
C 5.92784 16.1058 0.738426
H 0.634416 13.0997 17.3251
H 20.5773 2.03875 6.39189
H 13.4341 13.804 15.8954
C 6.51758 11.7163 17.2471
H 6.90494 11.4229 16.2891
H 13.3818 13.2779 15.3798
H 6.23193 10.8222 17.7766
Si 9.92839 10.62 18.5467
O 9.06221 9.13191 17.5514
C 6.55798 0.788574 10.1602
H 17.6336 13.2714 15.9952
H 6.69313 4.42783 9.93913
H 15.6618 10.6463 6.20153
C 11.6391 10.5918 17.781
H 11.8647 10.9726 16.716
H 11.9795 11.3128 18.6154
Si 8.91087 8.80147 15.7533
O 9.56977 7.31747 15.4024
C 9.84678 10.1706 14.9108
H 9.78309 11.1418 15.3804
H 10.9281 9.88827 14.9115
H 9.57784 10.2211 13.8465
C 7.02792 8.40264 15.5936
H 6.78428 7.68154 14.7769
H 6.311 3.66846 4.90744
H 6.43937 9.36586 15.4836
Si 7.88958 4.47353 13.9477
C 3.7767 5.08043 2.3196
H 6.38019 6.76325 16.7459
H 4.44327 4.20196 2.02078
C 3.31053 6.62359 11.0794
H 4.32297 6.84315 11.5094
H 2.98583 7.6245 10.6858
H 2.66917 6.08474 11.8203
Si 18.9351 17.4104 13.5994
O 19.1838 16.1386 14.6186
C 2.67252 15.1504 1.63256
H 3.73524 3.47421 8.7449
H 1.9832 13.37 13.959
H 14.8498 13.7927 7.7637
C 13.4976 17.8878 12.6594
H 14.4344 17.4026 12.7218
H 12.9202 17.867 11.7922
H 12.7028 17.1707 12.7545
Si 20.5034 15.115 14.4296
O 20.1163 13.6651 13.9212
C 4.98503 3.16204 18.483
H 7.41837 6.47611 5.01157
H 18.9425 8.27599 3.38342
H 3.91498 11.2185 4.90729
C 1.36684 1.93965 18.6282
H 5.77223 12.1606 16.6518
H 9.25714 1.72424 16.4377
H 8.08736 15.2593 7.26409
Si 19.4462 12.5439 12.8271
O 18.0208 12.086 13.4471
C 6.27048 18.0241 4.77949
H 2.26516 11.6688 11.8993
H 1.04338 11.7207 6.80039
H 5.77031 10.844 4.42765
C 14.3543 12.6996 4.58852
H 14.1877 11.6656 4.51544
H 19.397 0.510833 18.5961
H 13.8664 13.242 3.75876
Si 16.5241 11.3765 13.3916
O 16.4355 9.76442 13.8307
C 12.2699 9.22634 17.9207
H 13.3224 9.46218 18.1661
H 11.8449 8.60911 17.2122
C 15.7652 11.4138 11.728
H 14.7323 11.84 11.9194
H 16.2599 11.9082 10.8848
H 15.5537 10.4052 11.364
Si 16.1079 8.59246 14.8443
O 17.2344 7.39381 14.2667
C 11.8229 14.8107 0.963037
H 12.1025 14.9406 18.627
H 17.8186 11.9213 6.89591
H 12.6728 14.6262 1.45866
C 16.726 8.89083 16.591
H 17.8482 8.76713 16.5646
H 15.0071 4.33218 8.2724
H 16.3931 8.19214 17.4021
Si 17.5644 5.78571 14.3855
C 11.9527 3.88895 14.2418
H 11.3856 4.61418 13.6831
H 12.9826 4.23736 14.1984
H 11.9375 2.87504 13.8602
C 15.3702 6.94179 11.3681
H 16.0409 7.72401 11.7259
H 14.8611 7.37707 10.5059
H 14.5693 6.6547 12.0676
523
 Atoms. Timestep: 17500
Si 0.955145 15.8268 19.463
O 20.5839 14.8521 1.30675
C 5.80849 6.30798 6.17421
H 5.43652 5.49739 5.46078
H 6.50578 6.81208 5.52422
H 16.8543 6.67828 11.3644
C 12.4075 1.77564 7.68849
H 12.214 0.623454 7.70742
H 21.0961 7.30999 5.16159
H 6.28874 1.70095 9.4226
Si 1.23099 14.2508 4.21557
O 0.878649 17.5688 19.3983
C 2.45859 14.3769 17.3326
H 16.8082 15.1073 15.9133
H 15.2829 6.60575 17.9765
H 0.859839 1.30615 2.91154
C 3.05841 12.488 11.3714
H 8.71919 2.44176 19.482
H 13.7045 9.22036 11.5753
H 11.8118 12.4367 7.46896
Si 1.42997 6.76228 17.0201
O 1.91609 11.9496 4.82176
C 5.71892 8.34984 17.1831
H 1.1998 13.2894 8.2699
H 13.4114 18.3558 1.66891
H 8.13002 3.92275 1.46072
C 2.56021 2.55758 4.03375
H 13.3 6.69826 10.7473
H 8.93538 4.07877 7.63757
H 11.6873 15.8165 6.11276
Si 1.38223 16.6645 16.1945
O 20.6213 13.7748 4.77038
C 4.21363 18.0925 6.12327
H 11.0963 15.4244 15.7915
H 6.58958 10.5753 4.55956
H 12.7129 16.5905 17.1162
C 0.651277 6.82292 5.97217
H 4.99717 6.99055 6.39622
H 7.39381 2.34392 11.6879
H 3.5357 7.65228 16.1179
Si 2.1023 3.2296 6.66363
O 19.2134 7.02068 9.76077
C 2.1365 2.88175 17.458
H 2.30026 9.53306 5.04697
H 4.02452 12.4416 10.824
H 17.5364 16.8303 9.25825
C 2.51658 8.33492 9.37493
H 6.9687 1.12761 17.7048
H 2.22152 14.4689 5.58747
H 8.02571 4.59771 3.15421
Si 1.07465 11.4464 6.24527
C 1.0832 8.59509 8.73192
H 2.27015 8.26242 10.4469
H 14.0613 7.71446 3.91304
H 20.5257 2.27982 14.9424
C 2.01377 14.015 2.46714
H 12.8276 2.52073 3.45809
H 16.3341 12.302 18.9073
H 15.6621 5.42662 1.66096
Si 7.24809 7.64082 18.0386
O 7.4617 7.63603 0.55933
C 3.30123 2.62667 7.87718
H 1.73523 13.814 6.69564
H 18.7627 17.8336 0.795511
H 6.06666 9.9318 1.458
C 1.54714 1.48426 2.04703
H 8.83107 8.56406 5.55978
H 5.31193 11.5262 14.0504
H 18.1404 16.9387 6.47564
Si 7.86745 8.85209 1.67419
O 8.03696 6.46955 17.35
C 10.222 10.793 1.84221
H 9.95011 10.396 2.82435
H 9.68977 11.7258 1.7004
H 15.82 14.7073 14.6961
C 9.54935 9.48706 0.991487
H 1.06184 1.4363 14.8827
H 9.81581 16.4979 15.3922
H 9.97897 15.726 2.4305
Si 8.69439 5.86693 15.9777
O 10.2938 5.55112 16.3004
C 7.91417 4.2745 15.2987
H 2.72381 2.03148 8.66813
H 18.4556 3.58879 11.684
H 16.2838 12.1551 15.0343
C 12.09 11.8708 13.2264
H 6.36118 17.7199 6.35081
H 13.0757 11.9148 13.8332
H 11.7134 11.0855 12.5773
Si 11.5062 4.70297 15.5901
O 11.0737 3.04966 15.8577
C 14.873 17.9715 4.51784
H 14.4101 0.585519 3.91632
H 2.57041 16.207 15.2894
H 15.1435 18.1792 5.54443
C 13.1688 4.983 16.34
H 13.556 6.02096 16.4923
H 15.794 8.68531 16.2016
Si 6.18122 4.131 15.7991
O 5.44293 2.79691 15.0278
C 6.97212 3.54202 18.6388
H 14.8651 11.2035 3.75228
H 18.924 11.4364 4.06592
H 3.1484 14.046 18.2846
C 10.7342 4.87731 6.74429
H 1.43585 8.88801 12.2175
H 18.9733 6.70831 10.683
H 11.376 12.8208 5.29935
Si 5.7744 1.70021 13.8478
C 8.57628 17.0874 4.16237
H 9.36447 16.9469 4.90459
H 5.24434 5.38437 15.845
H 7.89491 17.9249 4.46363
C 7.37853 2.13676 12.773
H 4.07907 0.663834 10.4807
H 8.04458 1.30901 12.949
H 3.76238 18.0979 10.4417
Si 18.0111 6.44814 1.7372
O 19.3813 5.42072 2.15353
C 11.5313 18.3576 16.8224
H 2.71434 5.45241 7.99706
H 5.99124 2.38959 4.79866
H 8.7516 11.513 6.4103
C 3.10442 13.6926 12.2715
H 11.0659 14.966 2.04782
H 14.051 9.43059 14.7613
H 15.6236 6.37192 18.5585
Si 19.0008 3.75656 1.9224
O 20.0116 3.12843 0.942699
C 17.2278 15.8041 9.12351
H 1.22485 7.29667 12.6236
H 14.0604 9.33409 13.9555
H 9.92639 8.52277 12.0531
C 18.0943 7.92124 2.60776
H 21.0703 9.28553 1.32047
H 18.9847 2.49421 13.1639
H 19.4929 13.4254 9.34476
Si 20.4742 2.88039 18.47
O 19.142 2.86905 17.5785
C 11.2158 0.608249 18.0941
H 16.8655 13.7408 4.35702
H 17.7718 17.2025 13.1356
H 15.1779 8.7324 0.499634
C 16.6414 18.5726 16.777
H 19.5549 15.8468 6.52022
H 5.72851 9.46312 0.750147
H 13.048 2.38535 7.06933
Si 17.7254 1.88086 16.8011
O 16.7169 3.10448 16.5626
C 14.021 3.93308 16.9613
H 16.8472 3.31193 5.87879
H 14.6336 4.36897 17.7859
C 18.6014 5.73675 13.9055
H 19.4756 6.36431 13.658
H 17.9379 5.35937 13.0748
H 19.1706 4.83875 14.2331
Si 15.5105 3.89961 15.6576
O 16.0557 5.49344 15.2381
C 15.2113 3.24156 13.9841
H 15.6765 2.19253 13.9099
H 5.4272 9.2331 17.8268
H 2.64508 14.0301 16.3276
C 2.08649 6.38997 6.18069
H 14.1153 15.7332 1.46356
H 18.7906 16.1271 5.09164
H 16.8853 15.8205 8.06874
Si 10.7459 1.46185 15.596
C 12.6251 17.4696 16.6758
H 8.47402 11.673 5.7409
H 6.97028 18.3619 11.0016
H 14.0456 14.9407 1.4761
C 1.41187 9.70924 5.70861
H 3.90499 17.5078 5.3023
H 5.94289 6.98717 12.457
H 0.621473 9.51734 9.03645
Si 10.6131 2.25027 7.97169
O 9.23619 1.16924 7.84202
C 3.35422 17.5059 16.0081
H 3.18218 9.18213 9.24938
H 4.58175 0.794048 18.4494
H 4.33873 18.0559 0.694955
C 10.6414 8.06548 11.3469
H 10.0143 5.36501 6.0352
H 20.2506 5.32119 4.9386
H 11.4861 8.76194 11.2412
Si 8.97527 1.01439 9.46563
O 9.39922 17.5176 9.64026
C 1.79579 12.8076 7.37308
H 9.02146 17.3681 3.19219
H 21.2067 11.8975 13.2086
H 4.22226 5.88826 19.3717
C 10.523 1.10973 18.9849
H 5.38714 6.24003 1.62089
H 21.1199 2.04106 8.085
H 14.1442 3.22124 13.6523
Si 9.16309 15.925 9.22912
O 8.40059 14.8099 10.3218
C 5.7912 14.0189 4.7159
H 6.5605 14.6175 5.31241
H 19.0339 11.1833 9.21162
H 6.26422 13.89 3.76578
C 8.16418 15.7164 7.61588
H 14.9328 15.2422 15.915
H 8.25953 14.5852 7.6682
H 8.69948 15.9556 6.6611
Si 9.44821 13.5135 10.1658
O 8.7508 11.9799 9.41243
C 10.5228 14.6627 9.21622
H 17.3479 4.05435 9.12989
H 10.9713 14.235 8.30243
H 11.3623 14.946 9.85014
C 16.7777 5.07479 2.08323
H 9.47647 13.9414 18.5942
H 15.9795 16.469 14.9054
H 19.0506 8.36852 2.21206
Si 7.82937 10.6339 9.4915
O 8.81923 9.14786 9.31202
C 7.06065 10.6384 11.1923
H 6.47233 11.5598 11.3122
H 6.41861 9.74019 11.3325
H 7.84149 10.63 11.9573
C 6.62108 10.46 8.09375
H 5.85191 11.2188 8.22202
H 7.0649 10.6008 7.09338
H 6.16738 9.45385 8.13858
Si 9.53946 7.79974 9.86093
C 10.9278 7.64269 8.0424
H 11.4723 7.76327 8.9998
H 9.91782 7.17674 7.97274
H 10.9445 8.60337 7.50201
C 8.98789 5.96486 9.87522
H 9.1301 5.8677 10.9685
H 5.543 13.0538 5.18868
Si 12.5276 11.8128 8.64779
O 13.0794 10.3985 7.993
C 15.8777 15.4766 15.3773
H 16.9801 7.2093 8.60502
H 16.0872 2.94982 6.04274
H 8.12662 4.89911 3.87393
C 13.7136 13.1095 9.40739
H 13.1087 13.8007 10.0414
H 14.5507 12.659 9.97102
H 14.2007 13.6992 8.60096
Si 14.5021 10.2075 7.12538
O 14.5198 8.72353 6.28342
C 14.7845 9.29456 1.32181
H 15.419 9.24585 2.17765
H 14.7879 10.3809 1.07157
H 13.8195 8.91999 1.6807
C 15.8991 10.2303 8.3109
H 15.5696 9.86338 9.29916
H 16.6173 9.45983 7.93761
H 16.4725 11.202 8.38679
Si 14.1059 7.35392 5.362
O 12.5844 6.82946 5.85144
C 12.9356 3.35613 4.1339
H 12.1613 4.1344 3.91289
H 13.8457 3.89657 4.05661
H 12.8071 2.95468 5.11175
C 15.2765 6.00047 5.78913
H 15.6523 5.48212 4.89598
H 16.1168 6.39078 6.3513
H 14.7766 5.26692 6.43049
Si 11.9651 6.18077 7.22237
O 13.2073 5.91321 8.35769
C 18.1504 17.6897 1.63684
H 17.1558 17.8499 1.23811
H 18.2035 18.4259 2.43623
H 18.2111 16.7041 1.97802
C 10.884 5.47836 1.18806
H 10.8317 4.06406 1.54534
H 11.7589 6.1814 2.30308
H 11.5143 5.16764 19.0233
Si 13.1182 5.40979 9.98687
O 11.6209 4.74776 10.2334
C 14.5194 4.25031 10.5794
H 14.7692 3.62879 9.69842
H 15.4779 4.65347 10.9389
H 14.2484 3.59386 11.4199
C 7.94519 0.821318 17.8473
H 7.98457 16.1884 4.1354
H 2.96096 18.3612 18.7731
H 15.3192 10.8999 3.23968
Si 10.137 4.33662 9.5646
C 7.46923 5.60262 9.65833
H 6.83865 6.33476 10.151
H 7.22659 5.4254 8.60159
C 20.0016 12.8751 17.9628
H 19.4966 12.3563 18.728
H 19.7068 12.5124 17.0264
H 19.7038 13.9358 17.9632
Si 20.1659 5.36871 6.25223
O 18.9934 5.87981 7.40715
C 12.7053 15.6508 6.49435
H 13.4186 16.3307 5.97349
H 13.0407 14.6115 6.36225
H 12.7666 15.9516 7.54923
C 3.50584 15.1867 11.6658
H 14.0904 9.86191 11.2254
H 10.0193 13.0005 11.5071
H 3.02188 11.5557 11.9525
Si 18.2059 6.20851 8.7763
O 1.47163 5.28337 16.141
C 2.66099 2.35935 5.25506
H 17.9681 9.08136 5.88845
H 2.47571 6.62247 5.22402
H 8.39775 1.18951 16.8436
C 21.3079 4.0211 6.86877
H 17.4501 8.56806 5.70709
H 11.8268 12.876 13.1176
H 2.82901 13.9888 3.37229
Si 1.27893 3.58573 16.0808
O 17.6597 4.86188 9.5698
C 19.1372 2.87725 12.0388
H 20.2155 3.07222 11.8968
H 19.65 17.536 5.77492
H 17.86 2.32902 9.64895
C 1.53052 15.4218 17.6244
H 4.13347 10.0396 13.6259
H 17.9485 6.47663 19.3838
H 16.3447 1.56598 8.93316
Si 0.982899 8.4743 6.86658
O 20.2188 15.8244 9.29851
C 0.75191 8.31892 12.8858
H 19.8463 17.8753 16.3827
H 18.8555 1.87835 14.7683
H 15.7979 12.4619 18.3807
C 5.62873 10.1911 4.25055
H 5.75457 9.53918 3.36089
H 13.4091 3.04919 17.2047
H 2.06404 12.8295 2.30874
Si 4.36055 1.72723 6.52089
O 1.60225 17.0006 10.631
C 2.66336 5.34952 6.8901
H 3.81533 17.3979 17.0775
H 0.917532 8.75389 1.39517
H 3.11449 15.7048 2.17984
C 19.9634 17.775 11.3468
H 13.1208 17.2441 15.6452
H 4.00734 9.58588 13.3231
H 16.4594 2.99856 2.73138
Si 20.9101 16.7148 10.4593
C 10.0121 4.06628 7.81672
H 7.85714 17.748 17.9695
H 12.0441 12.0461 3.7736
H 8.66914 1.00079 18.5724
C 2.40982 8.02004 16.0983
H 18.1446 7.73583 3.68616
H 5.38014 2.51037 1.73126
H 5.54191 16.2075 6.52299
Si 18.8431 14.8673 9.61835
O 0.990558 15.8114 12.918
C 19.0322 14.7696 11.511
H 15.274 10.9537 16.2466
H 13.3696 17.0467 12.6731
H 0.759184 2.38046 13.6937
C 19.3292 13.7284 12.1307
H 0.825755 13.8026 1.16027
H 6.61343 3.11742 6.37548
H 20.4433 17.9751 16.9194
Si 2.18425 16.3148 12.004
O 2.9689 17.2876 13.0292
C 3.4831 3.06685 17.6753
H 15.702 4.03018 13.357
H 0.777468 8.73113 13.9271
H 17.188 12.7783 7.17163
C 17.1302 3.78221 1.98088
H 11.2935 4.27279 5.99526
H 19.9535 13.3869 4.08324
H 1.98772 8.31641 14.9686
Si 3.89177 17.3137 14.4107
O 4.51837 15.6382 14.4414
C 5.5342 18.2075 14.118
H 6.21378 17.3498 14.1082
H 3.60127 6.88771 1.36422
H 2.64381 6.65433 18.9353
C 0.625726 2.338 14.6415
H 18.816 10.4422 9.12585
H 4.89082 14.6557 4.49385
H 3.74624 5.10943 6.57631
Si 4.43867 14.6118 13.2426
O 6.18401 12.0084 14.3333
C 17.3811 1.86551 8.79581
H 10.959 3.33169 1.63942
H 4.10532 15.3371 10.7574
H 17.9347 11.017 17.4683
C 19.0662 16.6403 5.99263
H 14.0668 0.688755 1.11417
H 10.2742 8.62884 1.31236
H 5.7819 7.69063 12.6759
Si 4.08253 2.81687 0.935484
O 1.70138 6.55379 18.6109
C 2.36166 2.52829 2.68806
H 11.0501 2.39225 10.5536
H 10.8211 15.8715 14.0795
H 6.14535 15.8681 2.63872
C 5.96436 2.35908 5.95195
H 21.3582 7.82583 9.16246
H 15.8954 18.3743 17.4274
H 2.46801 8.84566 16.7227
Si 1.77937 0.659863 19.313
C 6.01361 3.67596 17.7396
H 16.4972 15.3941 9.84888
H 15.4803 17.2458 4.06751
H 2.76221 4.96599 11.7236
C 4.27351 5.90321 1.37278
H 3.16157 17.8218 6.91475
H 11.2792 11.0863 1.69185
Si 6.392 13.3639 13.4701
O 7.75385 14.1894 13.9322
C 10.0633 2.52708 9.99033
H 18.8665 1.94943 11.4039
H 9.16336 8.81412 4.89843
H 3.04736 4.70496 2.67889
C 21.3342 2.88868 7.39216
H 0.832282 10.2658 4.69462
H 5.05745 11.0881 4.14947
H 17.0208 17.5649 16.4669
Si 9.14611 13.9717 14.9047
O 8.6164 13.81 16.4001
C 7.92831 3.31828 19.4214
H 18.0538 5.66893 17.0277
H 10.9834 7.12684 11.7866
H 20.5133 7.08706 16.9437
C 10.3252 15.5698 15.0075
H 20.609 8.39339 12.5351
H 2.79232 12.9035 7.77923
H 3.04065 7.47246 8.85108
Si 8.38501 13.2504 17.9857
O 8.54711 11.6029 17.8339
C 3.88132 1.03751 19.2237
H 19.933 14.6357 19.4849
H 17.0771 14.6606 4.18802
H 13.9248 13.7862 14.2491
C 6.62912 13.8707 18.5466
H 5.67802 13.0699 19.3294
H 13.3586 14.1103 14.648
H 6.62958 14.899 2.72784
Si 9.29605 10.0782 18.3197
O 8.31807 8.9023 17.2897
C 7.12988 1.12141 10.0422
H 21.0731 12.8895 17.9391
H 7.2995 4.6183 10.148
H 14.4222 11.3372 6.15012
C 10.9715 10.1496 17.1733
H 11.0301 10.9201 16.3728
H 11.7261 10.4864 17.8851
Si 7.93434 8.84703 15.6666
O 8.37614 7.29359 15.0602
C 8.66254 10.1263 14.5884
H 7.9657 10.3298 13.7804
H 8.67286 11.1621 15.0217
H 9.64699 9.75128 14.2368
C 6.07865 8.77619 15.8221
H 5.74449 8.04726 15.0808
H 6.36394 1.31117 6.03571
H 5.70547 9.75845 15.4643
Si 8.42139 3.37634 13.8965
C 3.75188 4.61739 1.94674
H 4.89113 7.71034 17.196
H 4.65882 4.14652 2.35885
C 3.08563 5.1039 10.6956
H 4.02693 4.60151 10.5047
H 2.2794 4.58212 10.1902
H 3.09461 6.1263 10.366
Si 18.9717 16.753 12.5557
O 19.5421 16.1034 13.9997
C 2.55114 14.9244 1.54807
H 3.62696 3.53687 8.42333
H 2.12514 13.9267 12.7684
H 17.8728 13.2357 7.07635
C 13.9865 16.7305 11.9163
H 14.2139 17.7205 11.6432
H 13.2234 16.2663 11.0965
H 15.063 16.3906 12.1619
Si 21.1198 15.4784 14.2323
O 20.5819 13.8575 14.7902
C 4.67466 3.40059 18.1959
H 6.40112 6.08921 7.04261
H 17.1906 8.41669 2.36241
H 1.25819 11.7123 4.151
C 1.37669 2.10139 18.39
H 6.32523 14.5886 17.8909
H 9.81856 3.26957 13.6029
H 7.0976 15.9289 7.48259
Si 20.088 12.8513 13.6068
O 18.8539 11.9719 14.268
C 5.45318 17.2766 6.49936
H 2.18867 12.4386 10.6756
H 20.664 11.5867 6.36379
H 5.1518 9.70381 5.12106
C 11.6191 12.9298 4.27609
H 10.7729 13.3024 3.65288
H 15.5925 0.73358 16.2889
H 12.3647 13.6688 4.34259
Si 17.2701 11.5144 14.1272
O 17.2689 9.87062 14.4941
C 11.1881 8.87051 16.4896
H 11.1044 8.96475 15.4118
H 11.3126 7.87796 17.0782
C 16.7879 11.7949 12.3632
H 17.4743 12.6166 12.123
H 17.054 10.8763 11.811
H 15.7402 12.1038 12.1393
Si 17.153 9.17987 15.9464
O 17.7771 7.76627 15.9088
C 11.0049 15.7797 2.61883
H 11.846 16.745 2.23639
H 18.337 11.4001 4.506
H 14.5402 10.8933 16.0409
C 18.2282 10.0187 17.1186
H 19.2732 10.1476 16.819
H 18.0065 1.26449 8.1383
H 18.2514 9.40706 18.0299
Si 17.6004 6.17827 15.6646
C 11.6354 5.05535 13.7943
H 12.4687 5.72957 13.4806
H 11.8467 4.06872 13.3555
H 10.6573 5.45218 13.5256
C 16.2796 7.14293 12.1717
H 15.4373 7.6392 11.6752
H 15.9326 6.39133 12.8741
H 16.9264 7.87783 12.6521
523
 Atoms. Timestep: 18000
Si 2.08313 15.5382 19.0054
O 19.5936 17.0232 2.25474
C 7.55122 6.82065 4.28351
H 8.43714 6.3947 4.68801
H 7.71489 7.86193 4.57965
H 16.2547 8.98908 12.3932
C 11.2166 1.29894 7.27722
H 11.3273 18.5449 6.33066
H 20.6978 6.41852 5.60932
H 6.03511 1.75955 10.1617
Si 2.2165 13.6356 2.90999
O 1.65538 16.6835 0.944403
C 2.14469 13.5965 16.5801
H 13.3474 16.1567 12.8824
H 14.2706 7.75701 0.753405
H 21.4571 17.9259 3.64945
C 2.87069 12.4508 10.7264
H 9.17306 2.85757 19.3517
H 10.9639 10.8529 11.9794
H 12.5263 12.2779 7.43876
Si 1.25489 7.46512 19.0926
O 2.42832 11.2677 3.79356
C 5.96048 8.03921 17.5839
H 3.01511 11.9682 6.33797
H 18.0958 18.5308 5.07384
H 8.21936 1.68843 0.72744
C 1.29015 1.72581 4.77559
H 12.3995 6.70551 10.4831
H 8.88847 4.18138 6.73069
H 12.5956 16.207 5.32105
Si 1.73581 16.468 15.8431
O 0.621005 13.0671 4.18116
C 3.75296 17.4946 6.93803
H 10.3881 15.5839 14.992
H 5.02436 9.58594 5.26716
H 10.3086 1.49109 12.2344
C 21.379 6.24649 6.39727
H 7.61585 6.70186 3.16922
H 6.76835 3.23672 12.3304
H 3.37253 7.7874 1.62757
Si 1.91145 2.94429 7.33903
O 19.0291 4.81152 10.6215
C 2.60371 3.10565 17.627
H 1.07205 8.62359 4.62188
H 3.80948 12.4394 10.0119
H 16.5287 15.0763 10.4047
C 2.78219 9.47663 8.49419
H 5.93921 17.8579 18.5538
H 3.29017 13.6959 4.04685
H 8.04878 3.20062 4.54156
Si 1.2479 11.0535 5.16644
C 1.44288 8.68663 8.49798
H 3.06537 9.53376 9.5968
H 14.5795 6.86516 4.10384
H 1.42591 7.06693 15.6344
C 3.06165 13.1306 1.18949
H 13.756 3.49419 1.42753
H 16.4574 18.294 14.8314
H 19.653 5.76291 4.93287
Si 7.55116 7.90696 18.4472
O 7.83186 8.62939 0.725287
C 3.71941 2.39194 8.15702
H 1.80512 12.0695 7.49468
H 16.4049 15.7991 2.1572
H 12.8432 1.269 7.62501
C 1.02182 18.322 2.94393
H 12.7493 8.78653 3.36671
H 4.74511 11.0583 13.756
H 20.5483 17.3105 5.94728
Si 9.05876 9.66872 1.31044
O 7.97234 6.44819 17.9271
C 11.2963 10.0894 0.919328
H 11.9817 9.94713 1.79425
H 11.134 11.0872 0.700836
H 3.30664 8.47389 14.5058
C 10.3146 9.19941 19.306
H 1.48174 5.52677 14.6727
H 8.6313 16.1331 15.177
H 6.81054 14.6557 4.64579
Si 8.38756 5.78928 16.5335
O 9.97335 5.32104 16.4822
C 7.67945 4.22575 15.6481
H 3.56343 1.89969 9.15096
H 19.7872 3.05349 14.2642
H 16.3986 12.4878 15.3672
C 12.2265 13.7692 13.2042
H 1.81209 16.2553 7.17564
H 11.647 13.356 13.972
H 11.7647 14.0773 12.1974
Si 11.412 5.13653 15.4883
O 10.9968 4.28127 14.1295
C 13.4848 3.01168 4.92658
H 12.6269 2.8741 4.25834
H 5.21833 12.6762 16.908
H 13.369 3.95003 5.62088
C 12.3217 4.08527 16.8457
H 11.7778 3.84682 17.7707
H 15.5241 9.84224 16.5993
Si 5.82072 3.79155 15.9966
O 5.38841 18.105 16.1354
C 7.21662 3.01664 18.3275
H 13.8949 11.9488 18.6357
H 15.8393 14.8882 15.8182
H 1.80952 12.8761 17.3941
C 11.0309 4.57886 6.50556
H 1.28256 8.59532 12.7364
H 18.3564 4.28747 11.0167
H 10.743 11.023 4.14619
Si 6.22799 1.19159 13.9464
C 9.38565 18.572 2.60487
H 9.63133 18.5796 1.57818
H 4.96063 5.11151 15.6432
H 10.261 18.5259 3.24597
C 7.49193 2.62169 12.964
H 6.13146 16.8213 10.2576
H 8.16052 2.06197 12.2869
H 6.0946 16.135 9.86217
Si 18.2125 7.49698 3.0358
O 18.2947 6.50211 1.54162
C 11.6839 0.618144 13.5063
H 3.2797 5.24757 7.06126
H 5.35615 1.91894 4.81496
H 6.18085 9.96874 2.07999
C 2.88879 13.4765 11.7917
H 8.85098 14.1386 4.7143
H 13.514 11.2764 14.3894
H 14.8464 7.75283 19.2341
Si 18.2434 4.69953 1.69255
O 19.4297 4.02563 1.01876
C 17.2381 15.4293 9.64652
H 0.835757 7.38305 14.5631
H 13.3512 10.5179 14.4385
H 11.3496 7.81568 11.1833
C 19.3157 8.87121 2.8833
H 2.42663 9.97973 13.034
H 18.3654 2.61412 13.5258
H 19.4845 13.8743 9.57405
Si 20.305 3.26282 18.8136
O 18.9074 3.2656 17.7804
C 12.2388 18.3142 14.5693
H 14.4968 12.9926 7.18451
H 17.6842 16.8226 13.5242
H 17.305 10.7484 4.16655
C 17.1119 18.5405 18.0468
H 20.9759 16.0298 4.86215
H 19.5089 6.92235 17.3423
H 12.3372 1.23572 7.45529
Si 17.5539 2.11126 17.2939
O 16.3302 2.84478 16.6439
C 13.542 3.41929 16.1881
H 20.2133 2.01673 7.18277
H 6.12765 6.80519 15.7308
C 18.3336 5.57263 14.3253
H 18.4957 4.64468 13.7089
H 11.2087 0.954032 10.9251
H 19.3124 6.12874 14.4097
Si 15.3605 3.59516 15.4201
O 15.7465 5.12077 15.6754
C 15.4649 2.8383 13.875
H 14.7696 2.12416 13.475
H 5.26335 8.85376 18.0852
H 2.16322 13.4671 15.3663
C 1.48921 5.48305 5.77902
H 12.4545 17.1133 1.07861
H 21.0564 15.5964 6.42652
H 16.9869 16.5009 9.57443
Si 10.2215 2.54493 14.6692
C 10.6492 1.29558 13.2302
H 5.50994 10.2549 2.36653
H 6.85251 0.743704 11.3586
H 12.1306 17.3769 1.69824
C 1.12458 9.03963 5.62242
H 4.39802 17.1123 7.67272
H 6.54168 7.66786 10.7379
H 15.6037 15.8196 18.0404
Si 9.91379 2.13384 7.90639
O 8.50988 1.3724 7.59913
C 3.09266 17.6223 15.5524
H 2.83716 10.3978 7.73869
H 18.6526 18.5646 17.4005
H 2.50955 1.28659 1.06306
C 10.2535 7.79247 11.1557
H 10.6058 4.94221 5.53943
H 19.4248 4.5186 6.34495
H 9.85497 7.03611 11.8734
Si 8.28447 0.851191 9.3696
O 8.93601 17.4281 9.62855
C 2.06346 12.1127 6.42321
H 8.80265 1.15783 2.72132
H 20.8035 11.4879 13.4753
H 3.70183 5.28755 3.85141
C 12.611 18.5767 15.743
H 4.14627 6.36829 2.61195
H 1.01039 1.95034 9.17192
H 14.9353 3.48269 13.2888
Si 9.12017 15.9502 8.83095
O 8.17805 14.6041 9.21048
C 5.02294 13.1908 5.92452
H 4.58128 13.9863 5.32921
H 20.6362 11.3524 9.19135
H 6.15852 13.3665 6.0147
C 8.89467 16.1911 6.98134
H 14.9523 16.3971 12.0488
H 9.63592 15.555 6.46789
H 9.22551 17.2455 6.71761
Si 9.34685 13.5766 9.85281
O 9.37368 12.0593 9.10837
C 10.7049 14.9356 9.18894
H 17.4904 18.6323 9.71427
H 11.1685 14.6279 8.2579
H 11.3859 15.3265 9.92866
C 18.5592 5.89312 4.18875
H 9.78156 13.9967 18.1393
H 13.535 17.4753 11.7429
H 20.4441 9.02124 3.14879
Si 8.95211 10.7499 8.12527
O 9.15532 9.27916 9.00591
C 7.13644 10.9199 7.69914
H 6.51553 11.0743 8.61499
H 6.92911 11.8522 7.15864
H 6.78596 10.0291 7.2108
C 9.95987 10.7214 6.59102
H 9.35371 11.1217 5.76903
H 10.9475 11.2092 6.61261
H 10.1387 9.67197 6.38361
Si 9.57547 7.66491 9.3953
C 10.8557 7.39556 7.93132
H 11.1471 6.71179 8.75908
H 10.1406 7.15278 7.1477
H 11.5268 8.25988 7.85675
C 8.46264 6.03356 9.45822
H 8.17497 5.93926 10.5228
H 4.49868 13.171 6.92458
Si 12.9771 11.3691 8.55135
O 14.1792 10.3425 7.93751
C 14.0655 16.8294 12.4444
H 18.6377 7.387 10.4137
H 19.4483 1.94374 7.58776
H 8.23824 3.9743 4.50437
C 13.8414 12.5132 9.83838
H 14.9388 12.4608 9.69854
H 13.5008 13.5407 9.69664
H 13.6427 12.2122 10.8779
Si 15.4449 9.89805 6.87847
O 14.6842 8.95127 5.58584
C 16.8022 11.2914 3.3914
H 15.826 10.8519 3.31454
H 16.7089 12.275 3.76247
H 17.3428 11.2906 2.42465
C 17.0174 9.35682 7.72339
H 17.9225 9.01862 7.18453
H 17.399 10.1363 8.4199
H 16.6536 8.50856 8.31379
Si 14.3212 7.32271 5.5057
O 12.8352 6.80212 5.93222
C 13.7041 2.40069 1.36568
H 13.1814 2.05194 0.482803
H 13.2465 1.96058 2.23974
H 14.7314 2.05307 1.30607
C 15.6527 6.55007 6.70548
H 16.5627 7.14843 6.69287
H 15.3645 6.48135 7.77878
H 15.9483 5.53062 6.36264
Si 12.095 6.0062 7.12528
O 13.0647 5.67364 8.4081
C 15.7326 16.5459 2.78523
H 14.7402 16.0424 2.49927
H 15.7138 17.5356 2.24578
H 15.9409 16.5348 3.78917
C 9.74549 6.04407 1.84339
H 10.5453 5.34606 2.52276
H 8.94659 5.40587 1.75286
H 9.35476 6.10638 2.96673
Si 12.4731 5.33104 10.0125
O 10.9115 4.96688 9.85494
C 13.7666 4.26961 10.9896
H 6.58543 15.1491 11.2144
H 14.8158 4.61623 11.3962
H 13.5302 3.48002 11.7594
C 6.11513 17.0468 19.1653
H 8.64053 17.6984 2.82601
H 20.5175 14.9778 10.6725
H 13.2897 12.4946 18.6325
Si 9.51823 4.4375 9.16815
C 7.14701 6.09164 8.60496
H 6.62517 7.06528 8.76122
H 7.31445 6.11905 7.50726
C 20.4148 11.8971 19.4871
H 20.257 12.422 1.3826
H 20.734 12.8351 18.9256
H 21.4465 11.1317 19.2843
Si 20.3958 5.226 7.63205
O 19.0462 6.12969 8.18044
C 12.6556 15.1879 4.91669
H 13.5204 14.8529 5.37005
H 12.7452 15.143 3.82985
H 11.8817 14.517 5.29596
C 3.51684 15.18 11.4465
H 10.762 10.8648 12.6454
H 9.16264 14.3061 10.9415
H 3.01318 11.4892 11.2694
Si 18.2194 5.97669 9.78139
O 0.877736 6.0506 18.573
C 1.43144 1.92068 6.09592
H 20.3067 11.0885 6.01138
H 1.88363 5.878 4.68746
H 6.29733 17.4324 1.09756
C 21.4596 4.02864 8.36946
H 19.7275 10.4036 6.55056
H 13.2694 14.0272 13.4933
H 3.96119 12.5668 0.990877
Si 0.63045 5.31475 17.2612
O 16.7118 5.6912 9.39336
C 19.3888 2.66366 13.2616
H 19.6655 1.60229 13.0713
H 19.3708 15.9816 5.71942
H 17.548 1.71653 8.99791
C 1.99916 15.0981 17.3762
H 6.81311 4.48968 14.246
H 16.548 8.00505 3.31891
H 17.1016 1.85027 10.7168
Si 0.506669 8.04672 7.08305
O 20.1284 16.36 9.57348
C 0.782858 8.77709 13.6048
H 19.417 16.3193 17.3038
H 18.9685 1.9966 16.0618
H 17.0656 0.48157 14.5254
C 4.56287 8.61709 5.0205
H 5.0888 8.18881 4.12188
H 13.5242 2.35985 17.1733
H 2.61576 12.998 19.3749
Si 4.61585 0.906024 7.11904
O 1.75326 16.9266 10.5289
C 2.52645 4.67301 6.58904
H 3.49244 18.4289 16.1623
H 21.3998 2.90377 16.5254
H 4.39108 15.14 0.768659
C 20.3035 18.0382 12.1208
H 8.69079 3.58032 15.7737
H 4.46213 8.29232 14.6449
H 16.6074 5.06086 4.47989
Si 21.0079 17.1335 10.7902
C 9.76925 4.10273 7.37215
H 7.00382 16.2651 18.8112
H 12.4616 11.3535 3.85578
H 5.04417 16.8389 18.9855
C 2.96787 8.04212 0.506585
H 19.096 9.40962 3.64677
H 5.80575 2.78566 1.73601
H 2.01513 17.5637 8.40524
Si 18.9955 15.1377 10.0812
O 1.18251 15.6084 12.9107
C 19.1886 14.9787 12.0213
H 16.9272 12.099 19.3946
H 12.6922 16.4606 9.14774
H 2.52054 6.43188 16.0572
C 19.6655 13.7635 12.336
H 19.1457 17.8588 2.43069
H 4.24113 0.432428 4.62181
H 19.3641 15.8487 17.9327
Si 2.24293 16.279 11.9145
O 3.41458 17.1031 12.6023
C 3.79639 3.54207 17.7315
H 16.5237 2.75854 13.5119
H 0.65717 9.62522 14.6013
H 16.3378 16.1573 5.78802
C 17.7294 4.89561 4.07358
H 11.7118 3.76668 6.19454
H 20.8207 12.5465 4.10834
H 3.60182 7.62049 18.9364
Si 4.29377 16.9192 14.085
O 4.59851 15.2137 14.0079
C 5.89263 17.7796 13.5374
H 6.87921 17.1481 14.2432
H 5.29752 5.18347 3.37097
H 20.4658 8.28827 1.21917
C 1.61348 6.11017 15.6021
H 19.8152 11.6428 9.15948
H 4.86802 12.1559 5.52055
H 3.03823 4.33284 5.67942
Si 4.56431 14.2888 12.5876
O 5.71048 11.2503 13.6096
C 17.6753 1.37105 9.91171
H 7.88356 12.8003 3.76659
H 4.05903 15.1448 10.5162
H 18.551 10.6329 17.1847
C 20.4704 16.1871 5.77154
H 17.7016 0.945804 5.09988
H 10.4544 7.92394 19.5436
H 5.85354 7.95018 10.8036
Si 4.47939 2.75745 1.05997
O 21.2925 8.54461 0.674361
C 1.34746 1.42023 3.47094
H 9.45136 2.627 10.6219
H 9.29649 15.469 13.5038
H 3.40795 13.1093 16.9083
C 4.52745 1.37004 5.20405
H 1.67856 8.18877 9.42486
H 15.5672 17.629 0.61281
H 2.64865 9.11072 0.596592
Si 2.4166 17.9084 1.85438
C 6.13845 3.11911 17.6706
H 16.8951 14.7745 8.8064
H 14.3404 3.00475 4.34955
H 2.12853 4.68992 12.4037
C 4.22161 5.37375 2.89035
H 3.95425 17.1273 5.93042
H 20.0765 14.2923 3.62916
Si 6.11817 12.719 13.0106
O 7.25784 13.4937 13.9517
C 9.32634 2.67988 9.69173
H 19.5543 3.1748 12.3209
H 12.4199 8.50635 4.0401
H 2.85832 4.80271 1.2473
C 21.422 2.87475 8.87651
H 19.8938 8.77239 6.77253
H 3.52785 8.86592 4.79134
H 17.5963 17.6028 17.631
Si 8.54627 13.7829 14.9571
O 8.31666 12.6264 16.1609
C 8.1247 2.73522 19.2837
H 19.9948 7.60027 16.9598
H 9.91004 8.77716 11.5285
H 0.527965 3.58204 0.607108
C 9.36441 15.5023 14.5956
H 20.9618 8.49284 13.0497
H 1.9712 13.354 6.23351
H 3.61145 8.80455 8.20668
Si 8.58791 12.449 17.8758
O 9.55367 11.094 17.5334
C 3.83129 1.17181 1.47757
H 19.1134 16.4914 3.00013
H 14.7663 13.6657 6.77032
H 12.8867 14.2393 16.2426
C 7.00232 12.1437 19.2172
H 7.36322 11.0023 19.4221
H 13.4437 14.7245 16.3193
H 6.07768 11.9755 18.8928
Si 10.0024 9.50148 17.5178
O 8.47689 8.59233 17.0878
C 6.91324 1.06874 10.4255
H 19.6089 11.2957 19.0896
H 6.45836 5.25841 8.83135
H 15.0997 11.6693 5.46918
C 11.5406 9.13189 16.3388
H 11.2538 8.90372 15.3086
H 11.7376 10.1985 16.4142
Si 7.94129 8.59212 15.5456
O 8.25041 6.9357 15.2945
C 8.41779 9.80397 14.3037
H 9.33641 9.36481 13.9147
H 7.74471 9.78915 13.4556
H 8.52595 10.8395 14.6589
C 6.09369 8.47317 16.1332
H 4.04041 7.79969 14.0809
H 3.8213 2.16804 4.92089
H 5.29873 9.0498 15.8348
Si 8.44643 3.9917 13.7935
C 3.63098 4.40403 1.96303
H 5.29885 7.18564 17.7594
H 2.96043 3.68932 2.67429
C 1.33323 4.27136 11.7724
H 1.56391 4.52235 10.728
H 1.42824 3.18937 11.7937
H 21.3801 4.72868 11.8548
Si 19.1097 16.7462 12.908
O 19.6892 15.8278 14.3424
C 3.33828 14.6546 0.762846
H 4.57981 3.20365 8.13701
H 2.08832 13.3941 12.5228
H 15.9675 15.6557 6.10654
C 13.7033 16.4006 8.83297
H 14.0739 17.3838 8.85686
H 13.5274 16.0494 7.81411
H 14.2712 15.5449 9.22875
Si 21.3136 15.5307 14.2218
O 21.1829 13.8308 14.4306
C 4.87018 3.42411 18.3972
H 6.6919 6.4111 4.79829
H 19.0264 9.5294 2.27678
H 2.75287 10.5099 3.29827
C 1.53662 3.46181 16.9025
H 7.43469 12.9023 0.617566
H 8.63478 5.21897 13.0339
H 7.92661 16.0142 6.57306
Si 20.1426 12.86 13.8094
O 18.8775 12.5059 14.7984
C 2.46906 17.1334 7.56517
H 1.95195 12.3885 10.1261
H 21.1953 11.2544 4.42186
H 4.60677 7.83408 5.79315
C 11.4397 11.7571 3.84539
H 11.248 11.9737 2.82951
H 16.2205 18.4933 17.8314
H 11.207 12.617 4.45649
Si 17.4358 11.9643 14.4582
O 17.3177 10.2402 14.6652
C 12.431 8.344 17.2314
H 12.8262 8.89797 18.1251
H 12.2916 7.30816 17.4756
C 16.8107 12.7278 12.8719
H 15.8905 13.3354 13.0633
H 17.6311 13.4152 12.6747
H 16.613 12.1399 11.9733
Si 16.887 9.48907 16.0371
O 16.8248 7.65389 15.8808
C 7.67642 13.8629 4.19285
H 8.82484 14.2465 3.05749
H 15.9389 14.3709 15.2812
H 17.1425 12.7561 19.1044
C 18.2525 9.5607 17.2511
H 19.0774 8.82709 17.1566
H 18.7794 1.26176 10.1431
H 17.9058 9.48649 18.3538
Si 16.9262 6.19205 15.3509
C 12.1686 6.81559 14.6956
H 12.6549 7.6306 15.2048
H 12.831 6.33465 13.9548
H 11.2074 7.09163 14.1885
C 15.5571 9.11279 11.5529
H 15.2773 8.16185 11.0868
H 14.6619 9.59067 11.9714
H 16.0242 9.74128 10.7831
