ITEM: TIMESTEP
0
ITEM: NUMBER OF ATOMS
523
ITEM: BOX BOUNDS pp pp pp
0.0000000000000000e+00 2.2000000000000000e+01
0.0000000000000000e+00 1.9079962999999999e+01
0.0000000000000000e+00 2.0000000000000000e+01
ITEM: ATOMS id type x y z
1 4 4.125 17.0666 3.07771
2 3 4.125 15.4366 3.07771
3 1 5.88805 17.69 3.07771
4 2 5.88805 17.69 4.16771
5 2 6.20271 16.8 2.53271
6 2 5.5734 18.58 2.53271
7 1 2.36195 17.69 3.07771
8 2 2.36195 17.69 1.98771
9 2 2.04729 16.8 3.62271
10 2 2.6766 18.58 3.62271
11 4 4.125 13.8066 3.07771
12 3 4.125 12.1766 3.07771
13 1 5.37167 14.43 4.32437
14 2 4.60092 14.43 5.09512
15 2 5.97954 13.54 4.1615
16 2 5.53454 15.32 3.71651
17 1 2.87833 14.43 1.83104
18 2 3.64908 14.43 1.0603
19 2 2.27047 13.54 1.99392
20 2 2.71545 15.32 2.43891
21 4 4.125 10.5466 3.07771
22 3 4.125 8.91665 3.07771
23 1 4.125 11.17 4.84076
24 2 3.035 11.17 4.84076
25 2 4.67 10.28 5.15542
26 2 4.67 12.06 4.52611
27 1 4.125 11.17 1.31466
28 2 5.215 11.17 1.31466
29 2 3.58 10.28 1
30 2 3.58 12.06 1.62931
31 4 4.125 7.28665 3.07771
32 3 4.125 5.65665 3.07771
33 1 2.87833 7.90998 4.32437
34 2 2.10759 7.90998 3.55363
35 2 3.04121 7.02 4.93224
36 2 3.4862 8.79996 4.48725
37 1 5.37167 7.90998 1.83104
38 2 6.14241 7.90998 2.60179
39 2 5.20879 7.02 1.22317
40 2 4.7638 8.79996 1.66816
41 4 4.125 4.02665 3.07771
42 3 4.125 2.39665 3.07771
43 1 2.36195 4.64998 3.07771
44 2 2.36195 4.64998 1.98771
45 2 2.04729 3.76 3.62271
46 2 2.6766 5.53996 3.62271
47 1 5.88805 4.64998 3.07771
48 2 5.88805 4.64998 4.16771
49 2 6.20271 3.76 2.53271
50 2 5.5734 5.53996 2.53271
51 4 4.125 0.766648 3.07771
52 1 2.87833 1.38998 1.83104
53 2 3.64908 1.38998 1.0603
54 2 2.27047 0.5 1.99392
55 2 2.71545 2.27996 2.43891
56 1 5.37167 1.38998 4.32437
57 2 4.60092 1.38998 5.09512
58 2 5.97954 0.5 4.1615
59 2 5.53454 2.27996 3.71651
60 4 9.625 17.0666 3.07771
61 3 9.625 15.4366 3.07771
62 1 11.3881 17.69 3.07771
63 2 11.3881 17.69 4.16771
64 2 11.7027 16.8 2.53271
65 2 11.0734 18.58 2.53271
66 1 7.86195 17.69 3.07771
67 2 7.86195 17.69 1.98771
68 2 7.54729 16.8 3.62271
69 2 8.1766 18.58 3.62271
70 4 9.625 13.8066 3.07771
71 3 9.625 12.1766 3.07771
72 1 10.8717 14.43 4.32437
73 2 10.1009 14.43 5.09512
74 2 11.4795 13.54 4.1615
75 2 11.0345 15.32 3.71651
76 1 8.37833 14.43 1.83104
77 2 9.14908 14.43 1.0603
78 2 7.77046 13.54 1.99392
79 2 8.21546 15.32 2.43891
80 4 9.625 10.5466 3.07771
81 3 9.625 8.91665 3.07771
82 1 9.625 11.17 4.84076
83 2 8.535 11.17 4.84076
84 2 10.17 10.28 5.15542
85 2 10.17 12.06 4.52611
86 1 9.625 11.17 1.31466
87 2 10.715 11.17 1.31466
88 2 9.08 10.28 1
89 2 9.08 12.06 1.62931
90 4 9.625 7.28665 3.07771
91 3 9.625 5.65665 3.07771
92 1 8.37833 7.90998 4.32437
93 2 7.60759 7.90998 3.55363
94 2 8.54121 7.02 4.93224
95 2 8.9862 8.79996 4.48725
96 1 11.7823 7.90998 2.58619
97 2 11.6194 7.02 1.97832
98 2 11.1744 8.79996 2.42331
99 4 9.625 4.02665 3.07771
100 3 9.625 2.39665 3.07771
101 1 7.86195 4.64998 3.07771
102 2 7.86195 4.64998 1.98771
103 2 7.54729 3.76 3.62271
104 2 8.1766 5.53996 3.62271
105 1 11.3881 4.64998 3.07771
106 2 11.3881 4.64998 4.16771
107 2 11.7027 3.76 2.53271
108 2 11.0734 5.53996 2.53271
109 4 9.625 0.766648 3.07771
110 1 8.37833 1.38998 1.83104
111 2 9.14908 1.38998 1.0603
112 2 7.77046 0.5 1.99392
113 2 8.21546 2.27996 2.43891
114 1 10.8717 1.38998 4.32437
115 2 10.1009 1.38998 5.09512
116 2 11.4795 0.5 4.1615
117 2 11.0345 2.27996 3.71651
118 4 15.125 17.0666 3.07771
119 3 15.125 15.4366 3.07771
120 1 16.8881 17.69 3.07771
121 2 16.8881 17.69 4.16771
122 2 17.2027 16.8 2.53271
123 2 16.5734 18.58 2.53271
124 1 13.3619 17.69 3.07771
125 2 13.3619 17.69 1.98771
126 2 13.0473 16.8 3.62271
127 2 13.6766 18.58 3.62271
128 4 15.125 13.8066 3.07771
129 3 15.125 12.1766 3.07771
130 1 16.3717 14.43 4.32437
131 2 15.6009 14.43 5.09512
132 2 16.9795 13.54 4.1615
133 2 16.5345 15.32 3.71651
134 1 13.8783 14.43 1.83104
135 2 14.6491 14.43 1.0603
136 2 13.2705 13.54 1.99392
137 2 13.7155 15.32 2.43891
138 4 15.125 10.5466 3.07771
139 3 15.125 8.91665 3.07771
140 1 15.125 11.17 4.84076
141 2 14.035 11.17 4.84076
142 2 15.67 10.28 5.15542
143 2 15.67 12.06 4.52611
144 1 15.125 11.17 1.31466
145 2 16.215 11.17 1.31466
146 2 14.58 10.28 1
147 2 14.58 12.06 1.62931
148 4 15.125 7.28665 3.07771
149 3 15.125 5.65665 3.07771
150 1 12.9677 7.90998 3.56923
151 2 13.1306 7.02 4.1771
152 2 13.5756 8.79996 3.7321
153 1 16.3717 7.90998 1.83104
154 2 17.1424 7.90998 2.60179
155 2 16.2088 7.02 1.22317
156 2 15.7638 8.79996 1.66816
157 4 15.125 4.02665 3.07771
158 3 15.125 2.39665 3.07771
159 1 13.3619 4.64998 3.07771
160 2 13.3619 4.64998 1.98771
161 2 13.0473 3.76 3.62271
162 2 13.6766 5.53996 3.62271
163 1 16.8881 4.64998 3.07771
164 2 16.8881 4.64998 4.16771
165 2 17.2027 3.76 2.53271
166 2 16.5734 5.53996 2.53271
167 4 15.125 0.766648 3.07771
168 1 13.8783 1.38998 1.83104
169 2 14.6491 1.38998 1.0603
170 2 13.2705 0.5 1.99392
171 2 13.7155 2.27996 2.43891
172 1 16.3717 1.38998 4.32437
173 2 15.6009 1.38998 5.09512
174 2 16.9795 0.5 4.1615
175 2 16.5345 2.27996 3.71651
176 4 6.875 17.0666 7.84085
177 3 6.875 15.4366 7.84085
178 1 8.63805 17.69 7.84085
179 2 8.63805 17.69 8.93085
180 2 8.95271 16.8 7.29585
181 2 8.3234 18.58 7.29585
182 1 5.11195 17.69 7.84085
183 2 5.11195 17.69 6.75085
184 2 4.79729 16.8 8.38585
185 2 5.4266 18.58 8.38585
186 4 6.875 13.8066 7.84085
187 3 6.875 12.1766 7.84085
188 1 8.12167 14.43 9.08751
189 2 7.35092 14.43 9.85826
190 2 8.72954 13.54 8.92464
191 2 8.28454 15.32 8.47965
192 1 5.62833 14.43 6.59418
193 2 6.39908 14.43 5.82343
194 2 5.02046 13.54 6.75706
195 2 5.46546 15.32 7.20205
196 4 6.875 10.5466 7.84085
197 3 6.875 8.91665 7.84085
198 1 6.875 11.17 9.6039
199 2 5.785 11.17 9.6039
200 2 7.42 10.28 9.91856
201 2 7.42 12.06 9.28925
202 1 6.875 11.17 6.0778
203 2 7.965 11.17 6.0778
204 2 6.33 10.28 5.76314
205 2 6.33 12.06 6.39245
206 4 6.875 7.28665 7.84085
207 3 6.875 5.65665 7.84085
208 1 5.62833 7.90998 9.08751
209 2 4.85759 7.90998 8.31677
210 2 5.79121 7.02 9.69538
211 2 6.2362 8.79996 9.25039
212 1 8.12167 7.90998 6.59418
213 2 8.89241 7.90998 7.36493
214 2 7.95879 7.02 5.98631
215 2 7.5138 8.79996 6.4313
216 4 6.875 4.02665 7.84085
217 3 6.875 2.39665 7.84085
218 1 5.11195 4.64998 7.84085
219 2 5.11195 4.64998 6.75085
220 2 4.79729 3.76 8.38585
221 2 5.4266 5.53996 8.38585
222 1 8.63805 4.64998 7.84085
223 2 8.63805 4.64998 8.93085
224 2 8.95271 3.76 7.29585
225 2 8.3234 5.53996 7.29585
226 4 6.875 0.766648 7.84085
227 1 5.62833 1.38998 6.59418
228 2 6.39908 1.38998 5.82343
229 2 5.02046 0.5 6.75706
230 2 5.46546 2.27996 7.20205
231 1 9.03229 1.38998 8.33237
232 2 9.64016 0.5 8.16949
233 2 9.19516 2.27996 7.7245
234 4 12.375 17.0666 7.84085
235 3 12.375 15.4366 7.84085
236 1 14.1381 17.69 7.84085
237 2 14.1381 17.69 8.93085
238 2 14.4527 16.8 7.29585
239 2 13.8234 18.58 7.29585
240 1 10.6119 17.69 7.84085
241 2 10.6119 17.69 6.75085
242 2 10.2973 16.8 8.38585
243 2 10.9266 18.58 8.38585
244 4 12.375 13.8066 7.84085
245 3 12.375 12.1766 7.84085
246 1 13.6217 14.43 9.08751
247 2 12.8509 14.43 9.85826
248 2 14.2295 13.54 8.92464
249 2 13.7845 15.32 8.47965
250 1 11.1283 14.43 6.59418
251 2 11.8991 14.43 5.82343
252 2 10.5205 13.54 6.75706
253 2 10.9655 15.32 7.20205
254 4 12.375 10.5466 7.84085
255 3 12.375 8.91665 7.84085
256 1 12.375 11.17 9.6039
257 2 11.285 11.17 9.6039
258 2 12.92 10.28 9.91856
259 2 12.92 12.06 9.28925
260 1 12.375 11.17 6.0778
261 2 13.465 11.17 6.0778
262 2 11.83 10.28 5.76314
263 2 11.83 12.06 6.39245
264 4 12.375 7.28665 7.84085
265 3 12.375 5.65665 7.84085
266 1 11.1283 7.90998 9.08751
267 2 10.3576 7.90998 8.31677
268 2 11.2912 7.02 9.69538
269 2 11.7362 8.79996 9.25039
270 1 13.6217 7.90998 6.59418
271 2 14.3924 7.90998 7.36493
272 2 13.4588 7.02 5.98631
273 2 13.0138 8.79996 6.4313
274 4 12.375 4.02665 7.84085
275 3 12.375 2.39665 7.84085
276 1 10.6119 4.64998 7.84085
277 2 10.6119 4.64998 6.75085
278 2 10.2973 3.76 8.38585
279 2 10.9266 5.53996 8.38585
280 1 14.1381 4.64998 7.84085
281 2 14.1381 4.64998 8.93085
282 2 14.4527 3.76 7.29585
283 2 13.8234 5.53996 7.29585
284 4 12.375 0.766648 7.84085
285 1 10.2177 1.38998 7.34933
286 2 9.60984 0.5 7.51221
287 2 10.0548 2.27996 7.9572
288 1 13.6217 1.38998 9.08751
289 2 12.8509 1.38998 9.85826
290 2 14.2295 0.5 8.92464
291 2 13.7845 2.27996 8.47965
292 4 17.875 17.0666 7.84085
293 3 17.875 15.4366 7.84085
294 1 19.6381 17.69 7.84085
295 2 19.6381 17.69 8.93085
296 2 19.9527 16.8 7.29585
297 2 19.3234 18.58 7.29585
298 1 16.1119 17.69 7.84085
299 2 16.1119 17.69 6.75085
300 2 15.7973 16.8 8.38585
301 2 16.4266 18.58 8.38585
302 4 17.875 13.8066 7.84085
303 3 17.875 12.1766 7.84085
304 1 19.1217 14.43 9.08751
305 2 18.3509 14.43 9.85826
306 2 19.7295 13.54 8.92464
307 2 19.2845 15.32 8.47965
308 1 16.6283 14.43 6.59418
309 2 17.3991 14.43 5.82343
310 2 16.0205 13.54 6.75706
311 2 16.4655 15.32 7.20205
312 4 17.875 10.5466 7.84085
313 3 17.875 8.91665 7.84085
314 1 17.875 11.17 9.6039
315 2 16.785 11.17 9.6039
316 2 18.42 10.28 9.91856
317 2 18.42 12.06 9.28925
318 1 17.875 11.17 6.0778
319 2 18.965 11.17 6.0778
320 2 17.33 10.28 5.76314
321 2 17.33 12.06 6.39245
322 4 17.875 7.28665 7.84085
323 3 17.875 5.65665 7.84085
324 1 16.6283 7.90998 9.08751
325 2 15.8576 7.90998 8.31677
326 2 16.7912 7.02 9.69538
327 2 17.2362 8.79996 9.25039
328 1 19.1217 7.90998 6.59418
329 2 19.8924 7.90998 7.36493
330 2 18.9588 7.02 5.98631
331 2 18.5138 8.79996 6.4313
332 4 17.875 4.02665 7.84085
333 3 17.875 2.39665 7.84085
334 1 16.1119 4.64998 7.84085
335 2 16.1119 4.64998 6.75085
336 2 15.7973 3.76 8.38585
337 2 16.4266 5.53996 8.38585
338 1 19.6381 4.64998 7.84085
339 2 19.6381 4.64998 8.93085
340 2 19.9527 3.76 7.29585
341 2 19.3234 5.53996 7.29585
342 4 17.875 0.766648 7.84085
343 1 16.6283 1.38998 6.59418
344 2 17.3991 1.38998 5.82343
345 2 16.0205 0.5 6.75706
346 2 16.4655 2.27996 7.20205
347 1 19.1217 1.38998 9.08751
348 2 18.3509 1.38998 9.85826
349 2 19.7295 0.5 8.92464
350 2 19.2845 2.27996 8.47965
351 4 4.125 17.0666 12.604
352 3 4.125 15.4366 12.604
353 1 5.88805 17.69 12.604
354 2 5.88805 17.69 13.694
355 2 6.20271 16.8 12.059
356 2 5.5734 18.58 12.059
357 1 2.36195 17.69 12.604
358 2 2.36195 17.69 11.514
359 2 2.04729 16.8 13.149
360 2 2.6766 18.58 13.149
361 4 4.125 13.8066 12.604
362 3 4.125 12.1766 12.604
363 1 5.37167 14.43 13.8507
364 2 4.60092 14.43 14.6214
365 2 5.97954 13.54 13.6878
366 2 5.53454 15.32 13.2428
367 1 2.87833 14.43 11.3573
368 2 3.64908 14.43 10.5866
369 2 2.27047 13.54 11.5202
370 2 2.71545 15.32 11.9652
371 4 4.125 10.5466 12.604
372 3 4.125 8.91665 12.604
373 1 4.125 11.17 14.367
374 2 3.035 11.17 14.367
375 2 4.67 10.28 14.6817
376 2 4.67 12.06 14.0524
377 1 4.125 11.17 10.8409
378 2 5.215 11.17 10.8409
379 2 3.58 10.28 10.5263
380 2 3.58 12.06 11.1556
381 4 4.125 7.28665 12.604
382 3 4.125 5.65665 12.604
383 1 2.87833 7.90998 13.8507
384 2 2.10759 7.90998 13.0799
385 2 3.04121 7.02 14.4585
386 2 3.4862 8.79996 14.0135
387 1 5.37167 7.90998 11.3573
388 2 6.14241 7.90998 12.1281
389 2 5.20879 7.02 10.7495
390 2 4.7638 8.79996 11.1944
391 4 4.125 4.02665 12.604
392 3 4.125 2.39665 12.604
393 1 2.36195 4.64998 12.604
394 2 2.36195 4.64998 11.514
395 2 2.04729 3.76 13.149
396 2 2.6766 5.53996 13.149
397 1 5.88805 4.64998 12.604
398 2 5.88805 4.64998 13.694
399 2 6.20271 3.76 12.059
400 2 5.5734 5.53996 12.059
401 4 4.125 0.766648 12.604
402 1 2.87833 1.38998 11.3573
403 2 3.64908 1.38998 10.5866
404 2 2.27047 0.5 11.5202
405 2 2.71545 2.27996 11.9652
406 1 6.28229 1.38998 13.0955
407 2 6.89016 0.5 12.9326
408 2 6.44516 2.27996 12.4876
409 4 9.625 17.0666 12.604
410 3 9.625 15.4366 12.604
411 1 11.3881 17.69 12.604
412 2 11.3881 17.69 13.694
413 2 11.7027 16.8 12.059
414 2 11.0734 18.58 12.059
415 1 7.86195 17.69 12.604
416 2 7.86195 17.69 11.514
417 2 7.54729 16.8 13.149
418 2 8.1766 18.58 13.149
419 4 9.625 13.8066 12.604
420 3 9.625 12.1766 12.604
421 1 10.8717 14.43 13.8507
422 2 10.1009 14.43 14.6214
423 2 11.4795 13.54 13.6878
424 2 11.0345 15.32 13.2428
425 1 8.37833 14.43 11.3573
426 2 9.14908 14.43 10.5866
427 2 7.77046 13.54 11.5202
428 2 8.21546 15.32 11.9652
429 4 9.625 10.5466 12.604
430 3 9.625 8.91665 12.604
431 1 9.625 11.17 14.367
432 2 8.535 11.17 14.367
433 2 10.17 10.28 14.6817
434 2 10.17 12.06 14.0524
435 1 9.625 11.17 10.8409
436 2 10.715 11.17 10.8409
437 2 9.08 10.28 10.5263
438 2 9.08 12.06 11.1556
439 4 9.625 7.28665 12.604
440 3 9.625 5.65665 12.604
441 1 8.37833 7.90998 13.8507
442 2 7.60759 7.90998 13.0799
443 2 8.54121 7.02 14.4585
444 2 8.9862 8.79996 14.0135
445 1 11.7823 7.90998 12.1125
446 2 11.6194 7.02 11.5046
447 2 11.1744 8.79996 11.9496
448 4 9.625 4.02665 12.604
449 3 9.625 2.39665 12.604
450 1 7.86195 4.64998 12.604
451 2 7.86195 4.64998 11.514
452 2 7.54729 3.76 13.149
453 2 8.1766 5.53996 13.149
454 1 11.3881 4.64998 12.604
455 2 11.3881 4.64998 13.694
456 2 11.7027 3.76 12.059
457 2 11.0734 5.53996 12.059
458 4 9.625 0.766648 12.604
459 1 7.46771 1.38998 12.1125
460 2 6.85984 0.5 12.2753
461 2 7.30484 2.27996 12.7203
462 1 10.8717 1.38998 13.8507
463 2 10.1009 1.38998 14.6214
464 2 11.4795 0.5 13.6878
465 2 11.0345 2.27996 13.2428
466 4 15.125 17.0666 12.604
467 3 15.125 15.4366 12.604
468 1 16.8881 17.69 12.604
469 2 16.8881 17.69 13.694
470 2 17.2027 16.8 12.059
471 2 16.5734 18.58 12.059
472 1 13.3619 17.69 12.604
473 2 13.3619 17.69 11.514
474 2 13.0473 16.8 13.149
475 2 13.6766 18.58 13.149
476 4 15.125 13.8066 12.604
477 3 15.125 12.1766 12.604
478 1 16.3717 14.43 13.8507
479 2 15.6009 14.43 14.6214
480 2 16.9795 13.54 13.6878
481 2 16.5345 15.32 13.2428
482 1 13.8783 14.43 11.3573
483 2 14.6491 14.43 10.5866
484 2 13.2705 13.54 11.5202
485 2 13.7155 15.32 11.9652
486 4 15.125 10.5466 12.604
487 3 15.125 8.91665 12.604
488 1 15.125 11.17 14.367
489 2 14.035 11.17 14.367
490 2 15.67 10.28 14.6817
491 2 15.67 12.06 14.0524
492 1 15.125 11.17 10.8409
493 2 16.215 11.17 10.8409
494 2 14.58 10.28 10.5263
495 2 14.58 12.06 11.1556
496 4 15.125 7.28665 12.604
497 3 15.125 5.65665 12.604
498 1 12.9677 7.90998 13.0955
499 2 13.1306 7.02 13.7034
500 2 13.5756 8.79996 13.2584
501 1 16.3717 7.90998 11.3573
502 2 17.1424 7.90998 12.1281
503 2 16.2088 7.02 10.7495
504 2 15.7638 8.79996 11.1944
505 4 15.125 4.02665 12.604
506 3 15.125 2.39665 12.604
507 1 13.3619 4.64998 12.604
508 2 13.3619 4.64998 11.514
509 2 13.0473 3.76 13.149
510 2 13.6766 5.53996 13.149
511 1 16.8881 4.64998 12.604
512 2 16.8881 4.64998 13.694
513 2 17.2027 3.76 12.059
514 2 16.5734 5.53996 12.059
515 4 15.125 0.766648 12.604
516 1 13.8783 1.38998 11.3573
517 2 14.6491 1.38998 10.5866
518 2 13.2705 0.5 11.5202
519 2 13.7155 2.27996 11.9652
520 1 16.3717 1.38998 13.8507
521 2 15.6009 1.38998 14.6214
522 2 16.9795 0.5 13.6878
523 2 16.5345 2.27996 13.2428
ITEM: TIMESTEP
72
ITEM: NUMBER OF ATOMS
523
ITEM: BOX BOUNDS pp pp pp
0.0000000000000000e+00 2.2000000000000000e+01
0.0000000000000000e+00 1.9079962999999999e+01
0.0000000000000000e+00 2.0000000000000000e+01
ITEM: ATOMS id type x y z
1 4 3.05207 16.5062 3.89023
2 3 2.73389 14.9072 3.69343
3 1 4.48848 17.1331 2.79753
4 2 5.36348 17.4381 3.38846
5 2 4.81363 16.3926 2.04711
6 2 4.15156 18.0293 2.24352
7 1 1.50097 17.4985 3.52107
8 2 1.30513 17.4792 2.43207
9 2 0.641344 17.1019 4.04893
10 2 1.63195 18.5569 3.81606
11 4 3.34218 13.7797 2.59377
12 3 2.67684 12.271 2.85077
13 1 5.19377 13.7746 2.9316
14 2 5.36288 13.5508 3.9902
15 2 5.76965 13.0493 2.34605
16 2 5.63727 14.7619 2.75431
17 1 2.85349 14.3358 0.869532
18 2 3.71318 14.5209 0.214108
19 2 2.22046 13.567 0.40506
20 2 2.27025 15.2643 0.941059
21 4 3.60103 10.8741 2.73604
22 3 2.7764 9.433 2.50126
23 1 4.38075 10.7806 4.44265
24 2 3.5557 10.6434 5.15571
25 2 5.1008 9.96708 4.58222
26 2 4.88348 11.715 4.70725
27 1 4.66689 11.0903 1.19038
28 2 5.74664 11.0417 1.38129
29 2 4.40119 10.3093 0.469188
30 2 4.44649 12.0544 0.715733
31 4 3.49288 7.96062 2.84411
32 3 2.85274 6.61325 2.07791
33 1 3.17557 7.68478 4.67812
34 2 2.08688 7.63888 4.82693
35 2 3.61171 6.75467 5.05763
36 2 3.55245 8.50152 5.30139
37 1 5.2855 8.00526 2.23327
38 2 6.03146 8.23299 3.00923
39 2 5.54473 7.03309 1.79229
40 2 5.40269 8.75072 1.43986
41 4 3.10787 5.08871 2.70166
42 3 3.29803 3.90272 1.51302
43 1 1.58391 4.59451 3.67413
44 2 0.753469 4.51382 2.95534
45 2 1.70565 3.61916 4.16675
46 2 1.30534 5.32777 4.44402
47 1 4.7404 5.02929 3.62547
48 2 4.63509 4.72691 4.67272
49 2 5.3929 4.29844 3.14306
50 2 5.27563 5.98352 3.61417
51 4 3.91203 2.37515 1.64375
52 1 2.59528 1.17392 0.923122
53 2 2.5386 1.21473 19.9144
54 2 2.86766 0.115135 1.26362
55 2 1.60613 1.43294 1.42661
56 1 4.50486 1.80804 3.32778
57 2 3.70169 1.9437 4.06915
58 2 4.721 0.727225 3.29324
59 2 5.38758 2.3518 3.67615
60 4 9.37238 16.3884 3.57862
61 3 8.54546 15.0153 3.08588
62 1 10.7429 17.135 2.45956
63 2 11.4524 17.7024 3.07758
64 2 11.3116 16.3929 1.87706
65 2 10.2961 17.8546 1.75719
66 1 8.03729 17.7082 3.78697
67 2 7.56823 17.8179 2.79427
68 2 7.25332 17.3975 4.50486
69 2 8.43136 18.6894 4.0836
70 4 9.05946 13.6953 2.16463
71 3 8.49934 12.1194 2.482
72 1 10.8666 13.7316 2.68574
73 2 10.8508 13.7191 3.78529
74 2 11.4772 12.8886 2.35625
75 2 11.377 14.6448 2.38755
76 1 8.31933 14.0285 0.447529
77 2 8.82819 14.5677 19.6554
78 2 7.84689 13.0818 0.168632
79 2 7.5101 14.7101 0.658941
80 4 9.60206 10.8415 2.28566
81 3 9.1943 9.23698 2.01786
82 1 10.3242 10.774 4.00255
83 2 9.48852 10.4626 4.64927
84 2 11.1224 10.0416 4.14913
85 2 10.6636 11.7438 4.37253
86 1 10.5738 11.2342 0.721146
87 2 11.653 11.3388 0.8638
88 2 10.4134 10.4164 0.0101749
89 2 10.1998 12.156 0.253183
90 4 10.1324 7.89909 2.467
91 3 9.67951 6.50211 1.64194
92 1 9.50714 7.59486 4.21258
93 2 8.41555 7.48834 4.09627
94 2 9.89964 6.69541 4.6921
95 2 9.67881 8.43281 4.89319
96 1 12.0199 8.0709 1.9807
97 2 12.1566 7.1779 1.35089
98 2 12.0044 8.91359 1.2708
99 4 9.71379 4.98555 2.32609
100 3 9.9586 3.74646 1.2142
101 1 8.07147 4.57136 3.12455
102 2 7.33757 4.32159 2.35018
103 2 8.17552 3.71132 3.79987
104 2 7.65881 5.39173 3.72238
105 1 11.145 4.88948 3.50254
106 2 10.8548 4.60692 4.51907
107 2 11.8517 4.14125 3.14638
108 2 11.6897 5.83631 3.5766
109 4 9.91474 2.12626 1.56262
110 1 8.25535 1.42812 1.08309
111 2 8.14999 1.32011 0.00334096
112 2 8.11469 0.447621 1.56223
113 2 7.45087 2.09552 1.4201
114 1 10.3715 1.73174 3.35208
115 2 9.6201 2.11562 4.0598
116 2 10.346 0.638403 3.49163
117 2 11.3558 2.1042 3.6727
118 4 16.3073 16.1822 2.60809
119 3 16.4613 15.1998 1.26237
120 1 17.7756 17.306 2.69291
121 2 18.0119 17.6534 3.71676
122 2 18.6587 16.8109 2.25908
123 2 17.5553 18.203 2.0824
124 1 14.6575 17.0301 2.92046
125 2 14.1691 17.3946 1.99891
126 2 13.9543 16.3671 3.43961
127 2 14.8018 17.9036 3.57686
128 4 15.8316 13.87 2.03852
129 3 16.5162 12.3797 1.81893
130 1 16.3299 14.6353 3.90381
131 2 15.4465 14.5916 4.54959
132 2 16.9226 13.7068 4.00207
133 2 17.064 15.2778 4.4485
134 1 14.0001 13.941 1.79157
135 2 13.8059 13.8883 0.716319
136 2 13.454 13.1376 2.28571
137 2 13.5976 14.8857 2.15941
138 4 15.5214 11.0489 2.24931
139 3 16.0338 9.46978 2.50021
140 1 15.0682 11.5588 3.96945
141 2 14.1931 12.1986 4.07083
142 2 14.8852 10.6283 4.50944
143 2 15.9187 12.0181 4.48342
144 1 14.36 10.8347 0.798665
145 2 15.0145 10.625 19.9414
146 2 13.7071 9.96449 0.936842
147 2 13.747 11.7039 0.556092
148 4 15.1465 8.04307 2.36572
149 3 15.8686 6.86773 3.32044
150 1 13.2684 8.1987 2.92197
151 2 13.1889 7.42904 3.70636
152 2 13.2018 9.16056 3.45999
153 1 15.6492 7.40196 0.690542
154 2 16.7386 7.2908 0.827691
155 2 15.2277 6.42782 0.418773
156 2 15.4854 8.11639 19.8809
157 4 16.0906 5.20724 2.96415
158 3 16.1757 3.82864 1.64546
159 1 14.4003 4.53693 3.388
160 2 13.9237 4.39585 2.39709
161 2 14.3883 3.58135 3.92084
162 2 13.7629 5.23682 3.93734
163 1 17.9145 4.97823 3.31056
164 2 18.2574 5.11404 4.3397
165 2 18.1565 3.96773 2.94901
166 2 18.4695 5.7056 2.69423
167 4 15.6179 2.33216 2.07949
168 1 14.0309 1.56815 1.482
169 2 14.0356 1.29474 0.43323
170 2 13.8947 0.644108 2.07751
171 2 13.1645 2.20674 1.65268
172 1 16.1052 1.63494 3.75453
173 2 15.3463 1.89706 4.51569
174 2 16.1424 0.524759 3.67844
175 2 17.0844 1.99707 4.1114
176 4 5.66511 16.7667 8.99661
177 3 5.36955 15.0897 9.19618
178 1 7.2158 17.161 7.92671
179 2 8.12737 17.2091 8.52709
180 2 7.37903 16.4255 7.13066
181 2 7.0895 18.1467 7.47414
182 1 4.09838 17.4991 8.21869
183 2 4.21786 17.6196 7.13123
184 2 3.25918 16.8217 8.40243
185 2 3.85514 18.4775 8.63818
186 4 5.97391 13.8849 8.19079
187 3 5.45604 12.3216 8.55702
188 1 7.77844 13.9144 8.62827
189 2 7.84396 13.7909 9.71204
190 2 8.37126 13.1187 8.17747
191 2 8.22896 14.8783 8.38375
192 1 5.44758 14.4108 6.45291
193 2 6.28613 14.6929 5.79558
194 2 4.86753 13.6263 5.94651
195 2 4.78593 15.2892 6.51211
196 4 6.52902 11.0076 8.43639
197 3 5.90934 9.45298 8.63678
198 1 7.57723 10.9531 9.97086
199 2 6.91551 10.5482 10.747
200 2 8.39022 10.2267 9.86088
201 2 7.9829 11.8963 10.3363
202 1 7.29743 11.2795 6.7156
203 2 8.38227 11.4426 6.74066
204 2 7.11702 10.4519 6.02452
205 2 6.84806 12.1614 6.23459
206 4 5.78845 7.84324 8.19139
207 3 6.34596 6.39292 8.98299
208 1 3.94068 7.69437 8.57468
209 2 3.20984 7.81892 7.77198
210 2 3.76392 6.74717 9.09237
211 2 3.76539 8.49066 9.3125
212 1 7.10539 7.85703 6.85524
213 2 8.0015 8.03219 7.48877
214 2 7.31238 6.93445 6.31947
215 2 7.06931 8.6722 6.13431
216 4 6.19446 4.93281 8.17325
217 3 6.48868 3.61925 9.23604
218 1 4.44799 4.64327 7.53644
219 2 4.41996 4.59358 6.43982
220 2 4.08254 3.68479 7.91304
221 2 3.72581 5.41191 7.82155
222 1 7.44388 4.5321 6.82142
223 2 8.45832 4.45077 7.24045
224 2 7.1691 3.57256 6.3678
225 2 7.49989 5.22264 5.97214
226 4 6.8491 2.09408 8.69389
227 1 5.91133 1.49747 7.18273
228 2 6.63607 1.35413 6.3668
229 2 5.45319 0.517047 7.33484
230 2 5.13984 2.18939 6.83665
231 1 8.5048 1.56586 8.91601
232 2 8.75857 0.520571 8.85727
233 2 9.21667 2.213 9.45096
234 4 12.6398 16.5136 6.74866
235 3 12.9071 14.848 6.64041
236 1 14.1752 17.5031 6.96463
237 2 14.329 17.5836 8.05945
238 2 15.0597 17.0153 6.5547
239 2 14.0931 18.5341 6.56938
240 1 11.3567 17.1782 7.99211
241 2 10.3895 17.4688 7.56506
242 2 11.1984 16.4739 8.81435
243 2 11.8051 18.1093 8.38471
244 4 11.8479 13.8991 7.6555
245 3 11.5363 12.2743 7.59961
246 1 12.8043 14.1712 9.27556
247 2 12.2751 14.4627 10.1909
248 2 13.3287 13.2273 9.48731
249 2 13.6152 14.8943 9.09081
250 1 10.2524 14.5405 6.90406
251 2 10.4945 14.7623 5.85209
252 2 9.52845 13.7225 6.87764
253 2 9.79733 15.4164 7.35539
254 4 12.1344 10.6993 7.37109
255 3 11.2135 9.33036 7.16128
256 1 13.2476 10.4147 8.84902
257 2 12.6129 10.2245 9.72038
258 2 13.952 9.57852 8.75086
259 2 13.8454 11.3072 9.08474
260 1 13.0198 11.0441 5.80731
261 2 14.0334 11.3983 6.04689
262 2 13.0749 10.168 5.14713
263 2 12.5268 11.8546 5.25228
264 4 11.965 7.80054 7.47185
265 3 11.4602 6.34573 6.78654
266 1 11.573 7.52324 9.28277
267 2 10.5185 7.20128 9.34153
268 2 12.1832 6.73738 9.75871
269 2 11.6662 8.4274 9.89613
270 1 13.7326 7.93324 6.85111
271 2 14.4751 7.9326 7.65589
272 2 13.9671 7.09197 6.18961
273 2 13.9115 8.84239 6.27137
274 4 12.0485 4.90607 7.50014
275 3 12.0856 3.66424 6.37139
276 1 10.8895 4.32209 8.84681
277 2 10.0515 3.75685 8.43023
278 2 11.4111 3.6382 9.53137
279 2 10.4753 5.11714 9.47873
280 1 13.7903 5.00613 8.18418
281 2 13.7831 4.86761 9.2693
282 2 14.382 4.19167 7.76244
283 2 14.3363 5.92515 7.97998
284 4 11.9731 2.0657 6.89401
285 1 10.2993 1.50574 6.86315
286 2 10.1079 0.430576 6.90959
287 2 9.54803 2.06697 6.34018
288 1 13.0345 1.66905 8.41311
289 2 12.3556 1.63223 9.27956
290 2 13.5335 0.695406 8.32638
291 2 13.802 2.42871 8.60119
292 4 19.1006 16.6233 7.0219
293 3 19.519 15.0303 7.12136
294 1 20.6156 17.6568 7.43362
295 2 20.8334 17.584 8.51325
296 2 21.4964 17.3055 6.8786
297 2 20.4215 18.7281 7.27135
298 1 17.6479 17.1222 8.13599
299 2 16.793 17.4997 7.56125
300 2 17.2818 16.3016 8.75894
301 2 17.9581 17.9547 8.79029
302 4 18.896 13.8186 8.11673
303 3 19.6396 12.3549 7.8257
304 1 19.2327 14.3368 9.89388
305 2 18.3183 14.4342 10.4991
306 2 19.89 13.5963 10.3707
307 2 19.7693 15.2991 9.90699
308 1 17.0706 13.785 7.63224
309 2 16.9907 13.6899 6.5403
310 2 16.4991 12.9727 8.09513
311 2 16.5759 14.7253 7.90173
312 4 18.7935 10.9083 7.97453
313 3 19.6039 9.45086 8.14013
314 1 17.8638 11.1039 9.60523
315 2 16.8228 11.4359 9.51532
316 2 17.8736 10.161 10.1648
317 2 18.3902 11.8407 10.2259
318 1 17.9369 10.8276 6.29291
319 2 18.736 10.7097 5.54651
320 2 17.2229 10.0078 6.16079
321 2 17.4139 11.7589 6.05718
322 4 18.822 8.00476 7.75909
323 3 19.2803 6.63515 8.60254
324 1 17.0103 8.18792 8.17986
325 2 16.4176 8.47535 7.30791
326 2 16.612 7.24648 8.57344
327 2 16.8514 8.93862 8.95513
328 1 19.1841 7.65213 5.95129
329 2 20.268 7.56095 5.79834
330 2 18.699 6.72908 5.61198
331 2 18.8196 8.4593 5.30835
332 4 19.0241 5.06795 8.06536
333 3 18.8117 3.99066 9.32835
334 1 17.3949 4.98099 7.099
335 2 17.4891 4.47179 6.12849
336 2 16.6654 4.42164 7.69689
337 2 16.9556 5.96845 6.91915
338 1 20.5394 4.54847 7.11317
339 2 21.354 4.47225 7.8489
340 2 20.4425 3.55172 6.65393
341 2 20.8303 5.27296 6.34109
342 4 18.0253 2.49087 9.40225
343 1 17.4901 1.80743 7.66663
344 2 18.2667 1.90462 6.90187
345 2 17.2547 0.742228 7.70288
346 2 16.5775 2.28446 7.28766
347 1 19.3288 1.25122 10.0347
348 2 19.4495 1.30165 11.1221
349 2 19.0489 0.222626 9.87282
350 2 20.3045 1.4328 9.57662
351 4 2.7545 16.3795 13.0265
352 3 2.38256 15.0197 13.8743
353 1 4.47438 17.016 12.6847
354 2 5.0677 17.2076 13.6042
355 2 5.04352 16.3455 12.0203
356 2 4.37505 17.9766 12.146
357 1 1.34605 17.541 12.7491
358 2 1.15956 17.7548 11.6818
359 2 0.450718 17.1166 13.214
360 2 1.58162 18.5029 13.2346
361 4 3.12038 13.7462 13.0007
362 3 2.51557 12.2152 13.2108
363 1 4.85608 13.8722 13.6491
364 2 4.85354 13.778 14.7404
365 2 5.49964 13.0933 13.2355
366 2 5.29918 14.8346 13.3897
367 1 2.90742 14.3714 11.2156
368 2 3.86177 14.5158 10.6857
369 2 2.31382 13.6316 10.6599
370 2 2.31791 15.3192 11.1123
371 4 3.48335 10.8348 12.9249
372 3 2.7516 9.324 12.9177
373 1 4.65047 10.7815 14.4037
374 2 4.01784 10.814 15.3017
375 2 5.25538 9.87196 14.4369
376 2 5.33145 11.6312 14.453
377 1 4.11356 11.1032 11.1889
378 2 4.88858 11.8748 11.0963
379 2 4.50848 10.1853 10.7357
380 2 3.26999 11.4286 10.5656
381 4 3.498 7.93239 13.4983
382 3 2.86999 6.50677 12.9004
383 1 3.08588 7.84306 15.3059
384 2 1.99041 7.75482 15.3512
385 2 3.51947 6.9673 15.8
386 2 3.37553 8.7477 15.8505
387 1 5.29029 7.94681 12.9024
388 2 6.03502 7.94508 13.7083
389 2 5.48732 7.07657 12.2691
390 2 5.48946 8.82776 12.2767
391 4 3.02534 4.92878 12.5022
392 3 3.46297 3.82523 13.729
393 1 1.3715 4.41139 11.8373
394 2 1.24017 4.58284 10.7648
395 2 1.1738 3.36037 12.0797
396 2 0.634553 5.03417 12.3634
397 1 4.662 4.65245 11.5322
398 2 5.52498 4.98767 12.1257
399 2 4.93782 3.79162 10.8976
400 2 4.62088 5.39792 10.7134
401 4 4.41438 2.85887 12.7524
402 1 3.53964 1.67621 11.6275
403 2 4.19949 1.35724 10.8125
404 2 3.30388 0.745995 12.1703
405 2 2.63025 2.098 11.1801
406 1 6.07844 2.12975 13.3138
407 2 5.80727 1.12362 13.6852
408 2 6.47766 2.67163 14.184
409 4 9.88501 16.6157 11.8163
410 3 10.3535 15.0319 12.1366
411 1 11.3486 17.7746 11.9664
412 2 11.6401 17.894 13.0198
413 2 12.195 17.3931 11.4002
414 2 11.0469 18.7518 11.5571
415 1 8.50979 17.3886 12.9566
416 2 7.68957 17.763 12.3071
417 2 8.00828 16.6886 13.6617
418 2 8.96749 18.2072 13.5637
419 4 9.42043 13.9493 13.0782
420 3 9.30154 12.3144 12.7666
421 1 10.2991 14.1667 14.7447
422 2 9.68817 14.1841 15.6589
423 2 11.0024 13.3231 14.849
424 2 10.9259 15.0758 14.7014
425 1 7.71231 14.3599 12.4801
426 2 7.85389 14.5501 11.4007
427 2 7.09375 13.4614 12.5515
428 2 7.18655 15.2205 12.8923
429 4 10.0648 10.8303 12.6685
430 3 9.33792 9.30619 12.4242
431 1 10.6284 10.6182 14.4501
432 2 9.66335 10.4907 14.9634
433 2 11.2187 9.72284 14.6597
434 2 11.1039 11.4826 14.9076
435 1 10.8872 11.0937 11.025
436 2 11.8351 11.6296 11.0068
437 2 10.9522 10.1471 10.4771
438 2 10.1794 11.7111 10.4588
439 4 10.0934 7.86803 12.958
440 3 9.59638 6.50577 12.0839
441 1 9.37887 7.56356 14.6639
442 2 8.29566 7.48871 14.4901
443 2 9.71717 6.6299 15.1184
444 2 9.54045 8.37564 15.3712
445 1 11.9872 7.98557 12.6325
446 2 12.1512 7.14 11.9495
447 2 12.0892 8.88097 11.9976
448 4 9.54509 4.98558 12.8089
449 3 9.44392 3.71421 11.6769
450 1 7.99694 4.70477 13.8231
451 2 7.2159 4.34961 13.146
452 2 8.16266 3.92501 14.5748
453 2 7.61335 5.57906 14.3549
454 1 11.1509 4.72373 13.7601
455 2 10.9823 4.50027 14.8219
456 2 11.7109 3.89029 13.3178
457 2 11.8054 5.60463 13.7069
458 4 8.95653 2.21291 12.2114
459 1 7.04369 1.98442 12.1214
460 2 6.89493 0.997487 11.6709
461 2 6.83296 2.688 11.3037
462 1 9.83684 1.61644 13.7807
463 2 9.16209 1.61721 14.6376
464 2 10.2179 0.597548 13.6598
465 2 10.6951 2.24278 14.0231
466 4 16.2401 16.3276 11.906
467 3 16.6357 14.7124 12.2332
468 1 17.7644 17.3945 12.1985
469 2 18.003 17.3602 13.2749
470 2 18.6483 17.014 11.6663
471 2 17.5607 18.4269 11.8975
472 1 14.8357 17.0268 12.9536
473 2 13.9667 17.306 12.3425
474 2 14.4964 16.3624 13.7545
475 2 15.2031 17.9234 13.4637
476 4 15.8761 13.7224 13.3521
477 3 16.3759 12.12 13.2789
478 1 16.3702 14.3971 15.0321
479 2 15.5294 14.5553 15.7187
480 2 17.0797 13.6987 15.4995
481 2 16.8849 15.362 14.9006
482 1 14.0616 13.8417 12.8578
483 2 14.0079 13.7443 11.7641
484 2 13.4305 13.0696 13.309
485 2 13.6102 14.8073 13.0934
486 4 15.2653 10.8748 13.4911
487 3 15.775 9.30472 13.7856
488 1 14.2396 11.3153 15.0081
489 2 13.1557 11.2678 14.8419
490 2 14.4902 10.603 15.8065
491 2 14.4814 12.3239 15.3714
492 1 14.472 10.7988 11.803
493 2 15.285 10.6107 11.0864
494 2 13.7169 10.0171 11.6827
495 2 14.0164 11.7463 11.5112
496 4 15.0118 7.9231 13.2198
497 3 15.5416 6.50988 13.9616
498 1 13.1302 8.00093 13.6883
499 2 12.9992 7.16041 14.3902
500 2 13.0492 8.90253 14.3175
501 1 15.6788 7.75727 11.4786
502 2 16.7721 7.74469 11.599
503 2 15.3832 6.85474 10.9392
504 2 15.4324 8.61002 10.8481
505 4 15.654 5.03089 13.2078
506 3 15.3784 3.79803 14.3128
507 1 14.2845 4.84416 11.9303
508 2 14.68 4.48687 10.9715
509 2 13.5458 4.11857 12.2795
510 2 13.744 5.78101 11.7505
511 1 17.3781 4.76539 12.5173
512 2 18.1019 4.75697 13.3424
513 2 17.4585 3.79765 12.0001
514 2 17.6801 5.53401 11.7925
515 4 15.0992 2.18299 14.1117
516 1 14.6202 1.65585 12.341
517 2 15.412 1.87055 11.5945
518 2 14.4599 0.567449 12.3134
519 2 13.6834 2.1209 11.9913
520 1 16.6214 1.24043 14.6479
521 2 16.6924 1.20996 15.7373
522 2 16.5883 0.208136 14.3051
523 2 17.5365 1.70662 14.2503
