
units           metal
neighbor        1.0 bin
dimension       3
boundary        p p p
atom_style      atomic
atom_modify     map yes
newton          on

read_data       silicone_slab.lmpdat
Reading data file ...
  orthogonal box = (0 0 0) to (22 19.079963 20)
  1 by 1 by 1 MPI processor grid
  reading atoms ...
  523 atoms
  read_data CPU = 0.076 seconds

pair_style      mliap unified mace_pretained_models/mace-mpa-0-medium.model-mliap_lammps.pt 0
pair_coeff      * * C H O Si

thermo          100
thermo_style    custom step cpu spcpu temp press pe ke etotal vol density fmax fnorm
thermo_modify   flush yes

# Optimized damping parameters - increased pdamp for stability
variable        tdamp equal 0.5
variable        pdamp equal 20.0

# -----------------------------------------------------------------------------
# Master trajectory dump - captures entire simulation (minimization + MD)
# -----------------------------------------------------------------------------
dump            full_traj all xyz 500 full_trajectory.xyz
dump_modify     full_traj element C H O Si

dump            full_lmp all custom 500 full_trajectory.lammpstrj id type x y z
dump_modify     full_lmp sort id

# -----------------------------------------------------------------------------
# Step 1: Quick Minimization
# -----------------------------------------------------------------------------
print "Step 1: Quick Minimization"
Step 1: Quick Minimization
dump            min_xyz all xyz 100 minimize_traj.xyz
dump_modify     min_xyz element C H O Si

dump            min_lmp all custom 100 minimize_traj.lammpstrj id type x y z
dump_modify     min_lmp sort id

minimize        0.0 1.0e-8 5000 50000

CITE-CITE-CITE-CITE-CITE-CITE-CITE-CITE-CITE-CITE-CITE-CITE-CITE

Your simulation uses code contributions which should be cited:

- KOKKOS package: https://doi.org/10.1145/3731599.3767498

@inproceedings{Johansson25,
 author = {A. Johansson and E. Weinberg and C. Trott and M. McCarthy and S. Moore},
 title = {{LAMMPS-KOKKOS}: {P}erformance Portable Molecular Dynamics Across Exascale Architectures},
 year = 2025,
 booktitle = {Proceedings of the SC '25 Workshops of the International Conference for High Performance Computing,
  Networking, Storage and Analysis},
 pages = {1217–1232},
}

CITE-CITE-CITE-CITE-CITE-CITE-CITE-CITE-CITE-CITE-CITE-CITE-CITE

Neighbor list info ...
  update: every = 1 steps, delay = 0 steps, check = yes
  max neighbors/atom: 2000, page size: 100000
  master list distance cutoff = 7
  ghost atom cutoff = 7
  binsize = 7, bins = 4 3 3
  1 neighbor lists, perpetual/occasional/extra = 1 0 0
  (1) pair mliap/kk, perpetual
      attributes: full, newton on, kokkos_device
      pair build: full/bin/kk/device
      stencil: full/bin/3d
      bin: kk/device
WARNING: Fix MINIMIZE/kk not compatible with sending data in Kokkos communication (src/KOKKOS/comm_kokkos.cpp:744)
WARNING: Fix with atom-based arrays not compatible with sending data in Kokkos communication, switching to legacy exchange/border communication (src/KOKKOS/comm_kokkos.cpp:751)
WARNING: Fix MINIMIZE/kk not compatible with Kokkos sorting on device (src/KOKKOS/atom_kokkos.cpp:217)
WARNING: Fix with atom-based arrays not compatible with Kokkos sorting on device, switching to legacy host sorting (src/KOKKOS/atom_kokkos.cpp:223)
Per MPI rank memory allocation (min/avg/max) = 118.4 | 118.4 | 118.4 Mbytes
   Step          CPU           S/CPU           Temp          Press          PotEng         KinEng         TotEng         Volume        Density          Fmax          Fnorm     
         0   0              0              0              148189.73     -2364.8429      0             -2364.8429      8395.1837      0.76196043     11.512266      75.635867    
        68   15.564127      4.3690191      0              5904.3786     -2803.9723      0             -2803.9723      8395.1837      0.76196043     1.4664097      6.9967255    
Loop time of 15.5734 on 1 procs for 68 steps with 523 atoms

95.6% CPU use with 1 MPI tasks x 1 OpenMP threads

Minimization stats:
  Stopping criterion = linesearch alpha is zero
  Energy initial, next-to-last, final = 
     -2364.84287921658  -2805.94081818655   -2803.9723214355
  Force two-norm initial, final = 75.635867 6.9967255
  Force max component initial, final = 11.512266 1.4664097
  Final line search alpha, max atom move = 1.3896895e-10 2.0378541e-10
  Iterations, force evaluations = 68 137

MPI task timing breakdown:
Section |  min time  |  avg time  |  max time  |%varavg| %total
---------------------------------------------------------------
Pair    | 15.385     | 15.385     | 15.385     |   0.0 | 98.79
Neigh   | 0.01416    | 0.01416    | 0.01416    |   0.0 |  0.09
Comm    | 0.039175   | 0.039175   | 0.039175   |   0.0 |  0.25
Output  | 0          | 0          | 0          |   0.0 |  0.00
Modify  | 0          | 0          | 0          |   0.0 |  0.00
Other   |            | 0.1352     |            |       |  0.87

Nlocal:            523 ave         523 max         523 min
Histogram: 1 0 0 0 0 0 0 0 0 0
Nghost:           1647 ave        1647 max        1647 min
Histogram: 1 0 0 0 0 0 0 0 0 0
Neighs:              0 ave           0 max           0 min
Histogram: 1 0 0 0 0 0 0 0 0 0
FullNghs:        53826 ave       53826 max       53826 min
Histogram: 1 0 0 0 0 0 0 0 0 0

Total # of neighbors = 53826
Ave neighs/atom = 102.91778
Neighbor list builds = 10
Dangerous builds = 0

undump          min_xyz
undump          min_lmp

variable        init_density equal density
print "Initial density: ${init_density} g/cm^3"
Initial density: 0.761960427262085 g/cm^3

# -----------------------------------------------------------------------------
# Enable trajectory dumps for MD runs
# -----------------------------------------------------------------------------
dump            xyz_traj all xyz 100 trajectory.xyz
dump_modify     xyz_traj element C H O Si

dump            lmp_traj all custom 100 trajectory.lammpstrj id type x y z
dump_modify     lmp_traj sort id

dump            dcd_traj all dcd 100 trajectory.dcd

velocity        all create 300.0 12345 rot yes dist gaussian
timestep        0.0005

# -----------------------------------------------------------------------------
# Step 2: Heating 300K -> 500K
# -----------------------------------------------------------------------------
print "Step 2: Heating 300K -> 500K (600 steps)"
Step 2: Heating 300K -> 500K (600 steps)

fix             heat all npt temp 300.0 500.0 ${tdamp} iso 0.0 0.0 ${pdamp}
fix             heat all npt temp 300.0 500.0 0.5 iso 0.0 0.0 ${pdamp}
fix             heat all npt temp 300.0 500.0 0.5 iso 0.0 0.0 20
run             600
Per MPI rank memory allocation (min/avg/max) = 126.1 | 126.1 | 126.1 Mbytes
   Step          CPU           S/CPU           Temp          Press          PotEng         KinEng         TotEng         Volume        Density          Fmax          Fnorm     
        68   0              0              300            8488.6181     -2805.1469      20.242139     -2784.9047      8395.1837      0.76196043     1.4748347      6.7001216    
       100   3.0653925      10.4391        196.39974      3982.1039     -2798.1162      13.251836     -2784.8644      8395.2072      0.76195829     2.1410731      17.411704    
       200   12.739405      10.336972      307.17689      9145.4027     -2804.4538      20.726391     -2783.7274      8395.5424      0.76192787     2.5306669      19.380017    
       300   22.402677      10.348463      362.24797      5400.5978     -2803.9015      24.442246     -2779.4593      8396.2946      0.76185962     2.7407904      24.375974    
       400   31.925647      10.500926      434.09058      8417.8734     -2805.6922      29.289739     -2776.4024      8397.4513      0.76175467     2.8366928      24.67366     
       500   41.149061      10.841958      482.0285       5992.1282     -2808.3654      32.524292     -2775.8411      8399.0026      0.76161398     3.031281       25.751163    
       600   50.324123      10.899124      541.0302       5355.9146     -2805.7594      36.505361     -2769.254       8400.9361      0.76143869     4.0451603      23.846863    
       668   56.578132      10.873024      540.19514      5236.9431     -2804.5203      36.449016     -2768.0713      8402.4249      0.76130377     5.5447263      27.02747     
Loop time of 56.5802 on 1 procs for 600 steps with 523 atoms

Performance: 0.458 ns/day, 52.389 hours/ns, 10.604 timesteps/s, 5.546 katom-step/s
96.6% CPU use with 1 MPI tasks x 1 OpenMP threads

MPI task timing breakdown:
Section |  min time  |  avg time  |  max time  |%varavg| %total
---------------------------------------------------------------
Pair    | 54.781     | 54.781     | 54.781     |   0.0 | 96.82
Neigh   | 0.05254    | 0.05254    | 0.05254    |   0.0 |  0.09
Comm    | 0.11689    | 0.11689    | 0.11689    |   0.0 |  0.21
Output  | 0.11617    | 0.11617    | 0.11617    |   0.0 |  0.21
Modify  | 1.3084     | 1.3084     | 1.3084     |   0.0 |  2.31
Other   |            | 0.2052     |            |       |  0.36

Nlocal:            523 ave         523 max         523 min
Histogram: 1 0 0 0 0 0 0 0 0 0
Nghost:           1848 ave        1848 max        1848 min
Histogram: 1 0 0 0 0 0 0 0 0 0
Neighs:              0 ave           0 max           0 min
Histogram: 1 0 0 0 0 0 0 0 0 0
FullNghs:        48108 ave       48108 max       48108 min
Histogram: 1 0 0 0 0 0 0 0 0 0

Total # of neighbors = 48108
Ave neighs/atom = 91.984704
Neighbor list builds = 33
Dangerous builds = 0
unfix           heat

# -----------------------------------------------------------------------------
# Step 3: Compression 0 -> 5 GPa
# -----------------------------------------------------------------------------
print "Step 3: Compression 0 -> 5 GPa (2000 steps)"
Step 3: Compression 0 -> 5 GPa (2000 steps)

fix             compress all npt temp 500.0 500.0 ${tdamp} iso 0.0 10000.0 ${pdamp}
fix             compress all npt temp 500.0 500.0 0.5 iso 0.0 10000.0 ${pdamp}
fix             compress all npt temp 500.0 500.0 0.5 iso 0.0 10000.0 20
run             2000
Per MPI rank memory allocation (min/avg/max) = 127.6 | 127.6 | 127.6 Mbytes
   Step          CPU           S/CPU           Temp          Press          PotEng         KinEng         TotEng         Volume        Density          Fmax          Fnorm     
       668   0              0              540.19514      6138.0237     -2799.076       36.449016     -2762.627       8402.4249      0.76130377     4.8306604      26.999036    
       700   2.8959678      11.049826      549.29693      3538.4065     -2802.3842      37.063149     -2765.3211      8402.4343      0.76130292     3.2752279      24.694698    
       800   12.066124      10.904939      533.28146      4485.8922     -2799.0769      35.982524     -2763.0944      8402.5708      0.76129055     3.875947       26.236031    
       900   21.396843      10.717286      534.23245      6111.6407     -2797.6092      36.046691     -2761.5625      8402.8537      0.76126492     4.3413671      27.838714    
      1000   30.800669      10.633972      536.50654      7163.2679     -2791.9986      36.200133     -2755.7984      8403.3354      0.76122129     4.7492071      29.920978    
      1100   40.288566      10.539744      570.78901      6308.3096     -2791.2185      38.513301     -2752.7052      8404.004       0.76116073     3.9843635      28.596455    
      1200   49.788375      10.526527      579.7244       5329.2689     -2795.276       39.116206     -2756.1598      8404.8473      0.76108435     4.4526403      31.375386    
      1300   59.310317      10.502059      601.84784      7257.0736     -2788.0867      40.608958     -2747.4777      8405.8145      0.76099678     4.2430725      31.382652    
      1400   68.705888      10.643313      649.13768      2838.6803     -2789.7422      43.799783     -2745.9424      8406.8069      0.76090695     4.9576074      31.542645    
      1500   78.169661      10.566609      652.71462      4565.5585     -2788.671       44.041133     -2744.6299      8407.8062      0.76081652     10.580864      37.679747    
      1600   87.736695      10.45256       666.3992       2709.055      -2783.5009      44.964483     -2738.5364      8408.7891      0.76072758     4.3607513      33.65342     
      1700   97.232428      10.531046      683.73498      2251.9521     -2784.2304      46.134194     -2738.0963      8409.764       0.76063939     9.498701       37.605521    
      1800   106.65279      10.615302      677.52239      6736.25       -2786.0623      45.715007     -2740.3473      8410.6629      0.7605581      5.48206        35.243582    
      1900   116.08398      10.603115      727.36932      2267.5659     -2785.0115      49.078369     -2735.9332      8411.5268      0.76047999     8.052416       38.686247    
      2000   125.59933      10.509335      759.23883      1711.9726     -2784.9605      51.228726     -2733.7318      8412.2994      0.76041014     6.9586311      38.583208    
      2100   135.0435       10.588542      776.18917      2748.2544     -2782.861       52.372429     -2730.4886      8412.9245      0.76035364     6.0284279      38.249973    
      2200   144.50705      10.56686       798.25835      2867.311      -2781.5478      53.86152      -2727.6862      8413.3976      0.76031088     6.6488312      39.992382    
      2300   153.81061      10.748576      811.57702      4556.5555     -2781.5103      54.760182     -2726.7501      8413.7306      0.76028079     7.2984022      41.508255    
      2400   163.2095       10.639556      889.25815      1993.3033     -2784.1155      60.001623     -2724.1139      8413.9186      0.76026381     9.6709315      41.416559    
      2500   172.50921      10.753019      807.55042      2493.3172     -2775.0742      54.488492     -2720.5858      8413.9113      0.76026446     6.6131449      43.990784    
      2600   181.80451      10.758125      903.36401      1534.2502     -2781.8729      60.953398     -2720.9195      8413.6802      0.76028535     7.5015477      43.922911    
      2668   188.2113       10.613742      923.70634      3076.7351     -2785.5369      62.325973     -2723.2109      8413.3695      0.76031343     11.87538       47.312581    
Loop time of 188.212 on 1 procs for 2000 steps with 523 atoms

Performance: 0.459 ns/day, 52.281 hours/ns, 10.626 timesteps/s, 5.558 katom-step/s
96.6% CPU use with 1 MPI tasks x 1 OpenMP threads

MPI task timing breakdown:
Section |  min time  |  avg time  |  max time  |%varavg| %total
---------------------------------------------------------------
Pair    | 181.83     | 181.83     | 181.83     |   0.0 | 96.61
Neigh   | 0.35102    | 0.35102    | 0.35102    |   0.0 |  0.19
Comm    | 0.61235    | 0.61235    | 0.61235    |   0.0 |  0.33
Output  | 0.18565    | 0.18565    | 0.18565    |   0.0 |  0.10
Modify  | 4.4642     | 4.4642     | 4.4642     |   0.0 |  2.37
Other   |            | 0.7714     |            |       |  0.41

Nlocal:            523 ave         523 max         523 min
Histogram: 1 0 0 0 0 0 0 0 0 0
Nghost:           1841 ave        1841 max        1841 min
Histogram: 1 0 0 0 0 0 0 0 0 0
Neighs:              0 ave           0 max           0 min
Histogram: 1 0 0 0 0 0 0 0 0 0
FullNghs:        47874 ave       47874 max       47874 min
Histogram: 1 0 0 0 0 0 0 0 0 0

Total # of neighbors = 47874
Ave neighs/atom = 91.537285
Neighbor list builds = 227
Dangerous builds = 0
unfix           compress

# -----------------------------------------------------------------------------
# Step 4: Extended hold at 5 GPa with LOW temperature to lock structure
# -----------------------------------------------------------------------------
print "Step 4a: Hold at 5 GPa - high temp (2000 steps)"
Step 4a: Hold at 5 GPa - high temp (2000 steps)
fix             hold1 all npt temp 500.0 500.0 ${tdamp} iso 10000.0 10000.0 ${pdamp}
fix             hold1 all npt temp 500.0 500.0 0.5 iso 10000.0 10000.0 ${pdamp}
fix             hold1 all npt temp 500.0 500.0 0.5 iso 10000.0 10000.0 20
run             2000
Per MPI rank memory allocation (min/avg/max) = 128 | 128 | 128 Mbytes
   Step          CPU           S/CPU           Temp          Press          PotEng         KinEng         TotEng         Volume        Density          Fmax          Fnorm     
      2668   0              0              923.70634      3356.9952     -2782.8507      62.325973     -2720.5248      8413.3695      0.76031343     11.909556      46.915672    
      2700   2.8926144      11.062624      919.55733      57.179523     -2782.5214      62.046024     -2720.4754      8413.3533      0.76031489     6.2267808      43.207218    
      2800   12.304857      10.624452      886.62222      2557.6707     -2777.3737      59.823766     -2717.5499      8413.0928      0.76033843     11.038765      47.434213    
      2900   21.609778      10.747012      906.50126      6170.3205     -2782.4407      61.165081     -2721.2756      8412.5854      0.76038429     8.1219599      45.446       
      3000   30.959344      10.695683      860.76816      1992.1122     -2776.1271      58.079295     -2718.0478      8411.8564      0.76045019     6.6584867      46.999041    
      3100   40.322516      10.680143      914.60657      6489.4575     -2774.7588      61.711977     -2713.0468      8410.8265      0.76054331     14.005743      56.389181    
      3200   49.729837      10.630019      921.45534      1609.4743     -2767.9601      62.174089     -2705.786       8409.5362      0.76066        8.399216       49.210631    
      3300   59.098364      10.674037      966.06376      3567.111      -2768.605       65.183989     -2703.421       8407.9536      0.76080317     10.741407      52.137132    
      3400   68.433558      10.712146      941.90754      5211.9305     -2759.2614      63.554077     -2695.7073      8406.0735      0.76097333     8.2606569      50.396463    
      3500   77.786558      10.69176       968.69957      2081.0177     -2766.5923      65.361837     -2701.2304      8403.9657      0.7611642      8.9605762      55.90113     
      3600   87.083686      10.756009      996.93092      5250.5533     -2762.4428      67.266713     -2695.1761      8401.6261      0.76137615     10.809946      54.228014    
      3700   96.340778      10.802529      1017.8556      431.5395      -2762.6781      68.678581     -2693.9996      8399.0324      0.76161127     7.4972892      48.831328    
      3800   105.59036      10.811304      1023.0096      1628.8223     -2754.5003      69.026338     -2685.4739      8396.1644      0.76187143     21.780419      58.68244     
      3900   114.76039      10.905083      1070.8498     -2165.485      -2752.8704      72.254299     -2680.6161      8393.0145      0.76215736     10.647274      47.98968     
      4000   124.13574      10.666268      1050.6822      3942.4358     -2754.0532      70.893519     -2683.1597      8389.5061      0.76247609     13.492337      57.058674    
      4100   133.59598      10.570553      1040.2552     -210.98702     -2752.4835      70.189967     -2682.2936      8385.6796      0.76282402     8.4673235      49.50621     
      4200   142.98853      10.646739      1135.9842      6570.4263     -2749.0379      76.649165     -2672.3887      8381.5516      0.76319971     6.8741979      50.831012    
      4300   152.39571      10.630179      1028.5076      3090.5642     -2744.8249      69.397314     -2675.4276      8377.1406      0.76360157     13.269421      59.236683    
      4400   161.80371      10.629253      1094.6903      3070.6961     -2742.6407      73.862913     -2668.7778      8372.4559      0.76402884     10.697285      52.244148    
      4500   171.10398      10.75238       1158.3085      5547.464      -2744.2566      78.155474     -2666.1011      8367.5323      0.76447841     10.259277      51.69069     
      4600   180.4136       10.74155       1082.262       3236.3872     -2741.9534      73.024325     -2668.929       8362.3752      0.76494986     14.974991      61.888329    
      4668   186.68419      10.84428       1132.7317      3649.9064     -2745.1488      76.429711     -2668.7191      8358.7419      0.76528237     10.525795      56.421029    
Loop time of 186.685 on 1 procs for 2000 steps with 523 atoms

Performance: 0.463 ns/day, 51.857 hours/ns, 10.713 timesteps/s, 5.603 katom-step/s
96.4% CPU use with 1 MPI tasks x 1 OpenMP threads

MPI task timing breakdown:
Section |  min time  |  avg time  |  max time  |%varavg| %total
---------------------------------------------------------------
Pair    | 179.91     | 179.91     | 179.91     |   0.0 | 96.37
Neigh   | 0.50234    | 0.50234    | 0.50234    |   0.0 |  0.27
Comm    | 0.73752    | 0.73752    | 0.73752    |   0.0 |  0.40
Output  | 0.29336    | 0.29336    | 0.29336    |   0.0 |  0.16
Modify  | 4.4335     | 4.4335     | 4.4335     |   0.0 |  2.37
Other   |            | 0.8109     |            |       |  0.43

Nlocal:            523 ave         523 max         523 min
Histogram: 1 0 0 0 0 0 0 0 0 0
Nghost:           1838 ave        1838 max        1838 min
Histogram: 1 0 0 0 0 0 0 0 0 0
Neighs:              0 ave           0 max           0 min
Histogram: 1 0 0 0 0 0 0 0 0 0
FullNghs:        48212 ave       48212 max       48212 min
Histogram: 1 0 0 0 0 0 0 0 0 0

Total # of neighbors = 48212
Ave neighs/atom = 92.183556
Neighbor list builds = 317
Dangerous builds = 0
unfix           hold1

print "Step 4b: Cool to 350K under pressure (1500 steps)"
Step 4b: Cool to 350K under pressure (1500 steps)
fix             anneal1 all npt temp 500.0 350.0 ${tdamp} iso 10000.0 10000.0 ${pdamp}
fix             anneal1 all npt temp 500.0 350.0 0.5 iso 10000.0 10000.0 ${pdamp}
fix             anneal1 all npt temp 500.0 350.0 0.5 iso 10000.0 10000.0 20
run             1500
Per MPI rank memory allocation (min/avg/max) = 127.4 | 127.4 | 127.4 Mbytes
   Step          CPU           S/CPU           Temp          Press          PotEng         KinEng         TotEng         Volume        Density          Fmax          Fnorm     
      4668   0              0              1132.7317      3404.1925     -2745.8576      76.429711     -2669.4279      8358.7419      0.76528237     10.546509      56.501601    
      4700   2.995744       10.681805      1093.5558      0.77136467    -2740.2955      73.786361     -2666.5092      8358.7263      0.7652838      20.791201      58.185651    
      4800   12.425327      10.604906      1153.3106      5291.692      -2734.5166      77.818241     -2656.6984      8358.4723      0.76530705     11.882232      60.293982    
      4900   21.81576       10.649152      1229.2311     -515.29429     -2734.4076      82.940889     -2651.4667      8357.981       0.76535204     8.2243915      51.860654    
      5000   31.092201      10.779996      1165.9913     -2564.33       -2729.216       78.673858     -2650.5421      8357.1771      0.76542566     8.2554786      52.750453    
      5100   40.387925      10.757627      1180.2744      3630.1779     -2732.5999      79.637594     -2652.9623      8356.0452      0.76552934     9.59487        54.835606    
      5200   49.709592      10.727702      1147.866      -3222.8892     -2724.9409      77.450873     -2647.4901      8354.6371      0.76565836     12.486939      56.959286    
      5300   58.938261      10.835799      1206.0934     -1373.8009     -2725.322       81.379702     -2643.9423      8352.9189      0.76581586     11.351119      54.768887    
      5400   68.310318      10.670015      1220.2666      3329.9381     -2722.0562      82.336018     -2639.7201      8350.8956      0.7660014      14.787458      58.308545    
      5500   77.600479      10.764078      1188.6121      6263.8465     -2716.5918      80.200171     -2636.3917      8348.5809      0.76621378     27.251029      78.268724    
      5600   86.921814      10.728075      1153.8883      2779.0142     -2713.409       77.857222     -2635.5518      8345.9684      0.76645363     17.570057      68.973068    
      5700   96.167478      10.815881      1219.4885     -482.96202     -2717.1909      82.283519     -2634.9073      8343.0902      0.76671804     9.1464205      55.602389    
      5800   105.59298      10.609515      1262.2599      4605.9721     -2718.3114      85.169466     -2633.1419      8339.9537      0.76700639     14.828435      59.954303    
      5900   114.86663      10.783239      1316.201       5530.948      -2722.5821      88.80908      -2633.773       8336.6004      0.76731491     8.0122813      55.183718    
      6000   124.22398      10.686791      1191.5407      496.2337      -2710.18        80.397772     -2629.7822      8333.0578      0.76764111     8.3564775      57.530355    
      6100   133.56091      10.710154      1265.6763     -329.71753     -2718.774       85.399985     -2633.374       8329.2725      0.76798997     12.964777      58.175858    
      6168   139.87398      10.771305      1197.291      -3371.6046     -2711.6398      80.785766     -2630.854       8326.533       0.76824265     10.299745      51.324375    
Loop time of 139.875 on 1 procs for 1500 steps with 523 atoms

Performance: 0.463 ns/day, 51.806 hours/ns, 10.724 timesteps/s, 5.609 katom-step/s
96.4% CPU use with 1 MPI tasks x 1 OpenMP threads

MPI task timing breakdown:
Section |  min time  |  avg time  |  max time  |%varavg| %total
---------------------------------------------------------------
Pair    | 134.62     | 134.62     | 134.62     |   0.0 | 96.25
Neigh   | 0.40694    | 0.40694    | 0.40694    |   0.0 |  0.29
Comm    | 0.58013    | 0.58013    | 0.58013    |   0.0 |  0.41
Output  | 0.17825    | 0.17825    | 0.17825    |   0.0 |  0.13
Modify  | 3.4493     | 3.4493     | 3.4493     |   0.0 |  2.47
Other   |            | 0.6367     |            |       |  0.46

Nlocal:            523 ave         523 max         523 min
Histogram: 1 0 0 0 0 0 0 0 0 0
Nghost:           1868 ave        1868 max        1868 min
Histogram: 1 0 0 0 0 0 0 0 0 0
Neighs:              0 ave           0 max           0 min
Histogram: 1 0 0 0 0 0 0 0 0 0
FullNghs:        47786 ave       47786 max       47786 min
Histogram: 1 0 0 0 0 0 0 0 0 0

Total # of neighbors = 47786
Ave neighs/atom = 91.369025
Neighbor list builds = 258
Dangerous builds = 0
unfix           anneal1

print "Step 4c: Hold at 350K under 1 GPa - LOCK STRUCTURE (1500 steps)"
Step 4c: Hold at 350K under 1 GPa - LOCK STRUCTURE (1500 steps)
fix             anneal1b all npt temp 350.0 350.0 ${tdamp} iso 10000.0 10000.0 ${pdamp}
fix             anneal1b all npt temp 350.0 350.0 0.5 iso 10000.0 10000.0 ${pdamp}
fix             anneal1b all npt temp 350.0 350.0 0.5 iso 10000.0 10000.0 20
run             1500
Per MPI rank memory allocation (min/avg/max) = 127.5 | 127.5 | 127.5 Mbytes
   Step          CPU           S/CPU           Temp          Press          PotEng         KinEng         TotEng         Volume        Density          Fmax          Fnorm     
      6168   0              0              1197.291      -3649.5563     -2710.729       80.785766     -2629.9432      8326.533       0.76824265     12.384543      52.516096    
      6200   2.9248779      10.940611      1184.8947     -1316.3344     -2705.115       79.949343     -2625.1656      8326.5077      0.76824499     20.116081      61.525386    
      6300   12.176304      10.809143      1380.71        259.33144     -2708.5279      93.161746     -2615.3661      8326.1662      0.76827649     10.138842      55.746165    
      6400   21.530189      10.690745      1270.053      -1824.7744     -2698.2297      85.695299     -2612.5344      8325.5013      0.76833785     9.5907638      57.456104    
      6500   30.716944      10.885237      1337.2686      3823.1133     -2704.4892      90.230592     -2614.2586      8324.4938      0.76843084     21.102671      67.325345    
      6600   40.031522      10.735859      1278.8984      4503.1802     -2698.4811      86.292133     -2612.189       8323.1068      0.7685589      12.536944      65.987446    
      6700   49.47154       10.593199      1342.223       3091.8043     -2704.0859      90.564878     -2613.521       8321.3954      0.76871696     17.178125      64.107339    
      6800   58.902738      10.603108      1359.0699      9453.2821     -2704.6115      91.701604     -2612.9099      8319.3275      0.76890803     11.048291      62.326264    
      6900   68.314661      10.624822      1367.5821     -2955.3174     -2707.4276      92.275957     -2615.1517      8317.0271      0.76912071     12.760356      54.790735    
      7000   77.639299      10.724277      1373.3744      313.76595     -2704.729       92.66678      -2612.0622      8314.3908      0.76936457     12.130036      64.054236    
      7100   86.974088      10.712613      1326.062      -119.37222     -2702.7681      89.474435     -2613.2937      8311.3795      0.76964333     13.810149      61.661905    
      7200   96.303071      10.719278      1439.6673      879.26119     -2701.5326      97.139815     -2604.3928      8307.9638      0.76995976     12.52581       61.731853    
      7300   105.59657      10.760219      1401.352       5115.1641     -2702.3277      94.554537     -2607.7732      8304.1596      0.77031248     11.237099      64.957336    
      7400   114.91478      10.731674      1459.3687      1266.4106     -2697.4216      98.469143     -2598.9524      8299.9827      0.77070014     10.796427      65.483825    
      7500   124.27871      10.679275      1471.8316      8302.4623     -2703.4121      99.310065     -2604.102       8295.4679      0.77111959     10.890059      58.171072    
      7600   133.62354      10.7011        1390.4923      2056.9924     -2703.0447      93.82179      -2609.2229      8290.6703      0.77156581     9.8206498      58.905806    
      7668   139.95853      10.734038      1307.5641      6769.2861     -2698.5778      88.226312     -2610.3515      8287.2078      0.77188818     11.689377      62.050915    
Loop time of 139.959 on 1 procs for 1500 steps with 523 atoms

Performance: 0.463 ns/day, 51.837 hours/ns, 10.717 timesteps/s, 5.605 katom-step/s
96.3% CPU use with 1 MPI tasks x 1 OpenMP threads

MPI task timing breakdown:
Section |  min time  |  avg time  |  max time  |%varavg| %total
---------------------------------------------------------------
Pair    | 134.88     | 134.88     | 134.88     |   0.0 | 96.37
Neigh   | 0.39239    | 0.39239    | 0.39239    |   0.0 |  0.28
Comm    | 0.57293    | 0.57293    | 0.57293    |   0.0 |  0.41
Output  | 0.16255    | 0.16255    | 0.16255    |   0.0 |  0.12
Modify  | 3.3354     | 3.3354     | 3.3354     |   0.0 |  2.38
Other   |            | 0.6168     |            |       |  0.44

Nlocal:            523 ave         523 max         523 min
Histogram: 1 0 0 0 0 0 0 0 0 0
Nghost:           1851 ave        1851 max        1851 min
Histogram: 1 0 0 0 0 0 0 0 0 0
Neighs:              0 ave           0 max           0 min
Histogram: 1 0 0 0 0 0 0 0 0 0
FullNghs:        48410 ave       48410 max       48410 min
Histogram: 1 0 0 0 0 0 0 0 0 0

Total # of neighbors = 48410
Ave neighs/atom = 92.562141
Neighbor list builds = 262
Dangerous builds = 0
unfix           anneal1b

print "Step 4d: Reheat to 400K for annealing (1000 steps)"
Step 4d: Reheat to 400K for annealing (1000 steps)
fix             anneal2 all npt temp 350.0 400.0 ${tdamp} iso 10000.0 10000.0 ${pdamp}
fix             anneal2 all npt temp 350.0 400.0 0.5 iso 10000.0 10000.0 ${pdamp}
fix             anneal2 all npt temp 350.0 400.0 0.5 iso 10000.0 10000.0 20
run             1000
Per MPI rank memory allocation (min/avg/max) = 127.6 | 127.6 | 127.6 Mbytes
   Step          CPU           S/CPU           Temp          Press          PotEng         KinEng         TotEng         Volume        Density          Fmax          Fnorm     
      7668   0              0              1307.5641      7010.598      -2695.7961      88.226312     -2607.5697      8287.2078      0.77188818     11.828941      62.744345    
      7700   2.9653476      10.791298      1328.6302      1087.6095     -2698.3329      89.647723     -2608.6852      8287.1968      0.77188921     7.6632327      55.775091    
      7800   12.422085      10.574466      1377.8391      3467.9445     -2698.2134      92.968037     -2605.2454      8286.9493      0.77191226     11.725646      64.428388    
      7900   21.765473      10.70276       1377.8605      10498.508     -2697.3986      92.969479     -2604.4291      8286.282       0.77197442     20.39232       68.85559     
      8000   31.068457      10.749229      1440.7491      3663.5591     -2700.6363      97.212811     -2603.4235      8285.2908      0.77206678     8.9643284      60.766558    
      8100   40.348679      10.775602      1321.9401     -1391.736      -2690.6267      89.196314     -2601.4304      8283.9789      0.77218905     15.01878       65.595317    
      8200   49.640359      10.762329      1424.5804      798.65424     -2694.1361      96.121848     -2598.0142      8282.3019      0.7723454      15.156551      61.034889    
      8300   59.005245      10.678187      1420.1697     -1070.2719     -2701.0455      95.824241     -2605.2213      8280.2658      0.77253532     10.741729      59.615848    
      8400   68.505864      10.525629      1440.9865      4548.1407     -2701.3311      97.228826     -2604.1023      8277.841       0.77276162     9.8666892      60.36113     
      8500   77.756684      10.809854      1361.8335      7841.7677     -2691.3431      91.888076     -2599.455       8275.0246      0.77302462     11.31236       66.179943    
      8600   87.211556      10.576558      1326.479       1287.8092     -2689.474       89.502573     -2599.9714      8271.8853      0.773318       9.0212653      62.372285    
      8668   93.573087      10.68925       1453.5293      11123.631     -2700.4301      98.075138     -2602.355       8269.496       0.77354143     9.1148077      61.604662    
Loop time of 93.5742 on 1 procs for 1000 steps with 523 atoms

Performance: 0.462 ns/day, 51.986 hours/ns, 10.687 timesteps/s, 5.589 katom-step/s
96.4% CPU use with 1 MPI tasks x 1 OpenMP threads

MPI task timing breakdown:
Section |  min time  |  avg time  |  max time  |%varavg| %total
---------------------------------------------------------------
Pair    | 90.181     | 90.181     | 90.181     |   0.0 | 96.37
Neigh   | 0.26928    | 0.26928    | 0.26928    |   0.0 |  0.29
Comm    | 0.38658    | 0.38658    | 0.38658    |   0.0 |  0.41
Output  | 0.1378     | 0.1378     | 0.1378     |   0.0 |  0.15
Modify  | 2.1942     | 2.1942     | 2.1942     |   0.0 |  2.34
Other   |            | 0.4057     |            |       |  0.43

Nlocal:            523 ave         523 max         523 min
Histogram: 1 0 0 0 0 0 0 0 0 0
Nghost:           1903 ave        1903 max        1903 min
Histogram: 1 0 0 0 0 0 0 0 0 0
Neighs:              0 ave           0 max           0 min
Histogram: 1 0 0 0 0 0 0 0 0 0
FullNghs:        48056 ave       48056 max       48056 min
Histogram: 1 0 0 0 0 0 0 0 0 0

Total # of neighbors = 48056
Ave neighs/atom = 91.885277
Neighbor list builds = 174
Dangerous builds = 0
unfix           anneal2

print "Step 4e: Final hold at 1 GPa, 400K (2000 steps)"
Step 4e: Final hold at 1 GPa, 400K (2000 steps)
fix             hold2 all npt temp 400.0 400.0 ${tdamp} iso 10000.0 10000.0 ${pdamp}
fix             hold2 all npt temp 400.0 400.0 0.5 iso 10000.0 10000.0 ${pdamp}
fix             hold2 all npt temp 400.0 400.0 0.5 iso 10000.0 10000.0 20
run             2000
Per MPI rank memory allocation (min/avg/max) = 128.2 | 128.2 | 128.2 Mbytes
   Step          CPU           S/CPU           Temp          Press          PotEng         KinEng         TotEng         Volume        Density          Fmax          Fnorm     
      8668   0              0              1453.5293      10577.842     -2698.9398      98.075138     -2600.8647      8269.496       0.77354143     7.793039       61.115897    
      8700   2.9884205      10.707979      1430.9482      3216.3953     -2696.4747      96.551504     -2599.9232      8269.4867      0.77354231     10.531292      60.123694    
      8800   12.311496      10.726074      1436.2385      6922.998      -2690.4923      96.908465     -2593.5838      8269.2453      0.77356488     10.573737      63.430813    
      8900   21.624902      10.737211      1442.121       7490.7149     -2693.5403      97.30538      -2596.2349      8268.7112      0.77361485     10.409242      67.242042    
      9000   30.966623      10.704666      1369.2351     -2189.0838     -2689.5656      92.387489     -2597.1781      8267.9414      0.77368688     13.433404      63.48536     
      9100   40.320438      10.690824      1519.4818      6024.6238     -2698.5752      102.5252      -2596.05        8266.8202      0.77379181     12.174823      65.827117    
      9200   49.736354      10.620316      1427.1274      2911.7688     -2692.3629      96.293705     -2596.0692      8265.3586      0.77392865     11.40178       61.980807    
      9300   58.881787      10.93442       1392.4284      1989.0475     -2689.317       93.952429     -2595.3646      8263.5792      0.7740953      9.9022909      63.128337    
      9400   68.103834      10.843577      1382.5993     -554.30442     -2689.3929      93.289222     -2596.1037      8261.4171      0.77429789     10.074662      62.196722    
      9500   77.338523      10.828736      1458.6009      1179.3495     -2693.9959      98.41734      -2595.5785      8258.8788      0.77453585     7.8129478      56.433739    
      9600   86.618519      10.775868      1365.9059      2687.0363     -2684.095       92.162854     -2591.9321      8256.0527      0.77480098     12.553549      65.312782    
      9700   95.885088      10.791481      1329.2852     -891.67407     -2684.6503      89.691918     -2594.9584      8252.8537      0.77510132     15.376748      68.464272    
      9800   105.05046      10.910635      1378.1344      10877.302     -2686.5139      92.987959     -2593.5259      8249.3655      0.77542906     13.829533      72.466065    
      9900   114.36805      10.732388      1334.1693      6512.615      -2687.1944      90.021466     -2597.1729      8245.5762      0.77578542     13.403716      66.511592    
     10000   123.59733      10.835082      1470.3317      5166.8566     -2695.0706      99.208862     -2595.8617      8241.4384      0.77617491     14.424791      66.155749    
     10100   132.83173      10.829073      1486.8666      6979.4125     -2697.7724      100.32453     -2597.4479      8236.9128      0.77660137     10.600403      65.865644    
     10200   141.99667      10.911148      1391.0756     -549.60358     -2690.5775      93.861149     -2596.7164      8232.0206      0.7770629      13.046762      64.626196    
     10300   151.30522      10.742806      1370.3912      8400.1328     -2693.6252      92.465495     -2601.1597      8226.7969      0.7775563      14.264811      69.795187    
     10400   160.50528      10.869494      1351.2892      3460.801      -2689.9528      91.17661      -2598.7762      8221.276       0.77807846     13.217927      63.938628    
     10500   169.79467      10.764951      1268.2672      2313.9584     -2681.0187      85.574802     -2595.4439      8215.4875      0.77862668     10.286759      58.67283     
     10600   179.13959      10.701022      1332.5997      5064.9088     -2685.4642      89.915557     -2595.5487      8209.4859      0.7791959      11.393935      61.115387    
     10668   185.49894      10.692896      1298.6031      660.2645      -2681.7579      87.621682     -2594.1362      8205.2477      0.77959837     16.370559      62.427768    
Loop time of 185.5 on 1 procs for 2000 steps with 523 atoms

Performance: 0.466 ns/day, 51.528 hours/ns, 10.782 timesteps/s, 5.639 katom-step/s
96.6% CPU use with 1 MPI tasks x 1 OpenMP threads

MPI task timing breakdown:
Section |  min time  |  avg time  |  max time  |%varavg| %total
---------------------------------------------------------------
Pair    | 178.51     | 178.51     | 178.51     |   0.0 | 96.23
Neigh   | 0.541      | 0.541      | 0.541      |   0.0 |  0.29
Comm    | 0.76177    | 0.76177    | 0.76177    |   0.0 |  0.41
Output  | 0.29477    | 0.29477    | 0.29477    |   0.0 |  0.16
Modify  | 4.5501     | 4.5501     | 4.5501     |   0.0 |  2.45
Other   |            | 0.8405     |            |       |  0.45

Nlocal:            523 ave         523 max         523 min
Histogram: 1 0 0 0 0 0 0 0 0 0
Nghost:           1909 ave        1909 max        1909 min
Histogram: 1 0 0 0 0 0 0 0 0 0
Neighs:              0 ave           0 max           0 min
Histogram: 1 0 0 0 0 0 0 0 0 0
FullNghs:        48298 ave       48298 max       48298 min
Histogram: 1 0 0 0 0 0 0 0 0 0

Total # of neighbors = 48298
Ave neighs/atom = 92.347992
Neighbor list builds = 344
Dangerous builds = 0
unfix           hold2

variable        compressed_density equal density
print "==========================================="
===========================================
print "Density after compression: ${compressed_density} g/cm^3"
Density after compression: 0.77959837061055 g/cm^3
print "==========================================="
===========================================

# -----------------------------------------------------------------------------
# Step 5: THREE-STAGE Gradual pressure release with COOLING
# Key: Release pressure slowly while cooling to prevent density collapse
# -----------------------------------------------------------------------------
print "Step 5a: Pressure release 5 GPa -> 3 GPa (2000 steps)"
Step 5a: Pressure release 5 GPa -> 3 GPa (2000 steps)
fix             release1 all npt temp 400.0 380.0 ${tdamp} iso 10000.0 5000.0 ${pdamp}
fix             release1 all npt temp 400.0 380.0 0.5 iso 10000.0 5000.0 ${pdamp}
fix             release1 all npt temp 400.0 380.0 0.5 iso 10000.0 5000.0 20
run             2000
Per MPI rank memory allocation (min/avg/max) = 127.9 | 127.9 | 127.9 Mbytes
   Step          CPU           S/CPU           Temp          Press          PotEng         KinEng         TotEng         Volume        Density          Fmax          Fnorm     
     10668   0              0              1298.6031      1325.0112     -2681.4655      87.621682     -2593.8438      8205.2477      0.77959837     17.05719       64.178969    
     10700   2.9443308      10.868327      1394.0104      4254.0468     -2688.251       94.059171     -2594.1918      8205.2304      0.77960002     21.676263      64.394549    
     10800   12.360989      10.619477      1353.1286     -2173.2108     -2677.933       91.300723     -2586.6322      8204.9766      0.77962413     18.840963      68.115597    
     10900   21.795269      10.599641      1332.2385     -1174.3947     -2669.4301      89.89119      -2579.5389      8204.3729      0.7796815      7.2745643      56.615694    
     11000   31.083151      10.76672       1538.7204      6224.1927     -2679.7696      103.82331     -2575.9463      8203.4624      0.77976804     9.8042296      62.739641    
     11100   40.332335      10.811764      1447.1749      9124.7551     -2675.1763      97.646384     -2577.5299      8202.311       0.77987749     14.780302      68.689562    
     11200   49.557748      10.839623      1491.9506      1117.571      -2677.049       100.66757     -2576.3814      8200.931       0.78000873     11.553542      69.815685    
     11300   58.733014      10.898867      1385.7634      6798.7816     -2667.3191      93.502717     -2573.8164      8199.3256      0.78016145     13.515348      69.397796    
     11400   67.951198      10.848124      1488.1961     -1920.5635     -2671.1094      100.41424     -2570.6952      8197.5457      0.78033085     8.594672       58.002408    
     11500   77.312154      10.682668      1453.2645      1234.7289     -2669.6995      98.057274     -2571.6422      8195.5802      0.78051799     10.466133      61.497973    
     11600   86.731759      10.616157      1338.2515      1364.9699     -2657.7945      90.296909     -2567.4976      8193.3434      0.78073107     9.5994986      60.987057    
     11700   95.993629      10.796955      1467.6672      153.50767     -2664.9776      99.029077     -2565.9485      8190.8743      0.78096642     10.643886      58.516869    
     11800   105.34237      10.696627      1430.6022      3961.4132     -2667.8306      96.528162     -2571.3024      8188.2295      0.78121867     8.3638627      59.160826    
     11900   114.65734      10.735412      1528.4966      4058.8343     -2672.8727      103.13347     -2569.7392      8185.4438      0.78148454     12.731662      64.688258    
     12000   123.95227      10.758548      1379.7877      287.82256     -2666.58        93.09951      -2573.4805      8182.4934      0.78176632     11.774538      62.854798    
     12100   133.24334      10.76302       1436.8561      8368.0667     -2674.6913      96.950132     -2577.7412      8179.4282      0.78205929     14.631786      62.225729    
     12200   142.53432      10.76313       1429.8542      3131.1866     -2668.457       96.477693     -2571.9794      8176.3029      0.78235822     13.093448      69.005955    
     12300   151.89444      10.683623      1332.2871      4446.9579     -2660.0265      89.894466     -2570.1321      8173.0261      0.78267189     10.780729      64.22562     
     12400   161.34025      10.586705      1390.6457     -114.50865     -2670.5258      93.832144     -2576.6937      8169.665       0.78299389     16.120165      70.41879     
     12500   170.71415      10.667925      1316.4126     -571.7037      -2659.8313      88.823356     -2571.0079      8166.1627      0.7833297      19.999049      76.159061    
     12600   180.14479      10.603728      1278.0205      4352.7251     -2654.2043      86.232891     -2567.9714      8162.5484      0.78367655     20.380464      78.25755     
     12668   186.54122      10.630931      1378.3711      4037.995      -2664.0198      93.003931     -2571.0159      8160.0659      0.78391496     15.112183      64.468964    
Loop time of 186.544 on 1 procs for 2000 steps with 523 atoms

Performance: 0.463 ns/day, 51.818 hours/ns, 10.721 timesteps/s, 5.607 katom-step/s
96.5% CPU use with 1 MPI tasks x 1 OpenMP threads

MPI task timing breakdown:
Section |  min time  |  avg time  |  max time  |%varavg| %total
---------------------------------------------------------------
Pair    | 179.6      | 179.6      | 179.6      |   0.0 | 96.27
Neigh   | 0.55554    | 0.55554    | 0.55554    |   0.0 |  0.30
Comm    | 0.79119    | 0.79119    | 0.79119    |   0.0 |  0.42
Output  | 0.28607    | 0.28607    | 0.28607    |   0.0 |  0.15
Modify  | 4.4859     | 4.4859     | 4.4859     |   0.0 |  2.40
Other   |            | 0.8301     |            |       |  0.44

Nlocal:            523 ave         523 max         523 min
Histogram: 1 0 0 0 0 0 0 0 0 0
Nghost:           1930 ave        1930 max        1930 min
Histogram: 1 0 0 0 0 0 0 0 0 0
Neighs:              0 ave           0 max           0 min
Histogram: 1 0 0 0 0 0 0 0 0 0
FullNghs:        48154 ave       48154 max       48154 min
Histogram: 1 0 0 0 0 0 0 0 0 0

Total # of neighbors = 48154
Ave neighs/atom = 92.072658
Neighbor list builds = 363
Dangerous builds = 0
unfix           release1

variable        density_3gpa equal density
print "Density at 3 GPa: ${density_3gpa} g/cm^3"
Density at 3 GPa: 0.783914960365018 g/cm^3

print "Step 5b: Pressure release 3 GPa -> 1 GPa (2000 steps)"
Step 5b: Pressure release 3 GPa -> 1 GPa (2000 steps)
fix             release2 all npt temp 380.0 350.0 ${tdamp} iso 5000.0 2000.0 ${pdamp}
fix             release2 all npt temp 380.0 350.0 0.5 iso 5000.0 2000.0 ${pdamp}
fix             release2 all npt temp 380.0 350.0 0.5 iso 5000.0 2000.0 20
run             2000
Per MPI rank memory allocation (min/avg/max) = 127.9 | 127.9 | 127.9 Mbytes
   Step          CPU           S/CPU           Temp          Press          PotEng         KinEng         TotEng         Volume        Density          Fmax          Fnorm     
     12668   0              0              1378.3711      3529.1838     -2663.3336      93.003931     -2570.3297      8160.0659      0.78391496     15.693892      65.245058    
     12700   3.0068616      10.642307      1363.9301      1530.5686     -2660.7857      92.02954      -2568.7561      8160.0647      0.78391508     8.9530164      56.407103    
     12800   12.284914      10.778123      1461.6477     -4387.2731     -2666.033       98.622917     -2567.41        8160.0067      0.78392065     11.048501      58.487121    
     12900   21.604988      10.729528      1509.9493      6709.4995     -2665.1437      101.88201     -2563.2617      8159.8785      0.78393297     12.946458      69.143851    
     13000   30.971984      10.675781      1406.9703     -1207.7576     -2650.9233      94.933627     -2555.9897      8159.7584      0.78394451     14.658964      71.004708    
     13100   40.15645       10.887949      1593.8723      11253.273     -2661.9358      107.54461     -2554.3912      8159.6004      0.78395969     12.09736       66.641914    
     13200   49.437958      10.774112      1563.744       3680.1093     -2658.956       105.51174     -2553.4443      8159.4863      0.78397065     12.034006      67.277052    
     13300   58.754698      10.733366      1481.8384      8897.7427     -2658.2975      99.985258     -2558.3122      8159.3567      0.78398311     12.689822      63.725183    
     13400   68.08933       10.712797      1556.1792      3238.0756     -2663.1716      105.00132     -2558.1702      8159.4348      0.7839756      10.595795      66.519654    
     13500   77.533218      10.588859      1598.1642      4213.1345     -2660.7662      107.83421     -2552.932       8159.5573      0.78396383     11.553397      63.157038    
     13600   87.004415      10.558328      1588.0868      5230.9012     -2661.9538      107.15425     -2554.7996      8159.6703      0.78395297     9.9060645      62.612692    
     13700   96.250405      10.815499      1543.8645      6838.0549     -2665.0035      104.1704      -2560.8331      8159.8446      0.78393622     11.577965      63.709585    
     13800   105.53869      10.766249      1543.9957      7375.5851     -2666.7889      104.17925     -2562.6097      8160.1316      0.78390865     16.185319      66.744806    
     13900   114.79406      10.804537      1462.5148      4390.0096     -2662.6495      98.681425     -2563.968       8160.529       0.78387048     11.202329      61.25516     
     14000   124.13209      10.708903      1508.9257      7403.6444     -2664.8136      101.81294     -2563.0007      8160.9526      0.78382979     9.9265672      62.723268    
     14100   133.41764      10.769419      1413.7231     -2629.9595     -2664.9205      95.389261     -2569.5312      8161.4336      0.7837836      15.639859      60.209938    
     14200   142.78247      10.678229      1417.0012      556.2539      -2669.1614      95.610449     -2573.5509      8161.9225      0.78373665     9.4327257      58.093627    
     14300   152.24205      10.57131       1377.9789      8455.095      -2668.4079      92.977469     -2575.4304      8162.4217      0.78368872     12.406642      67.007729    
     14400   161.72109      10.549592      1425.428       6236.0238     -2676.3219      96.179035     -2580.1428      8163.0799      0.78362552     12.262065      60.525623    
     14500   171.10593      10.655487      1416.6786      2529.189      -2676.4431      95.588685     -2580.8545      8163.8639      0.78355027     7.3312985      57.000892    
     14600   180.50673      10.63739       1389.4551      5779.7708     -2677.1717      93.751806     -2583.4199      8164.7181      0.7834683      17.510546      67.720617    
     14668   186.80248      10.800947      1330.7593      1481.5602     -2677.1665      89.79138      -2587.3751      8165.3777      0.783405       13.558356      65.553789    
Loop time of 186.804 on 1 procs for 2000 steps with 523 atoms

Performance: 0.463 ns/day, 51.890 hours/ns, 10.706 timesteps/s, 5.599 katom-step/s
96.6% CPU use with 1 MPI tasks x 1 OpenMP threads

MPI task timing breakdown:
Section |  min time  |  avg time  |  max time  |%varavg| %total
---------------------------------------------------------------
Pair    | 180.02     | 180.02     | 180.02     |   0.0 | 96.37
Neigh   | 0.53187    | 0.53187    | 0.53187    |   0.0 |  0.28
Comm    | 0.76504    | 0.76504    | 0.76504    |   0.0 |  0.41
Output  | 0.26811    | 0.26811    | 0.26811    |   0.0 |  0.14
Modify  | 4.3977     | 4.3977     | 4.3977     |   0.0 |  2.35
Other   |            | 0.8174     |            |       |  0.44

Nlocal:            523 ave         523 max         523 min
Histogram: 1 0 0 0 0 0 0 0 0 0
Nghost:           1925 ave        1925 max        1925 min
Histogram: 1 0 0 0 0 0 0 0 0 0
Neighs:              0 ave           0 max           0 min
Histogram: 1 0 0 0 0 0 0 0 0 0
FullNghs:        48456 ave       48456 max       48456 min
Histogram: 1 0 0 0 0 0 0 0 0 0

Total # of neighbors = 48456
Ave neighs/atom = 92.650096
Neighbor list builds = 343
Dangerous builds = 0
unfix           release2

variable        density_1gpa equal density
print "Density at 1 GPa: ${density_1gpa} g/cm^3"
Density at 1 GPa: 0.783405002720063 g/cm^3

print "Step 5c: Pressure release 1 GPa -> 0 with deep cooling (3000 steps)"
Step 5c: Pressure release 1 GPa -> 0 with deep cooling (3000 steps)
fix             release3 all npt temp 350.0 300.0 ${tdamp} iso 2000.0 0.0 ${pdamp}
fix             release3 all npt temp 350.0 300.0 0.5 iso 2000.0 0.0 ${pdamp}
fix             release3 all npt temp 350.0 300.0 0.5 iso 2000.0 0.0 20
run             3000
Per MPI rank memory allocation (min/avg/max) = 127.9 | 127.9 | 127.9 Mbytes
   Step          CPU           S/CPU           Temp          Press          PotEng         KinEng         TotEng         Volume        Density          Fmax          Fnorm     
     14668   0              0              1330.7593      1554.9001     -2677.0717      89.79138      -2587.2803      8165.3777      0.783405       13.650572      65.118305    
     14700   2.9854696      10.718565      1475.7205      8423.3315     -2684.5535      99.572465     -2584.9811      8165.3909      0.78340374     12.049459      59.233306    
     14800   12.301234      10.734492      1505.5023      5282.2756     -2679.9366      101.58196     -2578.3546      8165.581       0.7833855      10.682327      64.023323    
     14900   21.557474      10.803522      1459.1643      10062.991     -2674.5678      98.455354     -2576.1124      8165.9291      0.78335211     14.720467      76.138203    
     15000   30.938756      10.659524      1504.6209      8369.0592     -2672.9692      101.52249     -2571.4467      8166.4655      0.78330066     13.479346      70.128464    
     15100   40.297711      10.684952      1445.3467      5302.2234     -2664.0514      97.52303      -2566.5284      8167.2332      0.78322702     10.418057      62.667167    
     15200   49.604724      10.744581      1475.3718      6928.5685     -2667.7655      99.548934     -2568.2166      8168.1969      0.78313462     10.223501      61.74565     
     15300   58.854291      10.811323      1605.2251      2454.7243     -2677.2511      108.31063     -2568.9404      8169.3341      0.7830256      8.3432521      58.811462    
     15400   68.095327      10.821296      1493.6688      7551.4751     -2670.8264      100.7835      -2570.0429      8170.6553      0.78289899     15.863013      65.45977     
     15500   77.357146      10.797017      1477.138       6868.4958     -2671.9429      99.66811      -2572.2748      8172.239       0.78274727     9.6015936      58.497666    
     15600   86.626096      10.788687      1484.3569      1711.536      -2673.3677      100.1552      -2573.2125      8174.0511      0.78257375     8.1257656      60.372272    
     15700   95.933808      10.7438        1483.8837      10008.546     -2677.8184      100.12326     -2577.6952      8176.0208      0.78238521     10.30992       61.076275    
     15800   105.23537      10.75088       1357.8412      3176.5531     -2670.5769      91.618703     -2578.9582      8178.1742      0.7821792      11.169068      67.204713    
     15900   114.53745      10.750268      1388.8586      4096.9555     -2671.0649      93.711562     -2577.3533      8180.4537      0.78196125     11.98564       64.171358    
     16000   123.81354      10.780425      1310.8097      4710.9119     -2673.8503      88.445304     -2585.405       8182.8327      0.78173391     12.505417      64.086478    
     16100   133.10812      10.758952      1303.5732      9645.9025     -2674.424       87.957031     -2586.4669      8185.372       0.78149139     18.040208      65.662348    
     16200   142.38058      10.784627      1284.1491      6252.574      -2675.1161      86.646414     -2588.4697      8188.0625      0.78123461     8.8593989      57.271524    
     16300   151.7194       10.707991      1285.5527      5627.6556     -2677.5935      86.741121     -2590.8524      8190.9529      0.78095893     11.587229      63.343366    
     16400   161.04739      10.72042       1115.6512      7223.7486     -2663.4963      75.277222     -2588.2191      8193.9832      0.78067011     11.400254      66.154561    
     16500   170.44244      10.643901      1318.598       6803.7157     -2678.7902      88.97081      -2589.8194      8197.2081      0.78036298     10.792301      61.621008    
     16600   179.753        10.740496      1226.1875      8209.3061     -2678.6109      82.735522     -2595.8754      8200.6753      0.78003305     18.018706      75.430166    
     16700   189.17755      10.610591      1362.7005      5575.9157     -2683.1155      91.946578     -2591.169       8204.3666      0.77968209     21.560109      69.4612      
     16800   198.56057      10.657545      1205.2788     -2339.3959     -2669.5818      81.324738     -2588.2571      8208.1768      0.77932017     11.189258      64.185739    
     16900   207.90764      10.698536      1235.3065      3603.3137     -2677.9043      83.350819     -2594.5534      8212.084       0.77894938     10.782519      56.791737    
     17000   217.16343      10.804057      1192.5965      6312.7983     -2676.3096      80.46901      -2595.8406      8216.1717      0.77856185     12.429027      66.621617    
     17100   226.46963      10.745524      1239.5132      2586.2747     -2687.7741      83.634659     -2604.1394      8220.3745      0.77816379     10.956359      56.06287     
     17200   235.7885       10.730911      1210.6217      4537.3509     -2691.0573      81.68524      -2609.3721      8224.7501      0.7777498      16.35369       65.956764    
     17300   245.02124      10.831002      1160.5898      8735.1995     -2687.0893      78.309398     -2608.7799      8229.2605      0.77732352     16.429093      73.514731    
     17400   254.18769      10.909368      1195.232       1848.7038     -2686.7429      80.646841     -2606.096       8233.9292      0.77688277     9.2771226      56.689271    
     17500   263.31024      10.961849      1188.3502      1167.9199     -2688.181       80.182496     -2607.9985      8238.6895      0.77643389     14.779886      56.257792    
     17600   272.51544      10.863421      1184.9677      5749.9741     -2694.8257      79.954271     -2614.8714      8243.5229      0.77597865     17.954161      62.165632    
     17668   278.83521      10.759894      1179.449       4233.5527     -2690.7752      79.581902     -2611.1933      8246.9167      0.77565932     8.8870549      59.719798    
Loop time of 278.836 on 1 procs for 3000 steps with 523 atoms

Performance: 0.465 ns/day, 51.636 hours/ns, 10.759 timesteps/s, 5.627 katom-step/s
96.4% CPU use with 1 MPI tasks x 1 OpenMP threads

MPI task timing breakdown:
Section |  min time  |  avg time  |  max time  |%varavg| %total
---------------------------------------------------------------
Pair    | 268.61     | 268.61     | 268.61     |   0.0 | 96.33
Neigh   | 0.79112    | 0.79112    | 0.79112    |   0.0 |  0.28
Comm    | 1.123      | 1.123      | 1.123      |   0.0 |  0.40
Output  | 0.3715     | 0.3715     | 0.3715     |   0.0 |  0.13
Modify  | 6.7094     | 6.7094     | 6.7094     |   0.0 |  2.41
Other   |            | 1.234      |            |       |  0.44

Nlocal:            523 ave         523 max         523 min
Histogram: 1 0 0 0 0 0 0 0 0 0
Nghost:           1970 ave        1970 max        1970 min
Histogram: 1 0 0 0 0 0 0 0 0 0
Neighs:              0 ave           0 max           0 min
Histogram: 1 0 0 0 0 0 0 0 0 0
FullNghs:        47602 ave       47602 max       47602 min
Histogram: 1 0 0 0 0 0 0 0 0 0

Total # of neighbors = 47602
Ave neighs/atom = 91.017208
Neighbor list builds = 511
Dangerous builds = 0
unfix           release3

variable        density_0gpa equal density
print "Density at 0 GPa: ${density_0gpa} g/cm^3"
Density at 0 GPa: 0.775659315700526 g/cm^3

# -----------------------------------------------------------------------------
# Step 6: Extended equilibration at ambient (300K, 0 GPa)
# -----------------------------------------------------------------------------
print "Step 6: Final NPT equilibration at 300K (1500 steps)"
Step 6: Final NPT equilibration at 300K (1500 steps)

fix             equil1 all npt temp 300.0 300.0 ${tdamp} iso 0.0 0.0 ${pdamp}
fix             equil1 all npt temp 300.0 300.0 0.5 iso 0.0 0.0 ${pdamp}
fix             equil1 all npt temp 300.0 300.0 0.5 iso 0.0 0.0 20
run             1500
Per MPI rank memory allocation (min/avg/max) = 127.8 | 127.8 | 127.8 Mbytes
   Step          CPU           S/CPU           Temp          Press          PotEng         KinEng         TotEng         Volume        Density          Fmax          Fnorm     
     17668   0              0              1179.449       3566.473      -2692.8296      79.581902     -2613.2477      8246.9167      0.77565932     9.1689887      60.453702    
     17700   2.9886325      10.707221      1078.5532      2458.0663     -2683.1398      72.774075     -2610.3658      8246.9182      0.77565918     10.816481      57.340723    
     17800   12.237099      10.812603      1159.5647      2656.6211     -2687.4486      78.240232     -2609.2084      8247.0804      0.77564392     14.035172      54.696017    
     17900   21.495451      10.801058      1164.5705      9082.3795     -2688.8357      78.577991     -2610.2577      8247.4182      0.77561215     8.9753728      56.978319    
     18000   30.788282      10.760982      1202.1812      11695.29      -2690.6751      81.115728     -2609.5593      8247.9426      0.77556284     11.631144      61.251498    
     18100   40.096505      10.743174      1189.2378      8716.0742     -2683.3069      80.242389     -2603.0645      8248.7913      0.77548305     16.197637      59.902147    
     18200   49.354264      10.801696      1223.6017     -1729.3349     -2682.0581      82.561048     -2599.497       8249.9099      0.7753779      10.608266      57.251609    
     18300   58.611815      10.802064      1117.3396      1252.3819     -2678.7329      75.391142     -2603.3418      8251.1309      0.77526315     8.0066791      55.534196    
     18400   67.895265      10.771856      1177.0674      474.87895     -2685.8079      79.421204     -2606.3866      8252.5568      0.77512921     7.5669364      55.712329    
     18500   77.315581      10.615355      1129.3601      8730.2506     -2684.0107      76.202213     -2607.8085      8254.2124      0.77497373     8.1723815      58.077572    
     18600   86.851126      10.487075      1094.2681      3428.1043     -2680.7997      73.83442      -2606.9653      8256.192       0.77478791     8.7815846      62.193035    
     18700   96.314559      10.566992      1155.4992      2060.8077     -2684.5985      77.965919     -2606.6325      8258.4573      0.77457539     8.3485239      54.78992     
     18800   105.7578       10.589586      1162.5347      5273.094      -2692.6469      78.440629     -2614.2063      8260.9515      0.77434153     11.157632      58.042212    
     18900   115.11422      10.687847      1124.094       1986.9531     -2686.8293      75.846892     -2610.9824      8263.6803      0.77408583     11.002016      62.653971    
     19000   124.49861      10.655991      1169.5561      8063.6884     -2685.63        78.91439      -2606.7156      8266.5752      0.77381474     9.414487       58.84591     
     19100   133.97435      10.553272      1174.7303      1183.4152     -2695.6595      79.263511     -2616.3959      8269.6853      0.77352372     10.701224      57.878476    
     19168   140.37066      10.63112       1205.1913      2939.5396     -2694.8121      81.31883      -2613.4933      8271.8632      0.77332006     10.192742      54.0535      
Loop time of 140.372 on 1 procs for 1500 steps with 523 atoms

Performance: 0.462 ns/day, 51.989 hours/ns, 10.686 timesteps/s, 5.589 katom-step/s
96.6% CPU use with 1 MPI tasks x 1 OpenMP threads

MPI task timing breakdown:
Section |  min time  |  avg time  |  max time  |%varavg| %total
---------------------------------------------------------------
Pair    | 135.39     | 135.39     | 135.39     |   0.0 | 96.45
Neigh   | 0.37249    | 0.37249    | 0.37249    |   0.0 |  0.27
Comm    | 0.56127    | 0.56127    | 0.56127    |   0.0 |  0.40
Output  | 0.15015    | 0.15015    | 0.15015    |   0.0 |  0.11
Modify  | 3.301      | 3.301      | 3.301      |   0.0 |  2.35
Other   |            | 0.601      |            |       |  0.43

Nlocal:            523 ave         523 max         523 min
Histogram: 1 0 0 0 0 0 0 0 0 0
Nghost:           1903 ave        1903 max        1903 min
Histogram: 1 0 0 0 0 0 0 0 0 0
Neighs:              0 ave           0 max           0 min
Histogram: 1 0 0 0 0 0 0 0 0 0
FullNghs:        47498 ave       47498 max       47498 min
Histogram: 1 0 0 0 0 0 0 0 0 0

Total # of neighbors = 47498
Ave neighs/atom = 90.818356
Neighbor list builds = 240
Dangerous builds = 0
unfix           equil1

print "Step 7: Final NVT relaxation to stabilize structure (500 steps)"
Step 7: Final NVT relaxation to stabilize structure (500 steps)
fix             equil2 all nvt temp 300.0 300.0 ${tdamp}
fix             equil2 all nvt temp 300.0 300.0 0.5
run             2000
Per MPI rank memory allocation (min/avg/max) = 127.7 | 127.7 | 127.7 Mbytes
   Step          CPU           S/CPU           Temp          Press          PotEng         KinEng         TotEng         Volume        Density          Fmax          Fnorm     
     19168   0              0              1205.1913      2290.5228     -2694.4012      81.31883      -2613.0823      8271.8632      0.77332006     11.194459      54.595451    
     19200   2.9936527      10.689254      1157.1145      1428.5932     -2691.0096      78.074908     -2612.9347      8271.8632      0.77332006     9.4806336      59.424928    
     19300   12.235436      10.820423      1089.3286     -423.13383     -2683.7659      73.501134     -2610.2648      8271.8632      0.77332006     10.723808      58.504118    
     19400   21.650315      10.621486      1142.5891      3461.0068     -2680.7065      77.094823     -2603.6117      8271.8632      0.77332006     17.438598      63.204877    
     19500   30.764886      10.971446      1198.226       11450.814     -2681.3887      80.848854     -2600.5399      8271.8632      0.77332006     8.0095809      59.960062    
     19600   39.894946      10.952829      1188.8063      1232.8043     -2680.4776      80.213274     -2600.2644      8271.8632      0.77332006     8.2382195      57.585092    
     19700   49.14976       10.805188      1170.3354      605.89352     -2681.7975      78.966971     -2602.8306      8271.8632      0.77332006     9.9100536      57.605767    
     19800   58.274732      10.958917      1135.5246      9016.8521     -2676.6327      76.618153     -2600.0146      8271.8632      0.77332006     15.849107      63.110514    
     19900   67.484722      10.857796      1072.0198      2267.9702     -2676.9236      72.333244     -2604.5903      8271.8632      0.77332006     10.594888      62.084264    
     20000   76.726039      10.820968      1106.508      -2382.7255     -2672.5153      74.660294     -2597.855       8271.8632      0.77332006     8.0457395      58.443863    
     20100   85.927476      10.867867      1156.4986      8017.4107     -2676.8287      78.033352     -2598.7953      8271.8632      0.77332006     15.383629      61.864202    
     20200   95.172564      10.816555      1134.5658      3510.7875     -2680.516       76.553458     -2603.9626      8271.8632      0.77332006     12.365524      57.05361     
     20300   104.42821      10.804215      1099.8017      717.09028     -2678.1078      74.207794     -2603.9         8271.8632      0.77332006     7.7674031      54.52323     
     20400   113.7118       10.771688      1092.8564      473.77288     -2681.7357      73.739168     -2607.9965      8271.8632      0.77332006     17.67674       62.811281    
     20500   122.94762      10.827417      1214.314       3048.9937     -2690.289       81.934376     -2608.3546      8271.8632      0.77332006     7.2489618      49.963629    
     20600   132.30715      10.684294      1081.7952      8082.2239     -2683.4482      72.992829     -2610.4554      8271.8632      0.77332006     12.957731      59.296819    
     20700   141.63598      10.719456      1113.0047      2279.9528     -2689.4353      75.098649     -2614.3366      8271.8632      0.77332006     6.4509361      49.646998    
     20800   150.8937       10.801796      1042.0668     -1001.9618     -2686.2371      70.312205     -2615.9249      8271.8632      0.77332006     8.7329498      52.822231    
     20900   160.21632      10.726604      1044.7405     -1263.0972     -2683.1762      70.492608     -2612.6836      8271.8632      0.77332006     14.551516      59.847518    
     21000   169.46146      10.816491      1068.9195     -2350.4696     -2685.3706      72.124054     -2613.2466      8271.8632      0.77332006     16.191366      58.977219    
     21100   178.68968      10.83633       1018.0673      6666.1238     -2683.3197      68.692866     -2614.6269      8271.8632      0.77332006     10.83065       60.982891    
     21168   184.86942      11.003686      1051.7752      5972.4163     -2683.2871      70.967264     -2612.3199      8271.8632      0.77332006     15.276109      68.777222    
Loop time of 184.871 on 1 procs for 2000 steps with 523 atoms

Performance: 0.467 ns/day, 51.353 hours/ns, 10.818 timesteps/s, 5.658 katom-step/s
96.5% CPU use with 1 MPI tasks x 1 OpenMP threads

MPI task timing breakdown:
Section |  min time  |  avg time  |  max time  |%varavg| %total
---------------------------------------------------------------
Pair    | 180.37     | 180.37     | 180.37     |   0.0 | 97.57
Neigh   | 0.47368    | 0.47368    | 0.47368    |   0.0 |  0.26
Comm    | 0.79419    | 0.79419    | 0.79419    |   0.0 |  0.43
Output  | 0.26823    | 0.26823    | 0.26823    |   0.0 |  0.15
Modify  | 2.1712     | 2.1712     | 2.1712     |   0.0 |  1.17
Other   |            | 0.7919     |            |       |  0.43

Nlocal:            523 ave         523 max         523 min
Histogram: 1 0 0 0 0 0 0 0 0 0
Nghost:           1920 ave        1920 max        1920 min
Histogram: 1 0 0 0 0 0 0 0 0 0
Neighs:              0 ave           0 max           0 min
Histogram: 1 0 0 0 0 0 0 0 0 0
FullNghs:        47978 ave       47978 max       47978 min
Histogram: 1 0 0 0 0 0 0 0 0 0

Total # of neighbors = 47978
Ave neighs/atom = 91.736138
Neighbor list builds = 323
Dangerous builds = 0
unfix           equil2

# -----------------------------------------------------------------------------
# Output
# -----------------------------------------------------------------------------
undump          xyz_traj
undump          lmp_traj
undump          dcd_traj
undump          full_traj
undump          full_lmp

write_data      densified_pdms.lmpdat
System init for write_data ...

dump            final all xyz 1 densified_pdms.xyz
dump_modify     final element C H O Si
run             0
WARNING: No fixes with time integration, atoms won't move
For more information see https://docs.lammps.org/err0028 (src/verlet.cpp:60)
Per MPI rank memory allocation (min/avg/max) = 123.2 | 123.2 | 123.2 Mbytes
   Step          CPU           S/CPU           Temp          Press          PotEng         KinEng         TotEng         Volume        Density          Fmax          Fnorm     
     21168   0              0              1051.7752      6742.601      -2684.504       70.967264     -2613.5368      8271.8632      0.77332006     15.366463      68.649936    
Loop time of 0.000362418 on 1 procs for 0 steps with 523 atoms

97.7% CPU use with 1 MPI tasks x 1 OpenMP threads

MPI task timing breakdown:
Section |  min time  |  avg time  |  max time  |%varavg| %total
---------------------------------------------------------------
Pair    | 0          | 0          | 0          |   0.0 |  0.00
Neigh   | 0          | 0          | 0          |   0.0 |  0.00
Comm    | 0          | 0          | 0          |   0.0 |  0.00
Output  | 0          | 0          | 0          |   0.0 |  0.00
Modify  | 0          | 0          | 0          |   0.0 |  0.00
Other   |            | 0.0003624  |            |       |100.00

Nlocal:            523 ave         523 max         523 min
Histogram: 1 0 0 0 0 0 0 0 0 0
Nghost:           1920 ave        1920 max        1920 min
Histogram: 1 0 0 0 0 0 0 0 0 0
Neighs:              0 ave           0 max           0 min
Histogram: 1 0 0 0 0 0 0 0 0 0
FullNghs:        47950 ave       47950 max       47950 min
Histogram: 1 0 0 0 0 0 0 0 0 0

Total # of neighbors = 47950
Ave neighs/atom = 91.6826
Neighbor list builds = 0
Dangerous builds = 0
undump          final

write_restart   densified_pdms.restart
System init for write_restart ...

# -----------------------------------------------------------------------------
# Summary
# -----------------------------------------------------------------------------
variable        target_density equal 1.10
variable        final_density_snapshot equal density
variable        rel_error equal abs(v_final_density_snapshot-v_target_density)/v_target_density*100

print "==========================================="
===========================================
print "OPTIMIZED v2 FIX Melt-Quench Complete!"
OPTIMIZED v2 FIX Melt-Quench Complete!
print "==========================================="
===========================================
print "Density Summary (Target: <5% error):"
Density Summary (Target: <5% error):
print "  Initial density:     ${init_density} g/cm^3"
  Initial density:     0.773320064998059 g/cm^3
print "  After compression:   ${compressed_density} g/cm^3"
  After compression:   0.773320064998059 g/cm^3
# Note: we are not re-evaluating intermediate variables here to keep original values
print "  Final density:       ${final_density_snapshot} g/cm^3"
  Final density:       0.773320064998059 g/cm^3
print "  Target:              ${target_density} g/cm^3"
  Target:              1.1 g/cm^3
print "  Relative error:      ${rel_error}%%"
  Relative error:      29.6981759092674%%
print "==========================================="
===========================================
print "Output files:"
Output files:
print "  - densified_pdms.lmpdat     (LAMMPS data format)"
  - densified_pdms.lmpdat     (LAMMPS data format)
print "  - densified_pdms.xyz        (XYZ format)"
  - densified_pdms.xyz        (XYZ format)
print "  - densified_pdms.restart    (restart file)"
  - densified_pdms.restart    (restart file)
print "  - full_trajectory.xyz       (complete XYZ trajectory)"
  - full_trajectory.xyz       (complete XYZ trajectory)
print "  - full_trajectory.lammpstrj (complete LAMMPS trajectory)"
  - full_trajectory.lammpstrj (complete LAMMPS trajectory)
print "  - trajectory.xyz            (MD XYZ trajectory)"
  - trajectory.xyz            (MD XYZ trajectory)
print "  - trajectory.lammpstrj      (MD LAMMPS trajectory)"
  - trajectory.lammpstrj      (MD LAMMPS trajectory)
print "  - trajectory.dcd            (MD DCD trajectory)"
  - trajectory.dcd            (MD DCD trajectory)
print "  - melt_quench_log.lammps    (LAMMPS log file)"
  - melt_quench_log.lammps    (LAMMPS log file)
print "==========================================="
===========================================
print "Total: ~22000 steps (~60 min)"
Total: ~22000 steps (~60 min)
print "Strategy: 5 GPa + low-T lock + 3-stage release with cooling"
Strategy: 5 GPa + low-T lock + 3-stage release with cooling
print "==========================================="
===========================================
Total wall time: 0:33:45
