ITEM: TIMESTEP
0
ITEM: NUMBER OF ATOMS
523
ITEM: BOX BOUNDS pp pp pp
0.0000000000000000e+00 2.2000000000000000e+01
0.0000000000000000e+00 1.9079962999999999e+01
0.0000000000000000e+00 2.0000000000000000e+01
ITEM: ATOMS id type x y z
1 4 4.125 17.0666 3.07771
2 3 4.125 15.4366 3.07771
3 1 5.88805 17.69 3.07771
4 2 5.88805 17.69 4.16771
5 2 6.20271 16.8 2.53271
6 2 5.5734 18.58 2.53271
7 1 2.36195 17.69 3.07771
8 2 2.36195 17.69 1.98771
9 2 2.04729 16.8 3.62271
10 2 2.6766 18.58 3.62271
11 4 4.125 13.8066 3.07771
12 3 4.125 12.1766 3.07771
13 1 5.37167 14.43 4.32437
14 2 4.60092 14.43 5.09512
15 2 5.97954 13.54 4.1615
16 2 5.53454 15.32 3.71651
17 1 2.87833 14.43 1.83104
18 2 3.64908 14.43 1.0603
19 2 2.27047 13.54 1.99392
20 2 2.71545 15.32 2.43891
21 4 4.125 10.5466 3.07771
22 3 4.125 8.91665 3.07771
23 1 4.125 11.17 4.84076
24 2 3.035 11.17 4.84076
25 2 4.67 10.28 5.15542
26 2 4.67 12.06 4.52611
27 1 4.125 11.17 1.31466
28 2 5.215 11.17 1.31466
29 2 3.58 10.28 1
30 2 3.58 12.06 1.62931
31 4 4.125 7.28665 3.07771
32 3 4.125 5.65665 3.07771
33 1 2.87833 7.90998 4.32437
34 2 2.10759 7.90998 3.55363
35 2 3.04121 7.02 4.93224
36 2 3.4862 8.79996 4.48725
37 1 5.37167 7.90998 1.83104
38 2 6.14241 7.90998 2.60179
39 2 5.20879 7.02 1.22317
40 2 4.7638 8.79996 1.66816
41 4 4.125 4.02665 3.07771
42 3 4.125 2.39665 3.07771
43 1 2.36195 4.64998 3.07771
44 2 2.36195 4.64998 1.98771
45 2 2.04729 3.76 3.62271
46 2 2.6766 5.53996 3.62271
47 1 5.88805 4.64998 3.07771
48 2 5.88805 4.64998 4.16771
49 2 6.20271 3.76 2.53271
50 2 5.5734 5.53996 2.53271
51 4 4.125 0.766648 3.07771
52 1 2.87833 1.38998 1.83104
53 2 3.64908 1.38998 1.0603
54 2 2.27047 0.5 1.99392
55 2 2.71545 2.27996 2.43891
56 1 5.37167 1.38998 4.32437
57 2 4.60092 1.38998 5.09512
58 2 5.97954 0.5 4.1615
59 2 5.53454 2.27996 3.71651
60 4 9.625 17.0666 3.07771
61 3 9.625 15.4366 3.07771
62 1 11.3881 17.69 3.07771
63 2 11.3881 17.69 4.16771
64 2 11.7027 16.8 2.53271
65 2 11.0734 18.58 2.53271
66 1 7.86195 17.69 3.07771
67 2 7.86195 17.69 1.98771
68 2 7.54729 16.8 3.62271
69 2 8.1766 18.58 3.62271
70 4 9.625 13.8066 3.07771
71 3 9.625 12.1766 3.07771
72 1 10.8717 14.43 4.32437
73 2 10.1009 14.43 5.09512
74 2 11.4795 13.54 4.1615
75 2 11.0345 15.32 3.71651
76 1 8.37833 14.43 1.83104
77 2 9.14908 14.43 1.0603
78 2 7.77046 13.54 1.99392
79 2 8.21546 15.32 2.43891
80 4 9.625 10.5466 3.07771
81 3 9.625 8.91665 3.07771
82 1 9.625 11.17 4.84076
83 2 8.535 11.17 4.84076
84 2 10.17 10.28 5.15542
85 2 10.17 12.06 4.52611
86 1 9.625 11.17 1.31466
87 2 10.715 11.17 1.31466
88 2 9.08 10.28 1
89 2 9.08 12.06 1.62931
90 4 9.625 7.28665 3.07771
91 3 9.625 5.65665 3.07771
92 1 8.37833 7.90998 4.32437
93 2 7.60759 7.90998 3.55363
94 2 8.54121 7.02 4.93224
95 2 8.9862 8.79996 4.48725
96 1 11.7823 7.90998 2.58619
97 2 11.6194 7.02 1.97832
98 2 11.1744 8.79996 2.42331
99 4 9.625 4.02665 3.07771
100 3 9.625 2.39665 3.07771
101 1 7.86195 4.64998 3.07771
102 2 7.86195 4.64998 1.98771
103 2 7.54729 3.76 3.62271
104 2 8.1766 5.53996 3.62271
105 1 11.3881 4.64998 3.07771
106 2 11.3881 4.64998 4.16771
107 2 11.7027 3.76 2.53271
108 2 11.0734 5.53996 2.53271
109 4 9.625 0.766648 3.07771
110 1 8.37833 1.38998 1.83104
111 2 9.14908 1.38998 1.0603
112 2 7.77046 0.5 1.99392
113 2 8.21546 2.27996 2.43891
114 1 10.8717 1.38998 4.32437
115 2 10.1009 1.38998 5.09512
116 2 11.4795 0.5 4.1615
117 2 11.0345 2.27996 3.71651
118 4 15.125 17.0666 3.07771
119 3 15.125 15.4366 3.07771
120 1 16.8881 17.69 3.07771
121 2 16.8881 17.69 4.16771
122 2 17.2027 16.8 2.53271
123 2 16.5734 18.58 2.53271
124 1 13.3619 17.69 3.07771
125 2 13.3619 17.69 1.98771
126 2 13.0473 16.8 3.62271
127 2 13.6766 18.58 3.62271
128 4 15.125 13.8066 3.07771
129 3 15.125 12.1766 3.07771
130 1 16.3717 14.43 4.32437
131 2 15.6009 14.43 5.09512
132 2 16.9795 13.54 4.1615
133 2 16.5345 15.32 3.71651
134 1 13.8783 14.43 1.83104
135 2 14.6491 14.43 1.0603
136 2 13.2705 13.54 1.99392
137 2 13.7155 15.32 2.43891
138 4 15.125 10.5466 3.07771
139 3 15.125 8.91665 3.07771
140 1 15.125 11.17 4.84076
141 2 14.035 11.17 4.84076
142 2 15.67 10.28 5.15542
143 2 15.67 12.06 4.52611
144 1 15.125 11.17 1.31466
145 2 16.215 11.17 1.31466
146 2 14.58 10.28 1
147 2 14.58 12.06 1.62931
148 4 15.125 7.28665 3.07771
149 3 15.125 5.65665 3.07771
150 1 12.9677 7.90998 3.56923
151 2 13.1306 7.02 4.1771
152 2 13.5756 8.79996 3.7321
153 1 16.3717 7.90998 1.83104
154 2 17.1424 7.90998 2.60179
155 2 16.2088 7.02 1.22317
156 2 15.7638 8.79996 1.66816
157 4 15.125 4.02665 3.07771
158 3 15.125 2.39665 3.07771
159 1 13.3619 4.64998 3.07771
160 2 13.3619 4.64998 1.98771
161 2 13.0473 3.76 3.62271
162 2 13.6766 5.53996 3.62271
163 1 16.8881 4.64998 3.07771
164 2 16.8881 4.64998 4.16771
165 2 17.2027 3.76 2.53271
166 2 16.5734 5.53996 2.53271
167 4 15.125 0.766648 3.07771
168 1 13.8783 1.38998 1.83104
169 2 14.6491 1.38998 1.0603
170 2 13.2705 0.5 1.99392
171 2 13.7155 2.27996 2.43891
172 1 16.3717 1.38998 4.32437
173 2 15.6009 1.38998 5.09512
174 2 16.9795 0.5 4.1615
175 2 16.5345 2.27996 3.71651
176 4 6.875 17.0666 7.84085
177 3 6.875 15.4366 7.84085
178 1 8.63805 17.69 7.84085
179 2 8.63805 17.69 8.93085
180 2 8.95271 16.8 7.29585
181 2 8.3234 18.58 7.29585
182 1 5.11195 17.69 7.84085
183 2 5.11195 17.69 6.75085
184 2 4.79729 16.8 8.38585
185 2 5.4266 18.58 8.38585
186 4 6.875 13.8066 7.84085
187 3 6.875 12.1766 7.84085
188 1 8.12167 14.43 9.08751
189 2 7.35092 14.43 9.85826
190 2 8.72954 13.54 8.92464
191 2 8.28454 15.32 8.47965
192 1 5.62833 14.43 6.59418
193 2 6.39908 14.43 5.82343
194 2 5.02046 13.54 6.75706
195 2 5.46546 15.32 7.20205
196 4 6.875 10.5466 7.84085
197 3 6.875 8.91665 7.84085
198 1 6.875 11.17 9.6039
199 2 5.785 11.17 9.6039
200 2 7.42 10.28 9.91856
201 2 7.42 12.06 9.28925
202 1 6.875 11.17 6.0778
203 2 7.965 11.17 6.0778
204 2 6.33 10.28 5.76314
205 2 6.33 12.06 6.39245
206 4 6.875 7.28665 7.84085
207 3 6.875 5.65665 7.84085
208 1 5.62833 7.90998 9.08751
209 2 4.85759 7.90998 8.31677
210 2 5.79121 7.02 9.69538
211 2 6.2362 8.79996 9.25039
212 1 8.12167 7.90998 6.59418
213 2 8.89241 7.90998 7.36493
214 2 7.95879 7.02 5.98631
215 2 7.5138 8.79996 6.4313
216 4 6.875 4.02665 7.84085
217 3 6.875 2.39665 7.84085
218 1 5.11195 4.64998 7.84085
219 2 5.11195 4.64998 6.75085
220 2 4.79729 3.76 8.38585
221 2 5.4266 5.53996 8.38585
222 1 8.63805 4.64998 7.84085
223 2 8.63805 4.64998 8.93085
224 2 8.95271 3.76 7.29585
225 2 8.3234 5.53996 7.29585
226 4 6.875 0.766648 7.84085
227 1 5.62833 1.38998 6.59418
228 2 6.39908 1.38998 5.82343
229 2 5.02046 0.5 6.75706
230 2 5.46546 2.27996 7.20205
231 1 9.03229 1.38998 8.33237
232 2 9.64016 0.5 8.16949
233 2 9.19516 2.27996 7.7245
234 4 12.375 17.0666 7.84085
235 3 12.375 15.4366 7.84085
236 1 14.1381 17.69 7.84085
237 2 14.1381 17.69 8.93085
238 2 14.4527 16.8 7.29585
239 2 13.8234 18.58 7.29585
240 1 10.6119 17.69 7.84085
241 2 10.6119 17.69 6.75085
242 2 10.2973 16.8 8.38585
243 2 10.9266 18.58 8.38585
244 4 12.375 13.8066 7.84085
245 3 12.375 12.1766 7.84085
246 1 13.6217 14.43 9.08751
247 2 12.8509 14.43 9.85826
248 2 14.2295 13.54 8.92464
249 2 13.7845 15.32 8.47965
250 1 11.1283 14.43 6.59418
251 2 11.8991 14.43 5.82343
252 2 10.5205 13.54 6.75706
253 2 10.9655 15.32 7.20205
254 4 12.375 10.5466 7.84085
255 3 12.375 8.91665 7.84085
256 1 12.375 11.17 9.6039
257 2 11.285 11.17 9.6039
258 2 12.92 10.28 9.91856
259 2 12.92 12.06 9.28925
260 1 12.375 11.17 6.0778
261 2 13.465 11.17 6.0778
262 2 11.83 10.28 5.76314
263 2 11.83 12.06 6.39245
264 4 12.375 7.28665 7.84085
265 3 12.375 5.65665 7.84085
266 1 11.1283 7.90998 9.08751
267 2 10.3576 7.90998 8.31677
268 2 11.2912 7.02 9.69538
269 2 11.7362 8.79996 9.25039
270 1 13.6217 7.90998 6.59418
271 2 14.3924 7.90998 7.36493
272 2 13.4588 7.02 5.98631
273 2 13.0138 8.79996 6.4313
274 4 12.375 4.02665 7.84085
275 3 12.375 2.39665 7.84085
276 1 10.6119 4.64998 7.84085
277 2 10.6119 4.64998 6.75085
278 2 10.2973 3.76 8.38585
279 2 10.9266 5.53996 8.38585
280 1 14.1381 4.64998 7.84085
281 2 14.1381 4.64998 8.93085
282 2 14.4527 3.76 7.29585
283 2 13.8234 5.53996 7.29585
284 4 12.375 0.766648 7.84085
285 1 10.2177 1.38998 7.34933
286 2 9.60984 0.5 7.51221
287 2 10.0548 2.27996 7.9572
288 1 13.6217 1.38998 9.08751
289 2 12.8509 1.38998 9.85826
290 2 14.2295 0.5 8.92464
291 2 13.7845 2.27996 8.47965
292 4 17.875 17.0666 7.84085
293 3 17.875 15.4366 7.84085
294 1 19.6381 17.69 7.84085
295 2 19.6381 17.69 8.93085
296 2 19.9527 16.8 7.29585
297 2 19.3234 18.58 7.29585
298 1 16.1119 17.69 7.84085
299 2 16.1119 17.69 6.75085
300 2 15.7973 16.8 8.38585
301 2 16.4266 18.58 8.38585
302 4 17.875 13.8066 7.84085
303 3 17.875 12.1766 7.84085
304 1 19.1217 14.43 9.08751
305 2 18.3509 14.43 9.85826
306 2 19.7295 13.54 8.92464
307 2 19.2845 15.32 8.47965
308 1 16.6283 14.43 6.59418
309 2 17.3991 14.43 5.82343
310 2 16.0205 13.54 6.75706
311 2 16.4655 15.32 7.20205
312 4 17.875 10.5466 7.84085
313 3 17.875 8.91665 7.84085
314 1 17.875 11.17 9.6039
315 2 16.785 11.17 9.6039
316 2 18.42 10.28 9.91856
317 2 18.42 12.06 9.28925
318 1 17.875 11.17 6.0778
319 2 18.965 11.17 6.0778
320 2 17.33 10.28 5.76314
321 2 17.33 12.06 6.39245
322 4 17.875 7.28665 7.84085
323 3 17.875 5.65665 7.84085
324 1 16.6283 7.90998 9.08751
325 2 15.8576 7.90998 8.31677
326 2 16.7912 7.02 9.69538
327 2 17.2362 8.79996 9.25039
328 1 19.1217 7.90998 6.59418
329 2 19.8924 7.90998 7.36493
330 2 18.9588 7.02 5.98631
331 2 18.5138 8.79996 6.4313
332 4 17.875 4.02665 7.84085
333 3 17.875 2.39665 7.84085
334 1 16.1119 4.64998 7.84085
335 2 16.1119 4.64998 6.75085
336 2 15.7973 3.76 8.38585
337 2 16.4266 5.53996 8.38585
338 1 19.6381 4.64998 7.84085
339 2 19.6381 4.64998 8.93085
340 2 19.9527 3.76 7.29585
341 2 19.3234 5.53996 7.29585
342 4 17.875 0.766648 7.84085
343 1 16.6283 1.38998 6.59418
344 2 17.3991 1.38998 5.82343
345 2 16.0205 0.5 6.75706
346 2 16.4655 2.27996 7.20205
347 1 19.1217 1.38998 9.08751
348 2 18.3509 1.38998 9.85826
349 2 19.7295 0.5 8.92464
350 2 19.2845 2.27996 8.47965
351 4 4.125 17.0666 12.604
352 3 4.125 15.4366 12.604
353 1 5.88805 17.69 12.604
354 2 5.88805 17.69 13.694
355 2 6.20271 16.8 12.059
356 2 5.5734 18.58 12.059
357 1 2.36195 17.69 12.604
358 2 2.36195 17.69 11.514
359 2 2.04729 16.8 13.149
360 2 2.6766 18.58 13.149
361 4 4.125 13.8066 12.604
362 3 4.125 12.1766 12.604
363 1 5.37167 14.43 13.8507
364 2 4.60092 14.43 14.6214
365 2 5.97954 13.54 13.6878
366 2 5.53454 15.32 13.2428
367 1 2.87833 14.43 11.3573
368 2 3.64908 14.43 10.5866
369 2 2.27047 13.54 11.5202
370 2 2.71545 15.32 11.9652
371 4 4.125 10.5466 12.604
372 3 4.125 8.91665 12.604
373 1 4.125 11.17 14.367
374 2 3.035 11.17 14.367
375 2 4.67 10.28 14.6817
376 2 4.67 12.06 14.0524
377 1 4.125 11.17 10.8409
378 2 5.215 11.17 10.8409
379 2 3.58 10.28 10.5263
380 2 3.58 12.06 11.1556
381 4 4.125 7.28665 12.604
382 3 4.125 5.65665 12.604
383 1 2.87833 7.90998 13.8507
384 2 2.10759 7.90998 13.0799
385 2 3.04121 7.02 14.4585
386 2 3.4862 8.79996 14.0135
387 1 5.37167 7.90998 11.3573
388 2 6.14241 7.90998 12.1281
389 2 5.20879 7.02 10.7495
390 2 4.7638 8.79996 11.1944
391 4 4.125 4.02665 12.604
392 3 4.125 2.39665 12.604
393 1 2.36195 4.64998 12.604
394 2 2.36195 4.64998 11.514
395 2 2.04729 3.76 13.149
396 2 2.6766 5.53996 13.149
397 1 5.88805 4.64998 12.604
398 2 5.88805 4.64998 13.694
399 2 6.20271 3.76 12.059
400 2 5.5734 5.53996 12.059
401 4 4.125 0.766648 12.604
402 1 2.87833 1.38998 11.3573
403 2 3.64908 1.38998 10.5866
404 2 2.27047 0.5 11.5202
405 2 2.71545 2.27996 11.9652
406 1 6.28229 1.38998 13.0955
407 2 6.89016 0.5 12.9326
408 2 6.44516 2.27996 12.4876
409 4 9.625 17.0666 12.604
410 3 9.625 15.4366 12.604
411 1 11.3881 17.69 12.604
412 2 11.3881 17.69 13.694
413 2 11.7027 16.8 12.059
414 2 11.0734 18.58 12.059
415 1 7.86195 17.69 12.604
416 2 7.86195 17.69 11.514
417 2 7.54729 16.8 13.149
418 2 8.1766 18.58 13.149
419 4 9.625 13.8066 12.604
420 3 9.625 12.1766 12.604
421 1 10.8717 14.43 13.8507
422 2 10.1009 14.43 14.6214
423 2 11.4795 13.54 13.6878
424 2 11.0345 15.32 13.2428
425 1 8.37833 14.43 11.3573
426 2 9.14908 14.43 10.5866
427 2 7.77046 13.54 11.5202
428 2 8.21546 15.32 11.9652
429 4 9.625 10.5466 12.604
430 3 9.625 8.91665 12.604
431 1 9.625 11.17 14.367
432 2 8.535 11.17 14.367
433 2 10.17 10.28 14.6817
434 2 10.17 12.06 14.0524
435 1 9.625 11.17 10.8409
436 2 10.715 11.17 10.8409
437 2 9.08 10.28 10.5263
438 2 9.08 12.06 11.1556
439 4 9.625 7.28665 12.604
440 3 9.625 5.65665 12.604
441 1 8.37833 7.90998 13.8507
442 2 7.60759 7.90998 13.0799
443 2 8.54121 7.02 14.4585
444 2 8.9862 8.79996 14.0135
445 1 11.7823 7.90998 12.1125
446 2 11.6194 7.02 11.5046
447 2 11.1744 8.79996 11.9496
448 4 9.625 4.02665 12.604
449 3 9.625 2.39665 12.604
450 1 7.86195 4.64998 12.604
451 2 7.86195 4.64998 11.514
452 2 7.54729 3.76 13.149
453 2 8.1766 5.53996 13.149
454 1 11.3881 4.64998 12.604
455 2 11.3881 4.64998 13.694
456 2 11.7027 3.76 12.059
457 2 11.0734 5.53996 12.059
458 4 9.625 0.766648 12.604
459 1 7.46771 1.38998 12.1125
460 2 6.85984 0.5 12.2753
461 2 7.30484 2.27996 12.7203
462 1 10.8717 1.38998 13.8507
463 2 10.1009 1.38998 14.6214
464 2 11.4795 0.5 13.6878
465 2 11.0345 2.27996 13.2428
466 4 15.125 17.0666 12.604
467 3 15.125 15.4366 12.604
468 1 16.8881 17.69 12.604
469 2 16.8881 17.69 13.694
470 2 17.2027 16.8 12.059
471 2 16.5734 18.58 12.059
472 1 13.3619 17.69 12.604
473 2 13.3619 17.69 11.514
474 2 13.0473 16.8 13.149
475 2 13.6766 18.58 13.149
476 4 15.125 13.8066 12.604
477 3 15.125 12.1766 12.604
478 1 16.3717 14.43 13.8507
479 2 15.6009 14.43 14.6214
480 2 16.9795 13.54 13.6878
481 2 16.5345 15.32 13.2428
482 1 13.8783 14.43 11.3573
483 2 14.6491 14.43 10.5866
484 2 13.2705 13.54 11.5202
485 2 13.7155 15.32 11.9652
486 4 15.125 10.5466 12.604
487 3 15.125 8.91665 12.604
488 1 15.125 11.17 14.367
489 2 14.035 11.17 14.367
490 2 15.67 10.28 14.6817
491 2 15.67 12.06 14.0524
492 1 15.125 11.17 10.8409
493 2 16.215 11.17 10.8409
494 2 14.58 10.28 10.5263
495 2 14.58 12.06 11.1556
496 4 15.125 7.28665 12.604
497 3 15.125 5.65665 12.604
498 1 12.9677 7.90998 13.0955
499 2 13.1306 7.02 13.7034
500 2 13.5756 8.79996 13.2584
501 1 16.3717 7.90998 11.3573
502 2 17.1424 7.90998 12.1281
503 2 16.2088 7.02 10.7495
504 2 15.7638 8.79996 11.1944
505 4 15.125 4.02665 12.604
506 3 15.125 2.39665 12.604
507 1 13.3619 4.64998 12.604
508 2 13.3619 4.64998 11.514
509 2 13.0473 3.76 13.149
510 2 13.6766 5.53996 13.149
511 1 16.8881 4.64998 12.604
512 2 16.8881 4.64998 13.694
513 2 17.2027 3.76 12.059
514 2 16.5734 5.53996 12.059
515 4 15.125 0.766648 12.604
516 1 13.8783 1.38998 11.3573
517 2 14.6491 1.38998 10.5866
518 2 13.2705 0.5 11.5202
519 2 13.7155 2.27996 11.9652
520 1 16.3717 1.38998 13.8507
521 2 15.6009 1.38998 14.6214
522 2 16.9795 0.5 13.6878
523 2 16.5345 2.27996 13.2428
ITEM: TIMESTEP
68
ITEM: NUMBER OF ATOMS
523
ITEM: BOX BOUNDS pp pp pp
0.0000000000000000e+00 2.2000000000000000e+01
0.0000000000000000e+00 1.9079962999999999e+01
0.0000000000000000e+00 2.0000000000000000e+01
ITEM: ATOMS id type x y z
1 4 3.11548 16.5544 3.87783
2 3 2.76849 14.9427 3.67626
3 1 4.534 17.1734 2.81163
4 2 5.38346 17.5381 3.39678
5 2 4.92672 16.4194 2.1228
6 2 4.1779 18.0116 2.19935
7 1 1.5536 17.5479 3.51859
8 2 1.33746 17.4731 2.43278
9 2 0.684024 17.1402 4.06358
10 2 1.68162 18.6057 3.78907
11 4 3.34577 13.7903 2.60354
12 3 2.67093 12.2907 2.87473
13 1 5.19151 13.7693 2.92788
14 2 5.36029 13.5145 3.97926
15 2 5.77148 13.065 2.32631
16 2 5.64105 14.7567 2.78149
17 1 2.83411 14.3199 0.872043
18 2 3.68148 14.5638 0.215628
19 2 2.24796 13.5173 0.398184
20 2 2.18845 15.2105 0.944715
21 4 3.58252 10.8781 2.75752
22 3 2.76404 9.4288 2.50722
23 1 4.34455 10.7726 4.4729
24 2 3.51023 10.6255 5.17411
25 2 5.0664 9.96061 4.62108
26 2 4.83606 11.7097 4.75381
27 1 4.64959 11.0962 1.21349
28 2 5.73062 11.0661 1.40359
29 2 4.398 10.3046 0.498315
30 2 4.41651 12.0542 0.731254
31 4 3.49493 7.95791 2.83242
32 3 2.85217 6.59956 2.06711
33 1 3.17914 7.6648 4.66894
34 2 2.08961 7.60453 4.80874
35 2 3.62771 6.73675 5.04168
36 2 3.54488 8.4839 5.29465
37 1 5.28134 8.0043 2.2078
38 2 6.03234 8.22244 2.97982
39 2 5.53209 7.03635 1.75496
40 2 5.38946 8.75726 1.42169
41 4 3.11651 5.06356 2.68006
42 3 3.31922 3.86142 1.52728
43 1 1.5959 4.58508 3.65912
44 2 0.767834 4.48375 2.94638
45 2 1.7282 3.61704 4.15562
46 2 1.31075 5.32495 4.41744
47 1 4.7524 5.0295 3.60313
48 2 4.6508 4.74817 4.65677
49 2 5.39625 4.28578 3.13368
50 2 5.29235 5.98027 3.56438
51 4 3.92058 2.33146 1.60478
52 1 2.63026 1.16066 1.00394
53 2 2.57469 1.18476 19.9175
54 2 2.85367 0.120045 1.32099
55 2 1.64703 1.43091 1.42102
56 1 4.49872 1.82104 3.35665
57 2 3.7069 1.96864 4.11908
58 2 4.73524 0.728225 3.35919
59 2 5.40307 2.33826 3.7037
60 4 9.38982 16.4125 3.59745
61 3 8.56659 15.0298 3.16092
62 1 10.7786 17.1834 2.5108
63 2 11.4808 17.726 3.16317
64 2 11.3788 16.4751 1.91389
65 2 10.3564 17.9239 1.81284
66 1 8.03956 17.6975 3.76226
67 2 7.56705 17.8002 2.77584
68 2 7.25648 17.3659 4.46712
69 2 8.39027 18.6862 4.08545
70 4 9.01183 13.7266 2.17489
71 3 8.47151 12.0922 2.54274
72 1 10.8337 13.709 2.71492
73 2 10.8074 13.6655 3.82587
74 2 11.4362 12.8566 2.36081
75 2 11.3473 14.6396 2.43755
76 1 8.28423 14.0387 0.517191
77 2 8.85717 14.4322 19.6587
78 2 7.79818 13.1058 0.158909
79 2 7.47327 14.7888 0.705597
80 4 9.58497 10.8514 2.30116
81 3 9.18007 9.21751 2.02064
82 1 10.338 10.7561 3.99985
83 2 9.50717 10.445 4.64766
84 2 11.1301 10.0182 4.12929
85 2 10.6813 11.7174 4.37762
86 1 10.5072 11.2475 0.705578
87 2 11.5907 11.3418 0.819557
88 2 10.3187 10.4333 19.9984
89 2 10.1363 12.1752 0.261844
90 4 10.1114 7.88972 2.49122
91 3 9.66995 6.49631 1.648
92 1 9.4431 7.58295 4.21671
93 2 8.35769 7.4523 4.06989
94 2 9.84706 6.70323 4.71948
95 2 9.57793 8.43579 4.88578
96 1 12.007 8.06509 2.02982
97 2 12.1515 7.17972 1.38862
98 2 12.0015 8.91899 1.32897
99 4 9.68988 4.9925 2.35248
100 3 9.94054 3.7608 1.22658
101 1 8.0681 4.55298 3.17092
102 2 7.32488 4.2641 2.4221
103 2 8.19894 3.70674 3.85747
104 2 7.6522 5.36959 3.76496
105 1 11.1192 4.8896 3.53185
106 2 10.8179 4.63577 4.54971
107 2 11.8282 4.13264 3.19875
108 2 11.6644 5.8329 3.58637
109 4 9.91833 2.10957 1.56533
110 1 8.24523 1.40496 1.09796
111 2 8.13985 1.25868 0.0229843
112 2 8.08535 0.446699 1.597
113 2 7.44669 2.09007 1.41773
114 1 10.359 1.71711 3.36492
115 2 9.60763 2.13249 4.06198
116 2 10.3532 0.626404 3.5219
117 2 11.3358 2.10343 3.67689
118 4 16.3037 16.1906 2.61795
119 3 16.4356 15.165 1.30266
120 1 17.7704 17.3148 2.69041
121 2 18.0178 17.6459 3.71038
122 2 18.652 16.8248 2.25736
123 2 17.5432 18.213 2.09527
124 1 14.6537 17.0488 2.91956
125 2 14.1446 17.3718 2.00016
126 2 13.963 16.3966 3.47369
127 2 14.8138 17.9316 3.5496
128 4 15.8127 13.863 2.12459
129 3 16.4734 12.3628 1.97182
130 1 16.2957 14.6671 3.93854
131 2 15.4287 14.6971 4.61233
132 2 16.8456 13.7117 4.08808
133 2 17.1155 15.2662 4.40824
134 1 13.9881 13.9353 1.83178
135 2 13.8144 13.8936 0.748053
136 2 13.4244 13.1232 2.2967
137 2 13.5602 14.8752 2.19561
138 4 15.4603 11.0396 2.37944
139 3 15.993 9.48227 2.66335
140 1 14.9053 11.548 4.07952
141 2 14.0289 12.1937 4.15451
142 2 14.7074 10.6257 4.6313
143 2 15.7392 12.0227 4.6109
144 1 14.3866 10.8067 0.86744
145 2 15.1007 10.605 0.0552142
146 2 13.7411 9.92305 0.957982
147 2 13.7771 11.6651 0.581605
148 4 15.1295 8.04126 2.45644
149 3 15.8418 6.88863 3.45531
150 1 13.2543 8.18077 2.988
151 2 13.1634 7.39822 3.7596
152 2 13.1764 9.13419 3.5431
153 1 15.6995 7.43517 0.786717
154 2 16.7864 7.3333 0.949186
155 2 15.2977 6.4652 0.473932
156 2 15.5499 8.16347 19.9852
157 4 16.0824 5.26496 3.06571
158 3 16.2446 3.65937 1.608
159 1 14.3734 4.5379 3.27152
160 2 13.9866 4.41724 2.24127
161 2 14.2891 3.58245 3.7993
162 2 13.7042 5.24478 3.77096
163 1 17.9182 4.99292 3.27019
164 2 18.3116 5.11762 4.28555
165 2 18.139 3.99427 2.8776
166 2 18.423 5.74328 2.63552
167 4 15.6199 2.30647 2.11484
168 1 14.0155 1.53653 1.50158
169 2 14.0229 1.30641 0.428713
170 2 13.8507 0.609266 2.05177
171 2 13.1463 2.18181 1.6871
172 1 16.0745 1.58527 3.79301
173 2 15.3328 1.84922 4.54833
174 2 16.0849 0.486332 3.74851
175 2 17.0561 1.93276 4.14291
176 4 5.71215 16.773 8.94309
177 3 5.50944 15.109 9.20545
178 1 7.23295 17.2021 7.90794
179 2 8.16338 17.2088 8.48337
180 2 7.36253 16.4831 7.08117
181 2 7.10106 18.198 7.47225
182 1 4.10115 17.4592 8.22533
183 2 4.21643 17.5505 7.12166
184 2 3.27333 16.7839 8.44071
185 2 3.85982 18.4601 8.60574
186 4 6.09742 13.9384 8.13266
187 3 5.51873 12.4039 8.4792
188 1 7.93211 13.9627 8.46374
189 2 8.09273 13.8626 9.54216
190 2 8.50821 13.1702 7.98694
191 2 8.37042 14.9168 8.16678
192 1 5.48958 14.4896 6.43878
193 2 6.28376 14.7985 5.74641
194 2 4.91879 13.6955 5.9434
195 2 4.79932 15.3372 6.53504
196 4 6.49371 11.0284 8.27179
197 3 5.76044 9.53239 8.33414
198 1 7.45749 10.8469 9.85266
199 2 6.73068 10.4099 10.5483
200 2 8.2711 10.1192 9.77162
201 2 7.8249 11.7806 10.2806
202 1 7.30916 11.3301 6.58066
203 2 8.38729 11.5334 6.64409
204 2 7.17721 10.4926 5.88543
205 2 6.84874 12.2022 6.09072
206 4 5.83146 7.84301 8.16661
207 3 6.3728 6.3772 8.96938
208 1 4.01862 7.67872 8.72816
209 2 3.22355 7.82752 7.99553
210 2 3.8769 6.73977 9.27189
211 2 3.92346 8.48409 9.47176
212 1 7.31353 7.86211 6.99999
213 2 8.13169 8.03261 7.73486
214 2 7.59013 6.93663 6.49964
215 2 7.36526 8.68937 6.29552
216 4 6.18508 4.90035 8.18345
217 3 6.46681 3.64465 9.27948
218 1 4.42908 4.68352 7.53377
219 2 4.40144 4.70261 6.43479
220 2 4.00703 3.72225 7.84529
221 2 3.74706 5.47271 7.86067
222 1 7.44473 4.48192 6.85499
223 2 8.42473 4.31983 7.32752
224 2 7.16167 3.54699 6.362
225 2 7.58146 5.22378 6.05951
226 4 6.86892 2.03319 9.10643
227 1 6.15251 1.46911 7.43383
228 2 6.87891 1.41165 6.5938
229 2 5.66075 0.474516 7.49584
230 2 5.36808 2.19749 7.15371
231 1 8.62404 1.6748 9.88223
232 2 8.83512 0.611255 9.84395
233 2 9.36382 2.17595 9.23719
234 4 12.4612 16.8923 7.10134
235 3 12.7039 15.2986 7.04879
236 1 14.0969 17.7471 7.11085
237 2 14.4174 17.8896 8.16038
238 2 14.8331 17.0908 6.62221
239 2 14.1156 18.7285 6.64186
240 1 11.1193 17.543 8.25783
241 2 10.1472 17.6934 7.7632
242 2 10.9425 16.8346 9.0921
243 2 11.4313 18.5124 8.67543
244 4 11.8375 13.7075 7.69761
245 3 11.1814 12.0949 7.99856
246 1 13.3133 13.7014 8.89052
247 2 13.0697 14.094 9.888
248 2 13.7427 12.6961 9.03051
249 2 14.107 14.3408 8.47381
250 1 10.5059 14.2372 6.49296
251 2 10.991 14.5346 5.55584
252 2 9.75642 13.4604 6.30432
253 2 10.0083 15.1531 6.85408
254 4 11.9704 10.6652 7.59345
255 3 11.1062 9.26901 7.2035
256 1 13.0974 10.2291 9.01956
257 2 12.4896 9.98685 9.8883
258 2 13.7789 9.40023 8.86075
259 2 13.6995 11.0779 9.32021
260 1 12.8668 11.2135 6.07322
261 2 13.8886 11.5218 6.3027
262 2 12.8994 10.4029 5.34556
263 2 12.3611 12.0419 5.5669
264 4 11.9331 7.77201 7.47788
265 3 11.4666 6.33468 6.76369
266 1 11.5631 7.44616 9.28076
267 2 10.524 7.09243 9.33585
268 2 12.1896 6.67313 9.74377
269 2 11.6147 8.33799 9.90471
270 1 13.6829 7.98861 6.80182
271 2 14.4489 8.06032 7.58314
272 2 13.9406 7.13798 6.15989
273 2 13.7838 8.88421 6.1784
274 4 12.0748 4.92301 7.45223
275 3 12.216 3.72419 6.34805
276 1 10.9122 4.28273 8.76511
277 2 10.0659 3.77959 8.28731
278 2 11.3941 3.5473 9.42566
279 2 10.4903 5.04717 9.42775
280 1 13.8121 5.07793 8.19577
281 2 13.7718 4.96305 9.29186
282 2 14.4306 4.26029 7.79556
283 2 14.3482 6.01054 7.97888
284 4 12.1212 2.11507 6.84343
285 1 10.4762 1.48588 6.63844
286 2 10.2763 0.418191 6.54547
287 2 9.64047 2.14463 6.41201
288 1 13.1093 1.75119 8.40913
289 2 12.3821 1.6997 9.22444
290 2 13.6319 0.794288 8.3864
291 2 13.8253 2.5347 8.64067
292 4 19.0542 16.649 6.99839
293 3 19.5021 15.061 7.11898
294 1 20.5845 17.6897 7.43781
295 2 20.7689 17.5744 8.52205
296 2 21.452 17.3254 6.88152
297 2 20.3962 18.7615 7.22642
298 1 17.5797 17.1259 8.10748
299 2 16.711 17.4382 7.52682
300 2 17.274 16.2972 8.75187
301 2 17.8767 17.9735 8.73975
302 4 18.896 13.8202 8.09418
303 3 19.6476 12.3602 7.7949
304 1 19.2266 14.3386 9.86827
305 2 18.3115 14.4743 10.4657
306 2 19.8512 13.5906 10.3769
307 2 19.784 15.2891 9.87524
308 1 17.0818 13.7841 7.59444
309 2 17.0065 13.6708 6.50649
310 2 16.4905 12.9876 8.05835
311 2 16.5927 14.7303 7.8487
312 4 18.8012 10.9191 7.94947
313 3 19.6068 9.44098 8.13365
314 1 17.884 11.1305 9.58517
315 2 16.8521 11.491 9.49839
316 2 17.8661 10.191 10.1523
317 2 18.431 11.8545 10.2038
318 1 17.9577 10.8121 6.27111
319 2 18.7624 10.6813 5.53455
320 2 17.2458 9.99217 6.13304
321 2 17.4443 11.7432 6.02058
322 4 18.8177 7.99584 7.78026
323 3 19.2872 6.61468 8.63347
324 1 17.0086 8.20186 8.23096
325 2 16.4048 8.56234 7.39158
326 2 16.5873 7.25022 8.57465
327 2 16.8902 8.90702 9.0572
328 1 19.1573 7.6344 5.97102
329 2 20.2393 7.52647 5.81531
330 2 18.6653 6.71378 5.64275
331 2 18.8038 8.4405 5.32317
332 4 19.0036 5.07208 8.07867
333 3 18.7748 3.9509 9.31295
334 1 17.3751 4.99641 7.13065
335 2 17.4888 4.57316 6.12655
336 2 16.6733 4.35933 7.67584
337 2 16.9037 5.97866 7.02606
338 1 20.5255 4.54323 7.13715
339 2 21.3516 4.47915 7.86041
340 2 20.4164 3.55808 6.66084
341 2 20.8088 5.27027 6.36334
342 4 18.0372 2.4439 9.34366
343 1 17.4966 1.80556 7.63638
344 2 18.2851 1.90485 6.89301
345 2 17.2565 0.737092 7.71903
346 2 16.5987 2.29458 7.24198
347 1 19.3071 1.22542 10.0321
348 2 19.4306 1.27922 11.1222
349 2 18.983 0.204546 9.79134
350 2 20.2824 1.39209 9.56107
351 4 2.78468 16.2954 12.8385
352 3 2.46332 15.0644 13.8932
353 1 4.5026 17.0374 12.6477
354 2 5.00669 17.256 13.6073
355 2 5.17401 16.405 12.04
356 2 4.38417 17.994 12.1127
357 1 1.41699 17.4964 12.7091
358 2 1.15753 17.7769 11.6928
359 2 0.526532 17.1196 13.2112
360 2 1.73549 18.4061 13.2222
361 4 3.17892 13.78 13.0211
362 3 2.53441 12.2499 13.1963
363 1 4.93127 13.8731 13.5907
364 2 4.99522 13.7893 14.6779
365 2 5.53935 13.0885 13.1458
366 2 5.3621 14.8272 13.3027
367 1 2.94246 14.4935 11.2553
368 2 3.89156 14.6318 10.7244
369 2 2.37627 13.703 10.7353
370 2 2.27864 15.3689 11.0284
371 4 3.48518 10.8515 12.9053
372 3 2.75735 9.35306 12.8845
373 1 4.64393 10.7966 14.395
374 2 3.99576 10.801 15.2844
375 2 5.2611 9.89338 14.4234
376 2 5.30614 11.6605 14.4668
377 1 4.10922 11.1551 11.169
378 2 4.89744 11.9157 11.082
379 2 4.47785 10.2369 10.6911
380 2 3.26052 11.5054 10.562
381 4 3.50133 7.94915 13.474
382 3 2.88553 6.51748 12.9094
383 1 3.06031 7.87348 15.2789
384 2 1.96358 7.76889 15.2958
385 2 3.48661 7.00142 15.7888
386 2 3.32178 8.78255 15.8287
387 1 5.28663 7.97562 12.8719
388 2 6.04118 7.99047 13.6676
389 2 5.48688 7.10295 12.2422
390 2 5.47033 8.85346 12.2364
391 4 3.03554 4.92099 12.5127
392 3 3.41707 3.82518 13.7583
393 1 1.37831 4.40955 11.8517
394 2 1.2395 4.57743 10.7811
395 2 1.18447 3.35845 12.099
396 2 0.649956 5.02976 12.387
397 1 4.67414 4.6349 11.5778
398 2 5.52904 4.92398 12.208
399 2 4.89709 3.73758 10.9831
400 2 4.73067 5.35977 10.745
401 4 4.38883 2.81049 12.828
402 1 3.54947 1.65846 11.6235
403 2 4.23233 1.45083 10.7994
404 2 3.31065 0.707773 12.105
405 2 2.63589 2.08679 11.2189
406 1 6.04631 2.07647 13.4128
407 2 5.78167 1.07819 13.8283
408 2 6.49942 2.63982 14.2472
409 4 9.83753 16.693 11.8928
410 3 10.3896 15.1506 12.1887
411 1 11.3279 17.8291 11.9689
412 2 11.6413 17.9822 13.0207
413 2 12.1804 17.4213 11.421
414 2 11.1295 18.8241 11.5517
415 1 8.44789 17.4175 12.9712
416 2 7.6555 17.8372 12.3364
417 2 7.9492 16.717 13.662
418 2 8.80468 18.2553 13.5834
419 4 9.54583 13.9783 13.133
420 3 9.48828 12.3665 12.7444
421 1 10.4717 14.1678 14.776
422 2 9.87299 14.3332 15.681
423 2 11.0731 13.2597 14.9355
424 2 11.1904 14.9976 14.6695
425 1 7.81841 14.3116 12.5528
426 2 7.93269 14.4003 11.4578
427 2 7.21859 13.4172 12.7144
428 2 7.29665 15.1976 12.8933
429 4 10.0665 10.8004 12.6212
430 3 9.32811 9.26612 12.383
431 1 10.4281 10.5937 14.4617
432 2 9.37856 10.4929 14.8076
433 2 10.9601 9.70123 14.7993
434 2 10.8324 11.4729 14.9622
435 1 10.7132 11.0285 10.8969
436 2 11.6194 11.6128 10.7238
437 2 10.7218 10.0824 10.3438
438 2 9.91005 11.6182 10.4263
439 4 10.0859 7.84559 12.9193
440 3 9.62278 6.46135 12.0311
441 1 9.33835 7.49905 14.6039
442 2 8.26227 7.40107 14.3959
443 2 9.68656 6.56754 15.0578
444 2 9.46124 8.31039 15.3188
445 1 11.9935 7.98507 12.6142
446 2 12.1716 7.14709 11.923
447 2 12.0812 8.89013 11.9898
448 4 9.52808 4.93104 12.7108
449 3 9.34853 3.77324 11.5306
450 1 8.00102 4.63564 13.7324
451 2 7.20965 4.31191 13.0599
452 2 8.16074 3.82027 14.4427
453 2 7.64545 5.49889 14.2896
454 1 11.1271 4.66561 13.7036
455 2 10.9194 4.47157 14.7672
456 2 11.7589 3.84264 13.3372
457 2 11.7474 5.57271 13.6581
458 4 8.73063 2.19907 11.6549
459 1 6.82329 1.96157 12.1414
460 2 6.59526 0.985012 11.6598
461 2 6.50722 2.69594 11.3771
462 1 9.72369 1.53462 13.1786
463 2 8.95603 1.5374 13.9677
464 2 10.2169 0.553725 13.2331
465 2 10.4969 2.28255 13.4266
466 4 16.2001 16.3717 11.8962
467 3 16.6041 14.7526 12.1918
468 1 17.7297 17.4335 12.22
469 2 17.9347 17.4062 13.2976
470 2 18.6156 17.0616 11.6752
471 2 17.5315 18.4696 11.9293
472 1 14.7936 17.068 12.9745
473 2 13.9623 17.4281 12.3605
474 2 14.3909 16.3567 13.6957
475 2 15.1829 17.9316 13.5275
476 4 15.8786 13.7383 13.3166
477 3 16.4079 12.1435 13.2427
478 1 16.3786 14.4123 14.9892
479 2 15.5425 14.5882 15.6748
480 2 17.0746 13.7092 15.4649
481 2 16.908 15.3669 14.8501
482 1 14.0647 13.8195 12.8234
483 2 14.007 13.7178 11.7307
484 2 13.4418 13.0376 13.2637
485 2 13.5967 14.7749 13.0698
486 4 15.3068 10.8828 13.4648
487 3 15.7936 9.30554 13.773
488 1 14.2794 11.3342 14.9767
489 2 13.1963 11.2911 14.8115
490 2 14.526 10.6231 15.7732
491 2 14.531 12.3417 15.3325
492 1 14.5466 10.7911 11.7629
493 2 15.3752 10.5781 11.0714
494 2 13.7896 10.0126 11.6417
495 2 14.1096 11.7383 11.4441
496 4 15.0293 7.9133 13.2353
497 3 15.5419 6.50547 13.983
498 1 13.1252 8.00379 13.6778
499 2 12.9991 7.1532 14.3683
500 2 13.0328 8.89776 14.3162
501 1 15.7205 7.73151 11.4995
502 2 16.8105 7.68791 11.6501
503 2 15.4178 6.82883 10.9612
504 2 15.5127 8.58863 10.8575
505 4 15.6537 5.01682 13.2189
506 3 15.3643 3.75954 14.2954
507 1 14.2794 4.86295 11.9432
508 2 14.684 4.54572 10.9743
509 2 13.5485 4.11864 12.2688
510 2 13.7322 5.80199 11.794
511 1 17.3691 4.73447 12.5182
512 2 18.1076 4.70463 13.3277
513 2 17.414 3.77281 11.9876
514 2 17.678 5.49822 11.7936
515 4 15.0959 2.15019 14.068
516 1 14.6109 1.63535 12.3153
517 2 15.4406 1.76465 11.597
518 2 14.3809 0.558327 12.3122
519 2 13.7382 2.15667 11.9228
520 1 16.6246 1.22462 14.62
521 2 16.7375 1.24407 15.7044
522 2 16.5825 0.172369 14.2802
523 2 17.5339 1.67153 14.1698
ITEM: TIMESTEP
500
ITEM: NUMBER OF ATOMS
523
ITEM: BOX BOUNDS pp pp pp
-1.6676651426390521e-03 2.2001667665142591e+01
-1.4463176917534071e-03 1.9081409317691762e+01
-1.5160592205809564e-03 2.0001516059220599e+01
ITEM: ATOMS id type x y z
1 4 2.85341 16.1852 3.07345
2 3 2.15947 14.6759 2.77022
3 1 3.00625 17.2209 1.52009
4 2 4.00529 17.6648 1.40523
5 2 2.78789 16.6455 0.61593
6 2 2.30469 18.0231 1.57717
7 1 2.06355 16.9259 4.6734
8 2 0.948803 16.8609 4.60596
9 2 2.38872 16.3345 5.47334
10 2 2.33542 17.9513 4.76537
11 4 2.89469 13.6038 1.6342
12 3 2.86269 11.9533 1.80805
13 1 4.74243 14.0331 1.77155
14 2 5.3812 13.4323 1.11964
15 2 4.81055 15.0821 1.40111
16 2 4.99854 13.97 2.81217
17 1 2.07125 14.0699 0.0568251
18 2 2.03771 13.3015 19.2554
19 2 0.91675 14.1444 0.269073
20 2 2.59193 14.9711 19.5976
21 4 3.92724 10.729 2.21279
22 3 2.92794 9.4364 2.37497
23 1 4.80298 11.1101 3.85664
24 2 4.44062 10.4076 4.63819
25 2 5.89216 10.8914 3.71729
26 2 4.62949 12.1355 4.18003
27 1 5.30955 10.5818 0.913843
28 2 5.37807 11.5357 0.295861
29 2 6.26404 10.4695 1.50764
30 2 5.14557 9.71319 0.217533
31 4 2.93759 7.99428 3.22497
32 3 2.59224 6.64517 2.34002
33 1 1.64555 8.13459 4.52433
34 2 0.812805 7.38959 4.45213
35 2 1.99621 8.16664 5.55553
36 2 1.17296 9.12254 4.32613
37 1 4.6591 7.78089 3.71372
38 2 4.98287 8.59263 4.35473
39 2 4.86148 6.81776 4.16495
40 2 5.28005 7.7501 2.78795
41 4 2.49569 5.03371 2.73712
42 3 3.2689 4.21553 1.47717
43 1 0.730365 4.49246 2.9929
44 2 21.9597 4.93798 2.35186
45 2 0.643126 3.38298 3.07271
46 2 0.447114 4.87095 3.94364
47 1 3.54111 4.56615 4.20135
48 2 2.9543 3.93904 4.91537
49 2 4.47357 4.04583 3.98572
50 2 3.8173 5.45686 4.84874
51 4 3.18895 2.5501 1.1998
52 1 1.78946 2.28724 -0.00903654
53 2 2.38573 2.29567 19.0999
54 2 1.26359 1.25521 0.0238053
55 2 1.09335 3.10537 19.9412
56 1 3.58641 1.56199 2.73686
57 2 2.77251 1.64994 3.45252
58 2 3.54747 0.507151 2.52929
59 2 4.58318 1.82967 3.16077
60 4 8.12554 15.6207 3.26846
61 3 8.46363 14.7369 1.96006
62 1 9.31217 17.0289 3.40078
63 2 8.70445 17.9394 3.60812
64 2 10.1569 16.9602 4.10766
65 2 9.76715 17.0888 2.4325
66 1 6.37945 16.1484 3.6085
67 2 5.89839 16.6087 2.72572
68 2 5.79248 15.3454 3.94091
69 2 6.41939 16.896 4.39071
70 4 9.3877 13.897 0.915257
71 3 8.93282 12.2123 1.28599
72 1 11.0966 14.531 1.44602
73 2 11.3355 14.1852 2.44821
74 2 11.903 14.2074 0.726995
75 2 11.0465 15.6631 1.42916
76 1 8.9801 14.4982 19.2408
77 2 9.25932 15.5224 19.0661
78 2 9.74736 13.9103 18.6952
79 2 8.0857 14.2618 18.6981
80 4 10.1277 11.0814 1.36234
81 3 9.63861 9.44778 1.51841
82 1 10.6729 11.4536 3.14358
83 2 9.89965 11.8853 3.70119
84 2 10.9337 10.5864 3.75159
85 2 11.4494 12.224 3.1821
86 1 10.9201 11.07 19.603
87 2 11.9068 11.642 19.5361
88 2 11.0187 10.0461 19.1173
89 2 10.0754 11.5654 18.9692
90 4 10.5465 8.11247 2.08865
91 3 9.66189 6.6251 1.93558
92 1 10.8397 8.12857 3.92572
93 2 9.90297 8.44491 4.37092
94 2 11.1075 7.16157 4.39
95 2 11.5915 8.82566 4.17709
96 1 12.1612 7.91319 1.18382
97 2 12.1583 6.80161 0.974372
98 2 12.1906 8.28924 0.188881
99 4 9.49961 4.98124 2.15613
100 3 9.78487 4.19551 0.617278
101 1 7.92106 4.50242 2.90661
102 2 7.11365 4.24718 2.20717
103 2 8.20115 3.53527 3.41618
104 2 7.56303 5.2307 3.72823
105 1 11.0147 4.37839 3.06919
106 2 10.804 3.35874 3.52506
107 2 11.7896 4.23132 2.29715
108 2 11.3459 5.06526 3.87679
109 4 10.0301 2.67892 0.104257
110 1 8.36487 1.83526 19.5389
111 2 7.4828 2.3402 -0.0548472
112 2 8.3995 1.82291 18.4624
113 2 8.53218 0.754869 19.8437
114 1 11.0204 1.31028 0.970457
115 2 12.1175 1.37231 0.898129
116 2 10.7372 1.30373 2.03752
117 2 10.6068 0.421861 0.472521
118 4 16.8479 15.5606 2.19265
119 3 17.3912 14.1871 1.35415
120 1 18.3001 16.3698 3.13896
121 2 18.098 17.2652 3.69359
122 2 18.8732 15.6841 3.7491
123 2 18.9444 16.8502 2.3801
124 1 16.1948 16.792 0.919415
125 2 16.7471 17.0343 0.0367271
126 2 15.1789 16.4701 0.560154
127 2 16.0177 17.7651 1.40543
128 4 16.6253 13.4264 0.149638
129 3 16.7915 11.8511 0.439265
130 1 15.5317 14.7279 3.27767
131 2 14.8959 15.4771 3.71188
132 2 14.9403 13.9947 2.6573
133 2 16.0174 14.218 4.05829
134 1 15.3245 14.0803 19.1016
135 2 14.8437 13.3854 18.4107
136 2 14.4356 14.5813 19.571
137 2 15.7661 14.8214 18.4372
138 4 15.9091 10.635 1.28819
139 3 16.0847 9.05674 0.726617
140 1 16.4295 10.2957 3.08035
141 2 16.9624 11.0873 3.64435
142 2 15.5329 10.0847 3.69593
143 2 17.061 9.39988 3.06291
144 1 14.1855 11.071 0.776689
145 2 14.0956 11.5493 19.8404
146 2 13.5815 10.1544 0.567844
147 2 13.5423 11.6314 1.51025
148 4 15.118 7.73583 1.06584
149 3 15.8326 6.63416 2.03239
150 1 13.5238 8.17052 1.9417
151 2 13.5335 7.51865 2.81428
152 2 13.586 9.20725 2.30653
153 1 15.1398 6.50099 19.5811
154 2 14.2304 5.88842 19.8966
155 2 14.9785 7.18806 18.741
156 2 16.1158 5.96101 19.5771
157 4 16.0932 5.27433 3.1308
158 3 15.1108 3.9308 2.7805
159 1 15.5752 5.87784 4.81915
160 2 14.6176 6.38534 4.61926
161 2 15.3709 5.00394 5.49047
162 2 16.3088 6.54704 5.20905
163 1 17.869 4.97673 2.63217
164 2 17.8553 4.62778 1.59429
165 2 18.4399 5.9913 2.72474
166 2 18.5608 4.2524 3.21419
167 4 15.4097 2.97865 1.36442
168 1 14.2102 2.93742 19.9315
169 2 13.1725 2.56558 0.177728
170 2 13.8811 3.83326 19.4325
171 2 14.6623 2.27872 19.1711
172 1 16.109 1.29861 1.84545
173 2 15.4413 0.726309 2.45103
174 2 16.1892 0.737309 0.886402
175 2 17.1144 1.37942 2.18068
176 4 4.71819 15.8673 9.78994
177 3 4.65272 14.2904 9.32104
178 1 6.22131 16.7938 9.11379
179 2 7.08364 16.6909 9.75106
180 2 6.52239 16.3828 8.132
181 2 5.9357 17.8388 9.03148
182 1 3.09643 16.7932 9.48962
183 2 2.60126 16.2394 8.70115
184 2 2.43464 16.9041 10.3495
185 2 3.31095 17.7906 9.06446
186 4 5.84599 13.3715 8.5313
187 3 5.98866 11.8948 9.28623
188 1 7.48409 14.0839 8.87511
189 2 7.5415 14.4898 9.89405
190 2 8.17226 13.2729 8.71371
191 2 7.87389 14.8551 8.18028
192 1 5.58563 13.1288 6.6476
193 2 5.53703 14.0912 6.17072
194 2 6.44716 12.5529 6.31524
195 2 4.6699 12.5158 6.46771
196 4 6.91712 10.4632 9.42533
197 3 5.69189 9.3199 9.24272
198 1 7.63446 9.76758 11.0348
199 2 8.70056 9.99512 11.2309
200 2 7.09797 10.0787 11.9445
201 2 7.54974 8.6809 10.9268
202 1 8.30832 10.6031 8.08054
203 2 9.1696 10.1202 8.41563
204 2 7.96739 10.1848 7.06638
205 2 8.57431 11.6391 7.84946
206 4 4.71908 8.29169 8.45218
207 3 5.37944 6.70057 8.63681
208 1 2.93042 8.12573 8.91499
209 2 2.70316 7.18614 9.42483
210 2 2.65818 8.89165 9.66806
211 2 2.31961 8.10664 8.06023
212 1 4.63277 8.83396 6.66254
213 2 5.51534 8.34789 6.17014
214 2 3.71065 8.43452 6.1857
215 2 4.71446 9.92684 6.54957
216 4 5.91645 5.53493 7.64691
217 3 7.03236 4.72638 8.54374
218 1 4.52849 4.29157 7.32572
219 2 4.77117 3.40121 6.7295
220 2 4.11719 3.9245 8.32052
221 2 3.63393 4.67751 6.81938
222 1 6.67774 6.22382 6.09327
223 2 6.00126 6.15581 5.22982
224 2 6.95167 7.24603 6.24544
225 2 7.5774 5.57014 5.94346
226 4 6.91445 3.06542 8.83266
227 1 7.46915 2.1036 7.28626
228 2 8.31455 1.4861 7.53637
229 2 6.67405 1.73118 6.61673
230 2 7.91475 2.84935 6.58999
231 1 7.8912 2.45966 10.3482
232 2 7.64275 1.38613 10.5086
233 2 8.90651 2.44426 9.95598
234 4 13.1297 15.3086 6.00417
235 3 12.5417 14.6316 7.28717
236 1 14.9257 15.4446 6.46663
237 2 15.0967 15.7213 7.495
238 2 15.5272 14.5113 6.29655
239 2 15.4397 16.2431 5.89688
240 1 12.6047 16.9842 5.45491
241 2 11.518 17.1322 5.32594
242 2 12.8555 17.7097 6.28922
243 2 13.1781 17.3288 4.54499
244 4 11.1128 13.7901 7.66107
245 3 11.4997 12.2117 7.6107
246 1 10.463 14.3354 9.29818
247 2 10.285 15.4058 9.29682
248 2 9.62885 13.707 9.54144
249 2 11.2014 14.094 10.0119
250 1 9.95001 14.051 6.19778
251 2 10.5355 13.9803 5.26294
252 2 9.17973 13.2279 6.14732
253 2 9.29002 14.9248 6.02091
254 4 12.5803 11.0185 7.10992
255 3 12.0016 9.49073 7.15346
256 1 14.0441 11.5551 8.18826
257 2 14.5147 12.4338 7.70031
258 2 13.6323 11.8283 9.16729
259 2 14.7543 10.7347 8.37038
260 1 13.2195 11.3388 5.31402
261 2 14.3111 11.5267 5.40973
262 2 13.0456 10.3992 4.71788
263 2 12.6616 12.1545 4.93475
264 4 12.4837 8.03469 7.86539
265 3 11.5686 6.76157 7.35709
266 1 12.5323 8.10292 9.68278
267 2 11.5141 8.25066 10.1545
268 2 12.9663 7.10533 10.0855
269 2 13.2603 8.91282 10.0668
270 1 14.1379 7.75296 7.06718
271 2 14.675 6.79721 7.22542
272 2 13.9523 7.88731 5.91909
273 2 14.8273 8.56084 7.35298
274 4 11.6525 5.17015 8.05436
275 3 11.2668 3.96922 6.91327
276 1 10.3899 5.04356 9.39707
277 2 9.51718 4.47144 9.06332
278 2 10.6638 4.60042 10.3381
279 2 10.0055 6.06305 9.57783
280 1 13.4029 4.69271 8.38103
281 2 14.0291 4.91037 7.49836
282 2 13.9269 5.14573 9.20642
283 2 13.4651 3.61711 8.55036
284 4 11.727 2.40967 6.54588
285 1 10.6129 1.49899 5.60151
286 2 10.8909 0.510839 5.43234
287 2 9.69152 1.86327 5.08265
288 1 13.2859 1.65659 7.12844
289 2 13.181 1.49109 8.26027
290 2 13.3258 0.617317 6.69341
291 2 14.2045 2.18866 6.90712
292 4 19.5645 16.1228 7.45608
293 3 20.118 14.6538 7.94116
294 1 20.6652 16.7394 6.03554
295 2 21.6917 16.284 6.12522
296 2 20.2447 16.5157 5.09564
297 2 20.672 17.8525 6.09326
298 1 19.3893 17.2842 8.92651
299 2 20.2152 17.0675 9.63054
300 2 19.4967 18.3165 8.54263
301 2 18.4642 17.1597 9.48912
302 4 19.2673 13.73 9.07466
303 3 19.4929 12.1788 8.54309
304 1 20.0677 13.6839 10.73
305 2 19.4302 13.0401 11.4108
306 2 21.0115 13.1156 10.5912
307 2 20.3368 14.5865 11.2769
308 1 17.4861 14.1855 9.05409
309 2 17.0232 14.1784 8.00866
310 2 16.8514 13.5335 9.60644
311 2 17.248 15.1885 9.42981
312 4 18.5562 10.83 8.53874
313 3 19.4076 9.426 8.29856
314 1 17.808 10.6388 10.2435
315 2 16.9371 11.1817 10.4795
316 2 17.5595 9.5761 10.3992
317 2 18.6317 10.8258 10.987
318 1 17.4155 11.1737 7.08897
319 2 18.0744 11.4528 6.28514
320 2 16.9175 10.2436 6.77492
321 2 16.6554 11.9459 7.14534
322 4 19.1865 7.95673 7.48447
323 3 19.9807 6.7408 8.22204
324 1 17.3447 7.58418 7.67916
325 2 16.8324 7.57906 6.71057
326 2 17.136 6.61962 8.15714
327 2 16.8102 8.36625 8.23924
328 1 19.6519 8.16339 5.638
329 2 20.347 9.02655 5.55883
330 2 20.1474 7.30418 5.11994
331 2 18.7911 8.34191 4.97461
332 4 19.8643 5.11206 7.83086
333 3 19.7661 4.23882 9.23893
334 1 18.3819 4.82796 6.66132
335 2 18.7687 4.26959 5.78659
336 2 17.6106 4.27359 7.18476
337 2 18.0276 5.77078 6.21629
338 1 21.4601 4.60631 6.91247
339 2 0.298581 5.24199 7.2907
340 2 21.6758 3.60424 7.13266
341 2 21.3714 4.88718 5.84712
342 4 18.6234 3.23477 9.94745
343 1 18.1549 1.90867 8.65665
344 2 18.9433 1.20653 8.69523
345 2 17.2294 1.39686 8.91233
346 2 18.0769 2.26387 7.64192
347 1 19.3348 2.26481 11.4368
348 2 19.9351 2.87239 12.1606
349 2 18.4463 1.87133 12.0051
350 2 19.8643 1.36635 11.0426
351 4 1.34235 15.484 12.3941
352 3 1.18097 14.0625 13.4528
353 1 2.72957 16.412 13.0782
354 2 2.54215 16.591 14.178
355 2 3.69842 15.9272 13.0466
356 2 2.80704 17.4242 12.7049
357 1 21.9345 16.5717 12.6966
358 2 21.6639 17.2473 13.5703
359 2 21.811 17.0514 11.7742
360 2 21.2243 15.721 12.6292
361 4 2.05297 13.3718 14.6003
362 3 2.87285 11.998 14.5198
363 1 2.44449 14.1103 16.3205
364 2 3.32244 13.5407 16.7317
365 2 2.68808 15.1761 16.2303
366 2 1.62048 14.0019 17.0724
367 1 1.18269 14.616 10.7136
368 2 2.16413 14.5554 10.2235
369 2 0.879974 13.6195 10.9159
370 2 0.438736 15.0961 10.0221
371 4 3.80194 10.8397 13.6636
372 3 3.11437 9.37013 13.713
373 1 5.32981 10.9661 14.6607
374 2 5.25792 10.3095 15.5783
375 2 6.30677 10.7425 14.1389
376 2 5.41531 12.0077 15.0351
377 1 3.70655 11.2597 11.7859
378 2 3.8436 12.3131 11.529
379 2 4.30489 10.6868 11.1056
380 2 2.65556 11.0283 11.622
381 4 3.55508 7.81114 13.5684
382 3 2.5771 7.08003 12.4252
383 1 3.44585 7.03671 15.259
384 2 2.43632 7.15411 15.8351
385 2 3.63035 5.96456 15.285
386 2 4.26884 7.54846 15.8693
387 1 5.35365 7.73534 13.0136
388 2 5.4693 7.2254 12.0584
389 2 5.97771 8.61896 13.0071
390 2 5.84833 7.05813 13.7776
391 4 2.29046 5.49417 12.285
392 3 2.81867 4.66026 13.6329
393 1 0.440464 5.34572 12.0766
394 2 0.0783439 4.44813 11.4924
395 2 0.0899479 5.11494 13.1085
396 2 0.02087 6.29536 11.7552
397 1 3.18389 4.71021 10.7895
398 2 4.25986 4.61409 10.7777
399 2 2.8084 3.70115 10.598
400 2 2.91202 5.24777 9.86012
401 4 3.7774 3.44667 12.9479
402 1 3.16757 1.78187 13.4662
403 2 2.38207 1.803 14.2491
404 2 2.72718 1.19632 12.6507
405 2 4.07644 1.17409 13.7825
406 1 5.64061 3.88995 13.2598
407 2 5.77942 4.33947 14.2352
408 2 5.96456 4.61649 12.4892
409 4 9.74877 16.2978 12.0771
410 3 9.48124 14.6974 12.429
411 1 11.5358 16.524 11.82
412 2 11.8044 17.5728 11.8473
413 2 12.1077 16.0411 12.6471
414 2 11.8492 16.0506 10.8858
415 1 8.96131 17.4424 13.2827
416 2 8.66924 18.3877 12.7731
417 2 8.05434 17.0765 13.7407
418 2 9.62741 17.6592 14.1382
419 4 8.68475 13.7564 13.5508
420 3 9.02272 12.1845 13.0806
421 1 9.18715 14.4192 15.189
422 2 9.14771 15.5181 15.1848
423 2 8.48313 14.0848 15.9703
424 2 10.1875 14.0462 15.429
425 1 6.80856 13.7415 13.4058
426 2 6.47026 13.8099 12.3331
427 2 6.41054 12.7926 13.7497
428 2 6.30736 14.5248 13.9929
429 4 10.327 11.2005 12.9172
430 3 9.83913 9.6544 13.2136
431 1 11.4812 11.8598 14.2568
432 2 11.0115 11.5514 15.1621
433 2 12.4955 11.4339 14.3256
434 2 11.4828 12.9523 14.1414
435 1 11.0967 11.3632 11.227
436 2 11.2832 12.4395 11.2017
437 2 12.0917 10.9174 11.1805
438 2 10.6305 10.9963 10.3009
439 4 10.4809 8.25556 13.8235
440 3 9.37897 7.13733 13.2117
441 1 10.2645 8.28275 15.6692
442 2 9.18725 8.53968 15.8257
443 2 10.4207 7.34553 16.2318
444 2 10.9154 9.06554 16.0797
445 1 12.2958 8.05521 13.3008
446 2 12.2875 7.08558 12.7367
447 2 12.4232 8.83444 12.5197
448 4 9.29743 5.53109 13.5797
449 3 8.42349 4.7671 12.3364
450 1 8.40448 5.36123 15.2408
451 2 7.85326 6.3497 15.4048
452 2 7.65807 4.56238 15.2389
453 2 9.0564 5.09704 16.1286
454 1 11.101 4.94612 13.8249
455 2 11.1055 4.03824 14.4302
456 2 11.6387 4.80656 12.9024
457 2 11.5845 5.72773 14.3634
458 4 8.10001 3.0918 12.0541
459 1 6.57117 2.63598 13.1382
460 2 6.91935 2.36671 14.1752
461 2 6.05736 1.73585 12.8079
462 1 9.60792 2.20959 12.6418
463 2 9.5923 2.25283 13.7394
464 2 9.6403 1.1358 12.4049
465 2 10.4922 2.68967 12.2244
466 4 17.4726 15.8752 12.7077
467 3 17.3753 14.4804 13.6737
468 1 19.1893 16.5343 13.231
469 2 19.7035 15.8151 13.8885
470 2 19.7751 16.5525 12.2837
471 2 19.1628 17.5322 13.6493
472 1 16.2582 17.2267 13.1455
473 2 15.3802 17.1638 12.4905
474 2 15.9001 17.2042 14.1943
475 2 16.6485 18.2302 12.9434
476 4 16.3193 13.7091 14.5918
477 3 16.6622 12.0817 14.5662
478 1 16.3469 14.0209 16.445
479 2 16.0616 13.0602 16.926
480 2 17.3563 14.2284 16.7359
481 2 15.646 14.7693 16.7036
482 1 14.5703 14.1021 13.9676
483 2 14.4552 13.7606 12.9455
484 2 13.8377 13.6044 14.6129
485 2 14.3984 15.1637 13.9994
486 4 15.7357 10.6598 14.668
487 3 16.3836 9.12144 14.2091
488 1 15.1576 10.4714 16.4405
489 2 14.5232 9.61178 16.5725
490 2 16.08 10.3418 17.0624
491 2 14.6297 11.3141 16.8225
492 1 14.5807 10.8919 13.1978
493 2 15.3142 10.8898 12.3089
494 2 13.8571 10.0618 12.9897
495 2 14.1505 11.8656 13.1715
496 4 15.4115 7.8861 13.5538
497 3 15.8479 6.3777 13.9193
498 1 13.4789 8.03064 14.2798
499 2 13.4441 7.16163 15.0047
500 2 13.4584 8.91459 14.9478
501 1 15.7989 7.86613 11.7494
502 2 14.9444 7.50568 11.1549
503 2 15.959 8.89229 11.3825
504 2 16.7049 7.30543 11.6066
505 4 16.5125 4.99259 13.3048
506 3 15.9563 3.88446 14.4298
507 1 15.7568 4.58819 11.5838
508 2 15.5775 3.51342 11.5442
509 2 14.8384 5.1832 11.3484
510 2 16.5575 4.82799 10.8287
511 1 18.3731 5.04842 13.2833
512 2 18.7389 5.63125 14.1636
513 2 18.7285 3.97103 13.3906
514 2 18.7848 5.3773 12.3332
515 4 15.9412 2.26003 14.4412
516 1 14.9838 1.44152 13.0529
517 2 14.0098 1.89404 12.8011
518 2 15.5208 1.37594 12.0478
519 2 14.6967 0.414213 13.3434
520 1 17.6365 1.59474 14.9407
521 2 17.8512 1.99429 15.9574
522 2 17.7102 0.483526 15.0277
523 2 18.3762 1.94822 14.2618
ITEM: TIMESTEP
1000
ITEM: NUMBER OF ATOMS
523
ITEM: BOX BOUNDS pp pp pp
-3.5591459955419680e-03 2.2003559145995482e+01
-3.0867442684971991e-03 1.9083049744268521e+01
-3.2355872686764542e-03 2.0003235587268684e+01
ITEM: ATOMS id type x y z
1 4 2.22045 14.673 1.65689
2 3 2.89126 14.2376 0.240475
3 1 1.17781 16.25 1.88635
4 2 0.914776 16.6929 0.96271
5 2 0.330445 15.8729 2.47526
6 2 1.71 16.9136 2.53997
7 1 2.55428 13.5554 3.14866
8 2 1.63542 13.2941 3.64973
9 2 3.0909 12.6761 2.77892
10 2 3.12284 14.2175 3.84667
11 4 2.30951 12.8157 19.6065
12 3 3.5075 11.7645 19.8629
13 1 2.27662 13.2854 17.7568
14 2 3.06362 12.6038 17.3867
15 2 1.25548 13.2553 17.2042
16 2 2.52242 14.3021 17.6979
17 1 0.529114 12.3024 0.208584
18 2 0.234523 11.2104 19.9697
19 2 0.451301 12.2795 1.29433
20 2 21.8631 12.8839 19.7769
21 4 4.09653 10.3507 0.507006
22 3 2.83498 9.44966 1.12871
23 1 5.29732 10.6947 1.97515
24 2 5.29033 11.7308 2.31595
25 2 5.10902 10.0594 2.8599
26 2 6.30863 10.3917 1.74235
27 1 5.04917 9.04157 19.6244
28 2 4.34768 8.50562 18.9455
29 2 6.02274 9.30485 19.1373
30 2 5.25686 8.24718 0.375235
31 4 2.13701 8.34938 2.12956
32 3 1.68306 7.06163 1.10955
33 1 0.747833 9.31512 2.83657
34 2 21.892 8.78719 3.25183
35 2 1.09328 9.90369 3.66728
36 2 0.485505 10.0488 2.05966
37 1 3.54239 7.81422 3.31344
38 2 4.00679 8.67739 3.78047
39 2 3.22923 7.14015 4.10539
40 2 4.29521 7.29358 2.66031
41 4 0.670453 5.81736 1.35966
42 3 1.48552 4.59812 0.442425
43 1 21.0744 6.18158 0.484302
44 2 21.3312 6.44724 19.4643
45 2 20.3618 5.30104 0.542184
46 2 20.7003 7.09429 0.981158
47 1 0.880697 4.87817 3.05566
48 2 0.0983425 4.11136 3.02434
49 2 1.89245 4.44482 3.02983
50 2 0.653619 5.50807 3.96145
51 4 2.72821 3.68078 0.0863263
52 1 2.94111 3.30127 18.2803
53 2 2.20262 3.85545 17.7189
54 2 4.03174 3.59663 18.1362
55 2 2.85858 2.24348 17.9735
56 1 2.60864 2.13277 1.13523
57 2 1.58354 1.72424 1.0046
58 2 3.26039 1.32889 0.785141
59 2 2.8505 2.30449 2.19536
60 4 7.57461 14.2361 3.15389
61 3 7.47903 13.9343 1.57396
62 1 8.28865 15.962 3.40128
63 2 8.7661 16.0436 4.40159
64 2 9.0862 16.1971 2.65109
65 2 7.50699 16.7086 3.34167
66 1 5.77145 14.1097 3.63008
67 2 5.42944 13.7388 4.59496
68 2 5.46044 15.1175 3.62576
69 2 5.20011 13.5699 2.82252
70 4 8.22648 13.4941 0.138125
71 3 9.18242 12.1543 0.69281
72 1 9.31743 14.8839 19.6699
73 2 10.1534 14.4205 0.0366435
74 2 9.21384 15.1883 18.5633
75 2 9.00936 15.8592 -0.00649562
76 1 6.85158 12.9488 18.8357
77 2 5.98814 12.3346 19.0779
78 2 6.38523 13.7767 18.4133
79 2 7.34222 12.5172 18.0631
80 4 10.462 11.2502 0.128436
81 3 9.69313 9.70718 0.29553
82 1 11.8397 11.5506 1.30726
83 2 11.4926 11.7257 2.32182
84 2 12.5831 10.8215 1.38203
85 2 12.2139 12.5257 1.00365
86 1 11.0137 11.68 18.4446
87 2 10.4396 10.927 17.7854
88 2 10.8236 12.7153 18.0339
89 2 12.1072 11.5274 18.34
90 4 10.5298 8.39958 0.865434
91 3 9.65686 7.02375 0.718258
92 1 10.9082 8.54938 2.71732
93 2 10.2487 9.2464 3.22561
94 2 10.8523 7.51749 3.20783
95 2 11.901 8.91021 2.90161
96 1 12.1119 8.28298 19.8751
97 2 12.021 7.5965 19.0279
98 2 12.1135 9.30762 19.3819
99 4 9.47952 5.49359 1.45071
100 3 9.26207 4.3972 0.270971
101 1 7.88571 5.86214 2.39452
102 2 6.98724 5.86286 1.78169
103 2 7.71644 5.10512 3.20776
104 2 8.0456 6.86353 2.93496
105 1 10.9538 4.64797 2.24414
106 2 10.7509 4.59654 3.31796
107 2 11.0883 3.63639 1.87442
108 2 11.9074 5.16371 2.12351
109 4 9.15548 4.01151 18.743
110 1 7.47942 3.4919 17.9955
111 2 6.79624 3.69963 18.796
112 2 7.34509 4.06493 17.1162
113 2 7.72809 2.44916 17.7508
114 1 10.3746 2.55796 18.6586
115 2 11.1009 2.81452 19.4428
116 2 9.87768 1.74784 19.2845
117 2 10.7444 2.23813 17.6746
118 4 19.2728 14.2878 1.41176
119 3 18.2704 13.6249 19.9161
120 1 19.6958 12.7615 2.50921
121 2 20.4567 12.9653 3.28344
122 2 18.749 12.5549 3.06444
123 2 19.9883 11.8251 1.96297
124 1 20.4715 15.4773 0.457114
125 2 19.7791 16.2367 19.836
126 2 21.0012 16.0864 1.18894
127 2 21.1943 15.0272 19.8292
128 4 17.0042 12.8219 19.7657
129 3 17.15 11.3843 19.2629
130 1 17.9459 15.4255 2.18724
131 2 17.0031 15.1156 2.67094
132 2 18.4363 16.2134 2.84046
133 2 17.6299 16.0226 1.31104
134 1 15.3248 13.5899 19.906
135 2 14.9039 14.3001 19.258
136 2 14.7594 12.6123 19.7856
137 2 15.467 13.7359 0.991971
138 4 17.2069 9.74682 0.160442
139 3 15.6843 9.08992 19.8696
140 1 18.6119 8.67915 19.427
141 2 19.5738 9.17055 19.1466
142 2 18.8473 7.70253 19.8172
143 2 18.212 8.49437 18.3881
144 1 17.6862 9.61439 2.08997
145 2 17.1561 8.83054 2.6153
146 2 18.7697 9.43961 2.1787
147 2 17.3315 10.6265 2.52651
148 4 14.9792 7.71884 19.5432
149 3 16.1624 6.70699 0.0741964
150 1 13.3289 7.66358 0.495786
151 2 12.9832 6.73113 0.988524
152 2 13.8589 8.35439 1.24992
153 1 14.6225 7.50711 17.7491
154 2 15.2332 8.19478 17.0959
155 2 15.0085 6.51496 17.378
156 2 13.5229 7.70609 17.6739
157 4 16.2474 5.53047 1.24017
158 3 15.456 4.22802 0.686498
159 1 15.6978 5.91534 2.97792
160 2 14.6125 6.16516 2.98351
161 2 15.8957 5.07179 3.67169
162 2 16.1535 6.82919 3.42518
163 1 17.9019 4.75431 1.6147
164 2 18.3817 4.43931 0.742951
165 2 18.5077 5.44131 2.23093
166 2 17.6018 3.93068 2.25891
167 4 16.2037 3.19864 19.5707
168 1 14.434 2.44597 19.0491
169 2 14.8283 1.63149 18.5123
170 2 13.8508 2.32792 19.9924
171 2 13.8181 3.00461 18.3479
172 1 16.77 1.58715 0.350832
173 2 17.6482 1.08673 19.966
174 2 16.9658 1.85137 1.46368
175 2 15.9183 0.882629 0.35345
176 4 3.85717 15.2957 9.1821
177 3 4.89598 14.0374 9.16812
178 1 4.78313 16.7055 9.96385
179 2 5.12597 16.4575 10.9699
180 2 5.6472 16.94 9.28912
181 2 4.25364 17.6773 10.1113
182 1 3.21009 15.4429 7.42777
183 2 2.285 16.01 7.39081
184 2 3.96938 15.8676 6.70753
185 2 2.94627 14.4137 7.13986
186 4 6.35556 13.3402 8.65692
187 3 6.52762 11.9931 9.70481
188 1 7.88169 14.4311 8.77467
189 2 8.21676 14.4048 9.81885
190 2 8.718 13.9243 8.2481
191 2 7.69245 15.4738 8.48223
192 1 6.15004 12.5572 6.96957
193 2 6.6651 11.5926 6.97268
194 2 5.10175 12.3125 6.72704
195 2 6.55997 13.0791 6.06145
196 4 6.38433 10.3635 10.0115
197 3 4.9289 9.57936 9.92239
198 1 6.81213 10.1664 11.8873
199 2 7.86719 10.5138 11.91
200 2 6.25457 10.6912 12.6479
201 2 6.77479 9.10342 12.1235
202 1 8.03219 9.97861 9.09934
203 2 8.59672 9.07524 9.37978
204 2 7.99005 9.90859 7.98385
205 2 8.56975 10.8744 9.47051
206 4 3.495 9.03978 9.27351
207 3 3.8583 7.44034 8.98471
208 1 2.04951 9.13559 10.3999
209 2 2.2497 8.62635 11.3422
210 2 1.72071 10.215 10.5665
211 2 1.24324 8.58091 9.92169
212 1 3.2489 10.1728 7.80677
213 2 4.14928 10.83 7.77627
214 2 3.21737 9.65995 6.83658
215 2 2.44337 10.9066 7.80385
216 4 5.25534 6.64376 8.65376
217 3 6.11852 6.15848 10.0133
218 1 4.86182 5.13611 7.65441
219 2 5.67581 5.0188 6.94007
220 2 4.68393 4.21537 8.23658
221 2 4.00758 5.4139 7.05666
222 1 6.1954 7.73411 7.39547
223 2 7.19727 7.35295 7.10296
224 2 5.53587 7.88513 6.52181
225 2 6.37286 8.77243 7.78543
226 4 6.71311 4.51708 10.132
227 1 7.13506 3.45647 8.62895
228 2 6.27925 3.03191 8.1357
229 2 7.92257 3.93475 7.99522
230 2 7.54448 2.54009 9.06435
231 1 7.93218 4.58301 11.5747
232 2 8.93303 4.18132 11.2559
233 2 8.03117 5.68066 11.6919
234 4 14.0281 15.0689 5.00305
235 3 12.5808 14.1994 4.89678
236 1 15.0855 14.8193 6.58451
237 2 14.5752 15.1053 7.50592
238 2 15.3795 13.7294 6.65665
239 2 15.9711 15.4293 6.47869
240 1 13.828 16.7781 4.19495
241 2 12.8006 16.6759 3.80295
242 2 13.7916 17.5802 4.90812
243 2 14.5277 16.9793 3.38388
244 4 11.2757 13.6809 5.92784
245 3 11.6243 12.3944 6.91819
246 1 11.0682 15.1162 7.14004
247 2 10.2911 15.9039 6.86912
248 2 10.8385 14.8526 8.2061
249 2 12.0167 15.6454 7.21744
250 1 9.93512 13.2849 4.85559
251 2 10.0781 13.5648 3.80617
252 2 9.71993 12.21 5.02056
253 2 9.05611 13.8165 5.27706
254 4 12.7921 11.378 7.35244
255 3 12.2013 9.89123 7.86015
256 1 13.3319 12.0284 9.04773
257 2 13.7206 13.0718 9.20424
258 2 12.3854 12.0446 9.62252
259 2 14.0503 11.3946 9.60932
260 1 14.0433 11.1573 5.97752
261 2 14.329 12.0793 5.37776
262 2 14.9771 10.6672 6.31882
263 2 13.6081 10.5413 5.14037
264 4 12.7757 8.61261 8.72309
265 3 12.1985 7.19456 7.96703
266 1 12.2467 9.06603 10.484
267 2 11.5656 9.94653 10.5058
268 2 11.6161 8.30465 11.0262
269 2 13.2452 9.24676 10.9604
270 1 14.6035 8.28074 8.69172
271 2 14.9293 7.63934 9.5455
272 2 14.8916 7.81625 7.71961
273 2 15.1166 9.21223 8.69131
274 4 11.3232 5.92602 8.39119
275 3 11.0924 5.00601 7.00041
276 1 9.77645 6.70582 9.09264
277 2 9.80789 7.75012 8.76802
278 2 8.82687 6.24872 8.82307
279 2 9.79272 6.59774 10.1996
280 1 12.1623 4.99494 9.73109
281 2 12.9547 4.33878 9.30091
282 2 12.654 5.75775 10.3321
283 2 11.4657 4.46905 10.3856
284 4 10.9061 4.21936 5.58638
285 1 9.33511 3.57702 5.01582
286 2 9.08939 3.27553 3.97025
287 2 8.68716 3.1698 5.82782
288 1 12.5699 3.79542 4.89302
289 2 13.2118 4.6794 4.87623
290 2 13.0663 3.07818 5.49687
291 2 12.4296 3.40135 3.90359
292 4 20.5034 14.7283 8.70166
293 3 20.5987 13.705 10.0107
294 1 20.0933 14.0507 7.05459
295 2 19.9189 15.0459 6.4512
296 2 20.9155 13.6073 6.50476
297 2 19.2169 13.4577 6.96867
298 1 21.4327 16.3207 8.59021
299 2 21.4968 16.5646 7.56948
300 2 21.1126 17.2054 9.17844
301 2 0.465416 16.1385 9.07578
302 4 19.4421 12.5218 10.2676
303 3 19.7878 11.3957 9.04085
304 1 19.999 11.778 11.9102
305 2 19.5075 10.8165 12.0535
306 2 21.0473 11.6063 11.7046
307 2 19.8384 12.4129 12.7508
308 1 17.7786 13.3182 10.2006
309 2 17.6602 14.0713 9.37629
310 2 17.0541 12.499 10.107
311 2 17.6035 13.6941 11.2002
312 4 18.9716 10.2156 8.24292
313 3 20.0914 9.14657 7.57834
314 1 17.945 9.54078 9.61914
315 2 17.4612 10.2857 10.196
316 2 17.1352 8.91429 9.22837
317 2 18.6099 8.90652 10.2677
318 1 18.0984 10.8695 6.72421
319 2 18.8931 11.0043 5.99947
320 2 17.3619 10.1265 6.31661
321 2 17.5475 11.8219 6.89544
322 4 19.9706 7.63203 6.87429
323 3 21.4283 6.89838 7.08512
324 1 18.6073 6.72262 7.79471
325 2 17.6593 7.27739 7.62147
326 2 18.4592 5.79773 7.22277
327 2 18.6909 6.56192 8.88717
328 1 19.4389 7.81203 5.0593
329 2 19.9957 8.63387 4.58676
330 2 19.5329 6.90977 4.42514
331 2 18.3962 8.10412 5.09593
332 4 21.6922 5.22497 7.10373
333 3 21.4863 4.6644 8.65393
334 1 20.3699 4.43916 6.11507
335 2 19.7335 3.70383 6.63041
336 2 19.734 5.20119 5.70736
337 2 20.8281 3.84054 5.2834
338 1 1.53704 4.91169 6.91966
339 2 1.83115 4.01055 7.51834
340 2 2.05902 5.02175 5.98128
341 2 1.90991 5.77902 7.60561
342 4 20.4057 4.49819 9.87567
343 1 18.6144 4.0033 9.52881
344 2 18.2742 4.12317 8.49802
345 2 18.4203 2.99341 9.82243
346 2 17.9701 4.62367 10.1121
347 1 21.1918 3.374 11.1173
348 2 21.9023 3.90909 11.7941
349 2 20.348 3.03882 11.7697
350 2 21.6431 2.45966 10.6404
351 4 1.6006 14.2654 13.8473
352 3 0.711975 13.2857 14.9983
353 1 3.31634 15.0068 14.0324
354 2 3.95352 14.2673 14.5603
355 2 3.70316 14.8819 13.0231
356 2 3.44394 16.0322 14.3621
357 1 0.483011 15.7541 13.1943
358 2 21.5451 15.8797 13.5327
359 2 1.28217 16.6527 13.1589
360 2 0.503669 15.4451 12.1101
361 4 0.74741 11.7411 15.4963
362 3 2.3349 11.2462 15.5998
363 1 21.9456 10.9107 16.8227
364 2 21.0128 11.3702 17.1856
365 2 21.4321 10.0279 16.5996
366 2 0.403725 10.7988 17.9518
367 1 1.99203 13.2004 12.2707
368 2 2.83689 12.4848 12.2981
369 2 1.06555 12.7584 11.9554
370 2 2.32969 13.9015 11.4929
371 4 3.52262 10.162 15.5258
372 3 2.7486 8.72053 15.533
373 1 4.88228 10.2065 16.8994
374 2 4.69835 11.0479 17.5214
375 2 4.88211 9.33193 17.5086
376 2 5.82965 10.3226 16.4475
377 1 4.56521 10.812 14.1391
378 2 4.18537 11.7641 13.6893
379 2 5.55946 11.021 14.5525
380 2 4.74389 10.1178 13.2902
381 4 3.57298 7.44941 14.8642
382 3 2.70272 6.83293 13.5895
383 1 3.85379 6.17123 16.2299
384 2 4.7276 5.52648 15.8347
385 2 4.17872 6.55422 17.2173
386 2 2.98275 5.54854 16.3543
387 1 5.33245 7.74516 14.2019
388 2 5.32442 8.19478 13.22
389 2 5.86356 8.4261 14.857
390 2 5.86042 6.75622 14.1455
391 4 1.59124 5.82072 12.884
392 3 1.80369 4.32877 13.6187
393 1 21.7933 6.25884 13.3882
394 2 21.6391 5.37488 13.9758
395 2 21.5579 7.1784 13.9351
396 2 21.1291 6.16164 12.5442
397 1 2.07324 5.73792 11.1185
398 2 3.18783 5.86953 11.0811
399 2 1.71425 4.80048 10.7066
400 2 1.71076 6.55418 10.4552
401 4 2.96593 3.25488 13.7049
402 1 2.88784 2.64743 15.5
403 2 3.89799 2.28697 15.7419
404 2 2.67988 3.55702 16.0088
405 2 2.16214 1.88259 15.7594
406 1 4.52251 3.7923 12.746
407 2 4.58242 4.88243 12.6643
408 2 4.54691 3.5166 11.6982
409 4 9.73612 15.648 13.4374
410 3 8.73086 14.9885 14.5636
411 1 11.1802 16.4542 14.3145
412 2 11.6626 17.2208 13.7126
413 2 10.7969 17.0055 15.2002
414 2 11.8978 15.7199 14.7027
415 1 8.75886 16.659 12.1741
416 2 9.45288 16.8192 11.3142
417 2 7.807 16.3102 11.6937
418 2 8.45541 17.6292 12.5494
419 4 7.78681 13.6202 14.1953
420 3 8.59634 12.313 14.9011
421 1 6.29998 13.652 15.2414
422 2 6.565 14.3095 16.0948
423 2 5.52359 14.1609 14.6468
424 2 5.88717 12.7128 15.6019
425 1 7.5427 13.5283 12.3573
426 2 7.23105 14.5623 12.0898
427 2 8.45107 13.3183 11.8239
428 2 6.72727 12.8641 12.0628
429 4 10.2082 11.8093 14.7102
430 3 10.1085 10.2065 15.3764
431 1 11.5148 13.0613 15.4899
432 2 11.0092 13.7434 16.147
433 2 12.4467 12.6871 15.9857
434 2 11.8988 13.6733 14.6163
435 1 10.6168 11.61 12.9667
436 2 11.4768 12.2584 12.6516
437 2 10.9305 10.5765 12.7143
438 2 9.78524 11.8619 12.2832
439 4 10.8098 8.69684 15.076
440 3 9.83572 7.56815 14.1461
441 1 10.9454 8.03714 16.7863
442 2 10.0103 7.83419 17.2983
443 2 11.651 7.21807 16.8414
444 2 11.2967 8.87683 17.3862
445 1 12.6163 8.70068 14.3467
446 2 12.5739 9.13423 13.3146
447 2 13.1529 9.45488 14.9885
448 4 8.95904 6.44807 15.0275
449 3 8.19237 5.3065 14.1106
450 1 7.80425 7.22763 16.2741
451 2 6.72161 7.08462 16.0806
452 2 8.06158 6.62847 17.1327
453 2 7.98454 8.27442 16.577
454 1 9.84467 5.27344 16.1262
455 2 9.21446 4.34703 16.1211
456 2 10.8829 4.92875 15.9311
457 2 9.88704 5.6654 17.1427
458 4 7.57591 3.95588 13.3277
459 1 5.82879 3.23676 13.5284
460 2 5.62593 3.18417 14.6153
461 2 5.94621 2.1849 13.2044
462 1 8.61545 2.41989 13.6202
463 2 9.58409 2.68215 13.1156
464 2 8.8443 2.15992 14.679
465 2 8.17198 1.61715 13.0022
466 4 17.4523 15.6285 14.0696
467 3 18.1804 14.1138 14.1842
468 1 18.5833 17.1065 14.6071
469 2 17.9838 17.911 15.1288
470 2 19.4705 16.7643 15.1918
471 2 19.0525 17.6113 13.7435
472 1 16.8719 15.871 12.3146
473 2 16.3687 14.9995 11.8643
474 2 16.0841 16.6634 12.3068
475 2 17.6688 16.348 11.715
476 4 17.668 13.0854 15.352
477 3 17.0561 11.7093 14.6844
478 1 18.7899 12.7746 16.7572
479 2 18.4639 12.2539 17.7134
480 2 19.728 12.3204 16.424
481 2 19.2037 13.7663 17.0646
482 1 16.2308 14.2048 16.1889
483 2 15.2416 14.2674 15.6945
484 2 16.146 14.1521 17.2945
485 2 16.5626 15.299 16.1999
486 4 15.5756 10.8763 14.7998
487 3 15.924 9.27208 14.678
488 1 14.8995 11.2153 16.4998
489 2 14.2922 12.1236 16.4864
490 2 14.26 10.3863 16.9042
491 2 15.7341 11.4105 17.1357
492 1 14.4661 11.2974 13.3528
493 2 13.5126 10.7229 13.3318
494 2 14.3202 12.3808 13.3045
495 2 15.0234 11.0878 12.4697
496 4 15.3945 7.89304 13.9838
497 3 16.2371 6.68123 14.7211
498 1 13.5583 7.50407 14.2659
499 2 13.2287 6.84193 13.417
500 2 13.3836 6.90733 15.1611
501 1 15.6765 7.95107 12.1144
502 2 15.2692 7.05381 11.6369
503 2 15.1751 8.85277 11.7455
504 2 16.7019 8.01424 11.824
505 4 17.5017 5.64089 14.5662
506 3 17.2615 4.2218 15.3504
507 1 17.8492 5.37079 12.7007
508 2 18.5744 4.62131 12.4521
509 2 16.9857 5.15077 12.0723
510 2 18.1985 6.33684 12.2825
511 1 18.9922 6.41099 15.4158
512 2 19.1379 7.38752 14.9573
513 2 18.8912 6.65589 16.4789
514 2 19.9183 5.90513 15.2567
515 4 16.3388 3.39057 16.4722
516 1 14.6769 3.04268 15.7003
517 2 13.9235 3.80986 15.993
518 2 14.7123 3.06382 14.5978
519 2 14.2519 2.05956 16.0796
520 1 17.3923 1.87144 16.8755
521 2 16.772 1.25665 17.4905
522 2 17.5516 1.36784 15.965
523 2 18.3023 2.14523 17.3931
ITEM: TIMESTEP
1500
ITEM: NUMBER OF ATOMS
523
ITEM: BOX BOUNDS pp pp pp
-5.5101913689874493e-03 2.2005510191368906e+01
-4.7788294292789857e-03 1.9084741829429241e+01
-5.0092648809503260e-03 2.0005009264880975e+01
ITEM: ATOMS id type x y z
1 4 1.16932 13.5251 2.46205
2 3 1.48457 12.2564 1.46156
3 1 2.04701 15.158 1.81125
4 2 1.50614 16.0334 2.1685
5 2 3.05686 15.2406 2.31417
6 2 2.23937 15.2276 0.762789
7 1 1.88176 13.0493 4.20888
8 2 1.64298 13.6158 5.05555
9 2 1.60287 12.0329 4.45537
10 2 2.97494 12.9971 4.19902
11 4 2.4649 12.0176 0.125308
12 3 3.67336 10.7511 0.518193
13 1 3.40943 13.3887 19.3724
14 2 2.6418 14.1974 19.12
15 2 4.30443 13.8102 19.9538
16 2 3.72519 12.8276 18.4971
17 1 1.15235 11.6155 18.8647
18 2 0.788665 12.3931 18.4711
19 2 1.62608 11.5042 18.0174
20 2 0.833056 10.8374 19.1365
21 4 4.40443 9.44244 1.15969
22 3 3.47235 8.13931 1.81539
23 1 5.33616 10.4768 2.54002
24 2 5.67676 11.3988 2.05007
25 2 4.60029 10.7086 3.3397
26 2 6.18111 9.9637 3.03781
27 1 5.5552 8.34171 0.422324
28 2 5.12645 8.30785 19.2995
29 2 6.5831 8.41809 0.769646
30 2 5.21398 7.39126 0.859497
31 4 1.90807 7.7959 2.29658
32 3 0.897039 7.47917 1.09164
33 1 1.25679 9.29934 3.28273
34 2 1.98482 9.37266 4.13267
35 2 1.2796 10.1376 2.60842
36 2 0.19089 9.02485 3.63726
37 1 2.21559 6.29396 3.40939
38 2 2.39792 6.60059 4.42545
39 2 1.49782 5.48082 3.38648
40 2 3.19856 5.85132 3.13053
41 4 0.712528 6.26847 19.8079
42 3 1.93808 4.99318 0.289018
43 1 1.16166 6.88651 18.1245
44 2 2.18044 7.1778 18.1643
45 2 0.957472 6.33676 17.2071
46 2 0.398716 7.76854 17.9669
47 1 20.8345 5.78048 19.6205
48 2 20.1559 6.62692 19.7504
49 2 20.8157 5.39481 18.6468
50 2 20.4358 5.02777 0.379949
51 4 2.38096 3.56663 0.701775
52 1 3.87073 2.70406 1.23454
53 2 3.55307 2.12162 2.14657
54 2 4.25972 1.95194 0.557824
55 2 4.80014 3.21614 1.56706
56 1 0.990648 2.09333 0.867498
57 2 0.872684 1.90889 1.94807
58 2 -0.0152279 2.29801 0.430318
59 2 1.33194 1.11546 0.421753
60 4 7.7718 14.0938 3.06609
61 3 7.1643 13.7776 1.51572
62 1 9.31917 15.3473 2.81013
63 2 9.66349 15.4921 3.84383
64 2 10.1785 14.9503 2.22596
65 2 8.9858 16.3414 2.41734
66 1 6.27786 15.013 3.7571
67 2 6.08167 16.0257 3.429
68 2 5.45969 14.3916 3.43419
69 2 6.34479 14.9487 4.88837
70 4 8.13389 13.5924 0.281406
71 3 9.5105 12.7272 0.889676
72 1 8.27404 15.1964 19.5025
73 2 8.82018 15.9312 0.0714864
74 2 8.798 15.1628 18.5228
75 2 7.31312 15.7993 19.3916
76 1 7.211 12.2377 19.1438
77 2 6.25191 12.4924 18.886
78 2 7.85764 12.013 18.2641
79 2 7.26008 11.2611 19.7347
80 4 10.8175 12.0006 0.0567124
81 3 10.5461 10.3838 0.365449
82 1 12.2491 12.8833 0.9602
83 2 11.909 13.0506 2.03078
84 2 13.1235 12.2099 0.762809
85 2 12.564 13.8569 0.502458
86 1 10.3985 12.7289 18.4706
87 2 11.1987 12.5628 17.7714
88 2 9.58562 12.0032 18.2701
89 2 9.94014 13.7456 18.5362
90 4 10.8759 9.02059 1.24279
91 3 9.89636 7.91106 0.457665
92 1 10.1934 9.06997 2.98534
93 2 9.68243 9.97859 3.29692
94 2 9.55867 8.13123 3.14263
95 2 11.069 8.89404 3.6431
96 1 12.796 8.98617 1.60443
97 2 12.8877 9.35005 0.390677
98 2 12.9484 9.83968 2.14945
99 4 9.54576 6.27722 0.672697
100 3 9.45627 5.0694 19.4866
101 1 7.8557 6.10698 1.58462
102 2 7.08227 6.71112 1.20671
103 2 7.51082 5.08434 1.37583
104 2 7.84883 6.25096 2.63704
105 1 10.8192 5.39913 1.82259
106 2 10.4941 4.34425 1.77915
107 2 11.8415 5.4731 1.45499
108 2 10.7952 5.67077 2.8663
109 4 9.1396 3.69391 18.5677
110 1 7.58431 2.76659 18.3077
111 2 6.6189 3.34897 18.3255
112 2 7.44372 2.30289 17.3217
113 2 7.45638 2.06061 19.1766
114 1 10.5318 2.46673 18.7691
115 2 10.8843 1.96963 17.8734
116 2 11.4477 2.92344 19.2103
117 2 10.2458 1.58529 19.4084
118 4 19.5227 14.4214 1.69
119 3 18.514 13.3791 2.59581
120 1 21.0707 13.5387 1.38068
121 2 21.3818 13.7695 0.342051
122 2 21.7256 14.2999 1.96406
123 2 21.0376 12.4214 1.42687
124 1 18.8859 14.9803 19.8641
125 2 19.7342 14.5848 19.1795
126 2 17.8681 14.5851 19.6796
127 2 19.1147 15.9792 19.6934
128 4 17.0907 12.7908 1.67191
129 3 17.3673 11.1172 1.53117
130 1 19.8552 16.0619 2.57927
131 2 20.0081 16.0435 3.71641
132 2 20.8487 16.307 2.20471
133 2 19.1959 16.9364 2.34281
134 1 15.5137 12.6369 2.89364
135 2 14.6764 13.5876 2.53116
136 2 14.809 11.9984 2.4334
137 2 15.6153 11.947 3.6993
138 4 17.4398 9.87017 0.114205
139 3 16.5782 8.67875 0.912808
140 1 16.1141 10.6502 19.0544
141 2 16.4294 10.2213 18.0334
142 2 15.0667 10.4941 19.295
143 2 16.2723 11.765 19.0161
144 1 19.1748 9.61384 19.6277
145 2 19.5663 10.7067 20.0563
146 2 20.0209 9.08998 0.0576946
147 2 18.9697 9.5451 18.5832
148 4 15.2927 7.53095 0.53093
149 3 16.0257 6.02222 0.818968
150 1 14.0184 7.84859 1.93403
151 2 13.6578 6.87328 2.18433
152 2 14.7363 8.16748 2.64937
153 1 14.6582 7.63348 18.8376
154 2 13.8441 8.25525 19.257
155 2 15.4967 8.25115 18.34
156 2 14.4656 6.76111 18.1001
157 4 16.1502 4.51382 1.20321
158 3 16.2597 3.73546 19.6897
159 1 14.5851 3.61522 1.78204
160 2 13.7405 3.70316 1.08636
161 2 14.7469 2.55161 1.93827
162 2 14.1974 4.05602 2.74099
163 1 17.6716 4.19084 2.30117
164 2 18.626 4.6056 2.01298
165 2 17.3923 4.47917 3.3235
166 2 17.9701 3.09466 2.26114
167 4 15.9515 2.47889 18.583
168 1 14.7969 1.16121 19.3131
169 2 15.0003 0.414045 20.0091
170 2 14.3248 2.02907 19.7164
171 2 14.2599 0.938007 18.3637
172 1 17.7329 1.92106 17.9122
173 2 18.3045 2.11583 18.8644
174 2 17.8115 0.809004 17.6367
175 2 18.2664 2.29215 17.0222
176 4 3.61647 15.4748 8.55344
177 3 5.10424 14.8556 8.79746
178 1 3.78427 17.3234 8.74756
179 2 3.25819 17.6846 9.66514
180 2 4.85394 17.6147 8.72949
181 2 3.32804 17.9254 7.9137
182 1 3.09859 14.7556 6.90205
183 2 3.11078 13.6722 7.04428
184 2 2.10191 15.0898 6.50206
185 2 3.86837 14.9629 6.18459
186 4 6.60769 14.1184 8.57713
187 3 6.36949 12.6781 9.30653
188 1 7.97844 14.866 9.55518
189 2 7.67488 15.3031 10.5019
190 2 8.7698 14.1691 9.81744
191 2 8.344 15.7127 8.99467
192 1 7.13555 14.4148 6.84424
193 2 8.08371 13.9295 6.66349
194 2 6.33116 14.098 6.17714
195 2 7.23676 15.5326 6.70838
196 4 6.96779 11.1676 8.96582
197 3 6.0535 10.3441 7.83285
198 1 6.97878 10.096 10.4739
199 2 7.00389 10.6324 11.4551
200 2 6.07213 9.48354 10.4333
201 2 7.84194 9.43797 10.5177
202 1 8.67373 11.3883 8.14092
203 2 9.11756 10.3308 8.15074
204 2 8.60015 11.585 7.06412
205 2 9.3544 12.0951 8.66851
206 4 4.52091 9.6653 8.08104
207 3 4.83748 8.09745 8.53951
208 1 3.85134 10.6733 9.46072
209 2 2.77609 10.727 9.39525
210 2 4.0152 10.1953 10.4869
211 2 4.25196 11.6813 9.56125
212 1 3.66086 9.58607 6.44345
213 2 4.16199 10.2107 5.71603
214 2 3.81995 8.54701 6.20266
215 2 2.60683 9.79984 6.5156
216 4 4.89942 6.45846 8.2514
217 3 5.9091 5.78285 9.31278
218 1 3.15199 5.76501 8.43552
219 2 2.94647 5.1571 7.55218
220 2 3.00276 5.03911 9.27072
221 2 2.46069 6.55811 8.63395
222 1 5.39111 6.44678 6.40097
223 2 6.29439 5.93182 6.13984
224 2 4.5255 6.06824 5.85832
225 2 5.43784 7.46358 5.94182
226 4 5.92549 4.80971 10.7534
227 1 6.62745 3.17424 9.97414
228 2 7.31287 2.62328 10.6447
229 2 5.7613 2.47462 9.82824
230 2 7.18648 3.40326 9.03583
231 1 7.3741 5.58529 11.8912
232 2 8.16562 5.09478 11.2511
233 2 7.3685 6.68656 11.8789
234 4 14.4766 14.6055 3.77798
235 3 13.4237 13.7429 4.62469
236 1 15.9363 15.1644 4.77015
237 2 15.6525 15.8921 5.53694
238 2 16.3367 14.2586 5.26691
239 2 16.6552 15.5658 4.1116
240 1 13.6814 15.8106 2.6383
241 2 13.3451 15.3895 1.68291
242 2 12.7976 16.0787 3.18397
243 2 14.2769 16.7067 2.35454
244 4 12.0672 13.5144 5.64097
245 3 12.6535 12.7501 6.9892
246 1 11.4118 15.1399 5.97214
247 2 11.2212 15.6088 4.9474
248 2 10.4233 14.9887 6.50959
249 2 12.0958 15.8103 6.54083
250 1 10.8892 12.3615 4.79454
251 2 10.5813 12.6856 3.76909
252 2 11.5178 11.4467 4.59577
253 2 10.006 12.0937 5.38208
254 4 13.7988 11.5928 7.46246
255 3 13.1563 10.1063 7.75308
256 1 14.782 12.3811 8.9243
257 2 14.4856 13.4364 8.99139
258 2 14.6549 11.731 9.8043
259 2 15.8585 12.3713 8.68149
260 1 14.7127 11.2038 5.87799
261 2 15.6034 11.8311 5.75173
262 2 14.8213 10.1528 5.74302
263 2 14.0106 11.5688 5.07844
264 4 12.84 8.87913 8.69802
265 3 11.3215 8.37242 8.27565
266 1 12.5065 9.49839 10.5089
267 2 13.4318 9.73256 11.0299
268 2 11.7723 10.239 10.6461
269 2 12.0395 8.68452 11.0494
270 1 14.2928 7.71581 8.67248
271 2 14.3587 7.28721 9.68048
272 2 14.3468 6.91442 7.96588
273 2 15.1863 8.26446 8.60089
274 4 10.5538 6.87616 8.43317
275 3 11.063 5.74773 7.28466
276 1 8.71238 7.02647 8.26999
277 2 8.48365 6.89366 7.20548
278 2 8.12609 6.32293 8.86936
279 2 8.34543 8.04701 8.55612
280 1 11.2058 5.99789 9.94012
281 2 12.3083 5.84376 9.84047
282 2 10.9566 6.49195 10.8947
283 2 10.8574 4.96026 10.0264
284 4 10.9694 5.21475 5.76386
285 1 9.5085 4.33045 5.39077
286 2 9.23934 4.38964 4.31741
287 2 8.8894 3.76395 6.11325
288 1 12.5777 5.70921 4.93162
289 2 12.3532 6.49866 4.24899
290 2 13.1541 6.18019 5.75786
291 2 13.1294 4.96145 4.45003
292 4 21.4135 13.8529 9.58077
293 3 21.228 12.3224 10.0989
294 1 21.5009 13.9901 7.68486
295 2 0.248468 14.7528 7.3597
296 2 21.6597 12.9809 7.43831
297 2 20.6103 14.4017 7.31532
298 1 0.441867 15.2241 10.219
299 2 1.42016 15.0191 10.6315
300 2 0.459916 15.8753 9.235
301 2 -0.0648673 15.9086 10.958
302 4 19.9861 11.2284 10.4
303 3 19.8489 10.3038 8.98284
304 1 20.3872 10.5181 12.0608
305 2 19.5413 10.0256 12.5795
306 2 21.1552 9.70113 12.0309
307 2 20.8438 11.2853 12.7027
308 1 18.3509 12.0964 10.5471
309 2 18.1775 12.7762 9.71749
310 2 17.4636 11.3595 10.5094
311 2 18.1679 12.6784 11.4401
312 4 18.7088 9.25072 8.35096
313 3 19.4439 8.3666 7.16972
314 1 17.816 8.25149 9.6746
315 2 16.9513 8.83657 10.1195
316 2 17.4972 7.23643 9.3939
317 2 18.4448 8.11925 10.5635
318 1 17.3914 10.3394 7.51187
319 2 17.7362 11.2913 7.09456
320 2 16.9905 9.78088 6.61658
321 2 16.5311 10.5175 8.19015
322 4 19.0698 7.21721 6.01639
323 3 20.0237 5.84214 6.38173
324 1 17.297 6.61322 6.34392
325 2 16.8111 7.39644 6.90641
326 2 16.6578 6.35727 5.50286
327 2 17.3545 5.65268 6.87985
328 1 19.5122 7.89438 4.36007
329 2 20.4789 8.38608 4.36299
330 2 19.5124 7.07939 3.61619
331 2 18.762 8.64309 4.11505
332 4 20.8332 4.41501 6.57037
333 3 21.676 4.34866 8.04463
334 1 19.7374 2.95686 6.27503
335 2 19.8684 2.12108 6.98254
336 2 18.7144 3.29878 6.25329
337 2 19.9436 2.57663 5.22987
338 1 0.526879 4.29516 5.70537
339 2 0.356312 3.95166 4.62192
340 2 1.29569 5.01741 5.75848
341 2 0.895706 3.53423 6.36234
342 4 21.9193 3.83844 9.56296
343 1 20.3278 4.59981 10.4141
344 2 19.363 4.11256 10.188
345 2 20.3914 4.70023 11.5071
346 2 20.2608 5.62594 9.99418
347 1 0.319467 2.07945 9.95094
348 2 1.15792 2.2075 10.694
349 2 21.4802 1.74432 10.6351
350 2 0.649373 1.40303 9.04017
351 4 0.787069 14.0986 13.8321
352 3 0.99458 12.4843 14.0233
353 1 0.913017 14.9968 15.4276
354 2 1.90866 15.5113 15.3927
355 2 0.130417 15.7678 15.4597
356 2 0.937079 14.3463 16.2946
357 1 21.21 14.5085 13.056
358 2 21.2731 15.6056 12.6551
359 2 20.6611 13.8107 12.341
360 2 20.4007 14.3258 13.7228
361 4 0.746442 10.9839 14.8062
362 3 1.96256 10.8981 16.0628
363 1 21.6894 9.34321 14.9615
364 2 20.6749 9.38914 14.5657
365 2 0.689535 8.86957 14.668
366 2 21.8186 9.3396 16.047
367 1 2.53426 14.3042 12.892
368 2 2.74472 13.7748 11.9183
369 2 2.83007 15.374 12.7111
370 2 3.26884 13.9641 13.5644
371 4 3.26392 10.1585 15.4163
372 3 3.00718 8.49906 15.3838
373 1 4.55247 10.8764 16.4423
374 2 4.49034 11.9615 16.1493
375 2 4.44186 10.7443 17.5455
376 2 5.6426 10.6509 16.2161
377 1 3.42506 10.827 13.6758
378 2 3.0116 11.8429 13.553
379 2 4.45787 10.8064 13.3125
380 2 2.84705 10.077 13.0845
381 4 3.239 6.94287 14.8068
382 3 1.69377 6.40747 14.6653
383 1 4.13113 6.18319 16.3322
384 2 3.57494 6.55435 17.2226
385 2 4.06573 5.12309 16.5025
386 2 5.08063 6.59057 16.4506
387 1 4.06537 7.00165 13.1557
388 2 3.5323 7.74314 12.5334
389 2 5.09909 7.34888 13.3718
390 2 4.18405 6.10304 12.5039
391 4 1.29624 5.09895 13.6278
392 3 2.55664 4.04544 13.9204
393 1 21.6932 4.3103 13.7418
394 2 21.579 3.38493 13.1192
395 2 21.2805 3.8145 14.7386
396 2 20.7243 4.82829 13.4672
397 1 1.32223 6.23023 11.9833
398 2 0.457138 6.06181 11.2905
399 2 1.18155 7.25415 12.3354
400 2 2.25825 6.122 11.4252
401 4 3.36789 2.61464 14.1557
402 1 2.55642 1.42898 12.9651
403 2 2.68586 1.67924 11.9114
404 2 2.69691 0.356487 13.0125
405 2 1.47087 1.61929 13.1365
406 1 5.12112 3.06366 13.5985
407 2 4.87717 3.46681 12.5845
408 2 5.56194 2.06327 13.4145
409 4 10.1937 16.1325 14.4382
410 3 8.7767 15.3822 14.0788
411 1 10.2547 16.7537 16.2228
412 2 9.8348 15.9911 16.8784
413 2 11.2935 16.9738 16.5044
414 2 9.59524 17.6516 16.2233
415 1 11.3638 17.1876 13.409
416 2 11.213 17.0541 12.3664
417 2 11.3017 18.2261 13.7537
418 2 12.3431 16.8487 13.754
419 4 7.71356 14.1219 14.4978
420 3 8.5348 12.6599 14.5454
421 1 6.95341 14.1252 16.2397
422 2 6.65189 13.0693 16.3917
423 2 7.3837 14.5147 17.1668
424 2 6.00311 14.6097 16.0125
425 1 6.39124 14.18 13.2123
426 2 6.49359 13.3653 12.4503
427 2 5.43781 13.9545 13.6705
428 2 6.3823 15.1295 12.6697
429 4 9.94328 12.2707 13.8756
430 3 10.3285 10.7076 14.314
431 1 11.1088 13.6693 14.3196
432 2 10.7094 14.5439 14.9288
433 2 12.0759 13.3504 14.8125
434 2 11.5183 14.1156 13.3638
435 1 10.0348 12.3223 11.9959
436 2 10.9777 12.0201 11.5217
437 2 9.27258 11.7173 11.5641
438 2 9.96722 13.3996 11.8389
439 4 10.8937 9.34867 15.0878
440 3 9.65419 8.22232 14.7418
441 1 11.0152 9.72078 16.9553
442 2 10.1275 10.2013 17.3895
443 2 11.1856 8.81964 17.5577
444 2 11.9218 10.3574 17.012
445 1 12.5042 8.77909 14.3176
446 2 12.1988 7.96508 13.6392
447 2 12.915 9.57268 13.6646
448 4 9.19587 6.96821 15.7374
449 3 8.3129 5.92426 14.7516
450 1 8.23476 7.85587 17.16
451 2 7.82415 8.7581 16.7095
452 2 7.48242 7.14245 17.5679
453 2 8.81799 8.21376 18.0875
454 1 10.7779 6.1083 16.3003
455 2 11.1408 5.37203 15.5024
456 2 11.6383 6.77581 16.4953
457 2 10.5637 5.44164 17.131
458 4 7.7407 4.84036 13.6076
459 1 6.08197 4.05482 14.3959
460 2 5.53218 4.90637 14.7663
461 2 6.32435 3.57066 15.3544
462 1 9.0644 3.50153 13.2472
463 2 9.31095 2.83491 14.079
464 2 8.83776 2.82144 12.4135
465 2 10.0064 4.01955 12.9985
466 4 16.8966 15.7652 13.3085
467 3 16.6755 14.2656 13.9167
468 1 17.575 17.0898 14.4067
469 2 18.1472 16.5942 15.2265
470 2 18.3144 17.6204 13.754
471 2 16.9471 17.9106 14.6614
472 1 17.3345 15.383 11.4892
473 2 17.7452 16.2473 10.9479
474 2 17.9625 14.4875 11.5097
475 2 16.4351 14.9648 11.0596
476 4 17.1676 13.6486 15.4262
477 3 16.7848 12.0706 15.0339
478 1 18.8624 13.3523 16.1629
479 2 18.5614 13.2259 17.1816
480 2 19.2322 12.5019 15.6579
481 2 19.5595 14.1612 16.0439
482 1 16.1267 14.7863 16.5551
483 2 16.7456 15.6436 16.7698
484 2 15.1791 15.0792 16.0302
485 2 15.9322 14.2519 17.5009
486 4 15.4557 11.2725 14.5307
487 3 15.9318 9.64895 14.1108
488 1 14.2298 11.6906 15.9638
489 2 14.4146 12.7081 16.4098
490 2 13.1211 11.584 15.811
491 2 14.5013 10.9859 16.7781
492 1 15.014 11.6544 12.7266
493 2 14.3099 10.9465 12.3069
494 2 14.7775 12.6031 12.3889
495 2 15.9536 11.318 12.2855
496 4 15.2833 8.10104 14.4353
497 3 16.168 7.31168 15.5709
498 1 13.5855 8.19643 15.2776
499 2 13.2782 7.18063 15.4943
500 2 13.557 8.72343 16.2506
501 1 14.8581 7.15343 12.8483
502 2 14.2488 6.2452 13.0803
503 2 14.2318 7.84059 12.1791
504 2 15.7237 6.79695 12.2716
505 4 17.0572 5.96335 16.1296
506 3 16.0415 4.63229 16.2084
507 1 18.1998 5.71008 14.6255
508 2 18.481 4.66718 14.482
509 2 17.6007 6.02993 13.7555
510 2 19.1324 6.32198 14.8032
511 1 17.6793 6.48103 17.8815
512 2 18.6954 6.03939 18.1431
513 2 17.6435 7.59437 17.9967
514 2 16.9368 5.98765 18.5501
515 4 15.2494 3.16471 16.496
516 1 13.5716 4.00761 16.8681
517 2 13.8279 4.72317 17.6548
518 2 13.2778 4.52198 15.9851
519 2 12.7432 3.34105 17.1426
520 1 16.1313 2.27268 15.0242
521 2 15.6666 1.34701 14.6261
522 2 16.1516 3.11088 14.2723
523 2 17.1987 2.0785 15.38
ITEM: TIMESTEP
2000
ITEM: NUMBER OF ATOMS
523
ITEM: BOX BOUNDS pp pp pp
-7.4703417949688600e-03 2.2007470341794942e+01
-6.4788111384626035e-03 1.9086441811138442e+01
-6.7912198136745872e-03 2.0006791219813699e+01
ITEM: ATOMS id type x y z
1 4 1.29793 13.4735 3.44477
2 3 1.7742 12.4852 2.26962
3 1 2.41641 14.7987 4.21687
4 2 1.94828 15.8124 4.38303
5 2 2.71179 14.2714 5.1708
6 2 3.32799 14.8987 3.66608
7 1 0.0812092 12.7052 4.67715
8 2 21.1033 13.17 4.67923
9 2 -0.00239549 11.5921 4.76172
10 2 0.430175 13.1334 5.63854
11 4 3.21917 12.1 1.4509
12 3 3.58512 10.6695 1.63882
13 1 4.51664 13.2335 1.95252
14 2 4.77803 13.0802 2.95465
15 2 5.36263 13.2768 1.31208
16 2 4.14649 14.2277 1.87378
17 1 2.62666 12.3769 19.5825
18 2 3.53034 12.7145 18.7421
19 2 2.06219 11.7336 18.9138
20 2 2.20402 13.4462 0.0176544
21 4 4.45644 9.22344 1.67539
22 3 3.49257 8.13047 2.49524
23 1 6.14864 9.6028 2.57627
24 2 6.75487 8.68583 2.6535
25 2 6.72336 10.3975 2.06538
26 2 5.88631 9.86707 3.62337
27 1 4.66475 9.05554 19.7794
28 2 3.82096 9.54743 19.3304
29 2 5.61327 9.22355 19.1457
30 2 4.57309 7.97168 19.2585
31 4 2.00484 7.43881 2.92348
32 3 1.59967 6.27421 1.58508
33 1 0.828392 8.77866 2.68954
34 2 0.0443117 8.64492 1.98
35 2 0.543343 9.03838 3.72054
36 2 1.29722 9.74143 2.33061
37 1 1.7883 6.54227 4.49851
38 2 2.36243 6.93672 5.3309
39 2 0.735988 6.3727 4.7674
40 2 2.26245 5.55418 4.21783
41 4 1.1237 5.46215 0.25004
42 3 0.761797 3.71827 0.478463
43 1 2.56725 5.05983 19.1019
44 2 2.39511 4.22224 18.5223
45 2 2.81609 5.96085 18.4659
46 2 3.56033 4.81954 19.7559
47 1 21.2668 6.15761 19.9536
48 2 21.6403 7.11204 19.5538
49 2 20.8507 5.5236 19.1388
50 2 20.7194 6.41314 0.860371
51 4 21.9742 2.723 1.67374
52 1 1.30573 2.48645 2.84454
53 2 1.7919 3.53435 2.97783
54 2 1.35204 1.79285 3.69228
55 2 2.12687 2.09756 2.07472
56 1 20.7209 1.78841 0.365855
57 2 21.1576 0.950867 19.8754
58 2 19.8357 1.3026 0.827697
59 2 20.5341 2.63795 19.6575
60 4 7.25442 14.9346 2.64273
61 3 7.89451 13.6949 1.6681
62 1 8.73732 16.0647 3.35444
63 2 9.532 16.2399 2.641
64 2 8.28014 17.0323 3.64498
65 2 9.04878 15.6738 4.35462
66 1 6.09545 16.0305 1.72869
67 2 5.65468 16.5817 2.5624
68 2 6.58362 16.8682 1.14696
69 2 5.31407 15.555 1.08012
70 4 8.85689 13.7824 0.171561
71 3 10.0115 12.4887 0.507903
72 1 9.56478 15.2848 19.9301
73 2 8.91292 15.8001 0.573848
74 2 10.5871 15.7638 0.281978
75 2 9.48243 15.8625 18.9597
76 1 7.70951 13.6655 18.6255
77 2 6.68813 14.2619 18.8327
78 2 8.09028 14.3891 18.0184
79 2 7.23794 12.8914 18.1175
80 4 11.6117 12.2294 0.627576
81 3 11.9045 10.5317 1.01107
82 1 12.4466 12.9431 2.1277
83 2 11.9592 12.6795 3.13722
84 2 13.4774 12.3729 2.14108
85 2 12.5832 14.0365 2.23166
86 1 12.5192 13.0625 19.2019
87 2 13.1478 13.695 19.8801
88 2 13.3033 12.8527 18.4322
89 2 11.648 13.6016 18.7255
90 4 11.3752 9.18867 1.94039
91 3 10.8588 7.88231 0.97301
92 1 10.1398 9.88073 3.25388
93 2 10.2285 10.9349 3.37814
94 2 9.05851 9.65862 3.12148
95 2 10.5259 9.44523 4.18616
96 1 13.0124 9.08508 3.06011
97 2 13.5405 10.1018 2.65495
98 2 12.8212 9.23509 4.13463
99 4 10.4218 6.26604 0.81974
100 3 11.1406 5.35547 19.5251
101 1 8.5724 6.28611 0.419238
102 2 8.60841 6.73463 19.3798
103 2 8.12949 5.23999 0.664952
104 2 8.04267 7.13594 1.06426
105 1 10.629 5.41706 2.43386
106 2 11.295 4.53443 2.42027
107 2 10.9741 6.08989 3.22781
108 2 9.62239 5.0371 2.74205
109 4 11.1884 3.94147 18.6571
110 1 9.61343 3.70967 17.5824
111 2 9.6751 2.93457 16.7798
112 2 9.13176 2.99072 18.3054
113 2 9.00548 4.57909 17.3495
114 1 11.9547 2.47508 19.445
115 2 11.437 1.55577 18.9761
116 2 13.0249 2.40196 19.2788
117 2 11.6165 2.50469 0.428371
118 4 18.5121 14.3038 2.38526
119 3 17.9615 12.7969 2.266
120 1 20.3377 14.7806 2.12244
121 2 20.2881 15.8636 2.19378
122 2 20.985 14.4767 2.93227
123 2 20.4839 14.3012 1.15313
124 1 17.9415 15.2393 0.812785
125 2 17.4275 16.3423 1.07924
126 2 18.8255 15.3781 19.8827
127 2 16.9946 14.8694 0.493468
128 4 17.3471 12.0829 3.53385
129 3 16.6063 10.6669 2.95408
130 1 18.4186 15.2048 4.11617
131 2 17.5523 15.243 4.76033
132 2 19.2209 14.8023 4.66497
133 2 18.7225 16.2013 3.83638
134 1 15.6361 13.0929 3.69559
135 2 14.8879 13.2213 2.96686
136 2 15.2866 12.6615 4.71763
137 2 16.1996 14.0002 4.03005
138 4 16.6366 9.82449 1.40441
139 3 15.9467 8.34467 0.995474
140 1 15.5527 10.614 19.9714
141 2 14.4808 10.7401 0.310198
142 2 15.9148 11.6127 19.689
143 2 15.6256 10.0055 19.0096
144 1 18.4195 9.62635 0.948106
145 2 18.7945 10.5086 1.32159
146 2 18.9855 8.83529 1.59035
147 2 18.5443 9.17095 19.9821
148 4 14.7999 7.27412 1.43903
149 3 15.3884 5.7246 1.73426
150 1 13.7644 7.71259 3.12714
151 2 12.9609 6.96622 3.48669
152 2 14.4672 7.42852 3.84132
153 1 13.9408 7.21513 19.8482
154 2 13.2552 6.39148 19.5861
155 2 13.3353 8.15748 20.1553
156 2 14.7 7.28379 18.9685
157 4 15.5966 4.13659 1.18029
158 3 15.7102 4.08136 19.5656
159 1 14.2049 3.18863 2.108
160 2 13.276 3.56472 1.66949
161 2 14.2768 2.1358 1.96996
162 2 14.3296 3.49539 3.17739
163 1 17.4246 4.13758 1.81571
164 2 17.9171 3.12547 1.91626
165 2 18.0548 4.84903 1.14294
166 2 17.5118 4.74709 2.76016
167 4 16.2525 2.85562 18.5442
168 1 15.825 1.1169 19.2608
169 2 16.813 0.818627 18.8059
170 2 15.7714 1.18655 0.415387
171 2 15.0189 0.592921 18.8397
172 1 18.1025 2.88046 18.1707
173 2 18.7101 3.48453 17.4501
174 2 18.5164 3.02131 19.1571
175 2 18.4016 1.88167 17.8762
176 4 4.3494 15.1887 9.24703
177 3 5.86868 15.953 8.86391
178 1 3.21757 16.5131 9.89188
179 2 3.78624 17.4418 10.159
180 2 2.57262 16.7635 9.02964
181 2 2.59141 16.1792 10.6986
182 1 3.64797 14.7824 7.53008
183 2 3.48148 13.6695 7.42504
184 2 2.61186 15.1745 7.4539
185 2 4.34004 15.1389 6.72959
186 4 7.12735 14.9914 8.44027
187 3 6.50055 13.4654 7.89777
188 1 8.1872 14.6401 9.92309
189 2 7.60407 14.8642 10.8002
190 2 8.72569 13.6862 10.0576
191 2 8.95753 15.4381 9.89102
192 1 7.98458 15.6876 6.90476
193 2 9.06054 15.6196 6.88571
194 2 7.67153 15.087 6.04088
195 2 7.79591 16.7653 6.68198
196 4 7.03256 11.9618 8.61325
197 3 6.01352 10.7232 8.06912
198 1 6.95318 11.8539 10.4981
199 2 6.93374 12.8916 10.8428
200 2 6.03687 11.3133 10.7472
201 2 7.76215 11.276 10.9507
202 1 8.72074 11.9312 7.75604
203 2 9.47077 11.4194 8.45338
204 2 8.73919 11.4621 6.80984
205 2 9.12422 12.9391 7.588
206 4 4.646 9.7439 7.75222
207 3 5.14591 8.09986 7.92566
208 1 3.2949 10.1527 8.91114
209 2 3.30671 9.54646 9.83565
210 2 3.47587 11.1695 9.28693
211 2 2.32699 10.0263 8.41471
212 1 3.9894 10.2889 6.08104
213 2 2.97492 10.7301 6.07912
214 2 4.64806 11.0697 5.6982
215 2 3.9021 9.46936 5.34156
216 4 4.49334 6.54217 7.72603
217 3 5.47548 5.79179 8.88787
218 1 2.90208 6.47903 8.72991
219 2 2.05702 5.99129 8.19846
220 2 3.04776 5.83268 9.65313
221 2 2.73948 7.49519 9.0728
222 1 4.59128 5.83549 5.95086
223 2 3.62403 5.37883 5.73299
224 2 4.72406 6.72609 5.29324
225 2 5.42477 5.11028 5.73515
226 4 6.09978 4.52722 9.71081
227 1 5.71201 2.77581 9.33262
228 2 5.4088 2.72317 8.26224
229 2 6.5257 2.07973 9.46208
230 2 4.7778 2.33835 9.76156
231 1 6.92852 5.14458 11.3109
232 2 7.33236 6.11424 10.9515
233 2 5.90761 5.40822 11.6792
234 4 14.0777 15.2681 4.16457
235 3 12.5221 14.7696 4.42464
236 1 14.8176 16.1704 5.59005
237 2 14.0544 16.9336 5.72948
238 2 14.7895 15.6421 6.56974
239 2 15.7742 16.6429 5.42427
240 1 14.1273 16.4979 2.6703
241 2 13.415 16.3048 1.85669
242 2 13.9715 17.4939 3.125
243 2 15.18 16.5686 2.25614
244 4 12.1488 13.7914 5.88765
245 3 13.5572 12.9126 6.27165
246 1 12.0302 15.1187 7.19465
247 2 12.8313 15.044 7.92589
248 2 12.001 16.1193 6.79936
249 2 11.1233 14.9795 7.79652
250 1 10.8334 12.6164 5.47895
251 2 11.3323 12.2122 4.5825
252 2 10.5793 11.7653 6.11246
253 2 9.92789 13.1238 5.21251
254 4 14.2896 11.5651 7.01454
255 3 13.0228 10.9382 7.83857
256 1 15.6125 12.4756 8.03478
257 2 15.3612 12.8375 9.02555
258 2 16.5085 11.8379 8.18021
259 2 16.0001 13.3327 7.46524
260 1 14.9132 10.1549 5.9831
261 2 15.7795 9.63838 6.4521
262 2 14.1239 9.47464 5.86703
263 2 15.1649 10.4226 4.92718
264 4 12.5965 9.76965 8.85489
265 3 11.1735 9.09537 8.46536
266 1 12.3629 10.6511 10.4345
267 2 13.0895 10.3188 11.2161
268 2 12.2978 11.7249 10.4745
269 2 11.4029 10.2592 10.807
270 1 13.8275 8.30661 8.566
271 2 14.8879 8.64978 8.61925
272 2 13.6444 7.63208 9.38142
273 2 13.702 7.82033 7.58766
274 4 10.4359 7.60578 8.47452
275 3 11.5916 6.74447 7.55811
276 1 8.79077 8.09492 7.8072
277 2 8.28101 7.47972 7.08466
278 2 8.0774 8.25095 8.62484
279 2 9.04714 9.01995 7.26837
280 1 10.2361 6.8441 10.2233
281 2 11.1556 7.02195 10.8512
282 2 9.45514 7.43428 10.7276
283 2 9.94256 5.80153 10.2323
284 4 11.7254 5.25663 6.87737
285 1 10.5179 4.14148 6.26768
286 2 10.9445 3.18078 5.94885
287 2 9.46548 4.27509 6.37405
288 1 13.5174 4.68571 6.7242
289 2 13.8532 4.09012 7.55687
290 2 13.69 4.136 5.78159
291 2 14.0776 5.62977 6.72383
292 4 20.9851 12.3326 7.02641
293 3 21.5114 11.3811 8.15415
294 1 19.3349 12.0781 6.26468
295 2 19.1057 12.9262 5.67391
296 2 19.2903 11.084 5.7629
297 2 18.5236 12.1289 6.98541
298 1 21.3496 14.1517 7.45892
299 2 21.3521 14.3382 8.5725
300 2 0.439439 14.2269 7.46868
301 2 20.5638 14.7209 7.1039
302 4 20.8738 10.2785 9.29852
303 3 20.5346 8.80436 8.69336
304 1 0.111479 9.91332 10.6867
305 2 0.366327 8.85026 10.6378
306 2 1.02526 10.4867 10.4559
307 2 21.7505 10.2059 11.6239
308 1 19.5687 11.3638 10.1422
309 2 18.7721 11.7165 9.46329
310 2 19.1005 10.8648 11.0068
311 2 20.2499 12.2053 10.4684
312 4 19.0904 7.98668 8.71361
313 3 19.2495 6.67925 7.74458
314 1 18.737 7.20707 10.439
315 2 18.1433 7.93991 11.097
316 2 18.171 6.27413 10.2566
317 2 19.6536 6.91446 10.9423
318 1 17.7839 9.23745 8.33577
319 2 16.9739 8.80179 7.78481
320 2 17.3988 9.64534 9.26972
321 2 18.2265 10.0677 7.81136
322 4 18.8648 5.90996 6.33616
323 3 19.546 4.4147 6.50802
324 1 16.9841 5.71868 6.22373
325 2 16.4866 6.57831 6.68441
326 2 16.6835 5.64507 5.16507
327 2 16.6516 4.84476 6.80794
328 1 19.286 6.8773 4.79721
329 2 20.2875 7.21711 4.52852
330 2 18.8631 6.27476 3.96364
331 2 18.6114 7.772 4.86973
332 4 19.513 2.88451 5.86428
333 3 20.4825 2.04875 7.06001
334 1 17.7418 2.26509 5.64318
335 2 16.9966 3.02624 5.93371
336 2 17.5716 1.91744 4.6074
337 2 17.6782 1.28971 6.21423
338 1 20.528 2.59806 4.36236
339 2 20.0985 3.20966 3.54777
340 2 21.5851 2.5986 4.54555
341 2 20.3896 1.54768 4.108
342 4 20.8546 2.89617 8.34774
343 1 19.3221 3.33624 9.58234
344 2 18.9554 2.35274 9.91672
345 2 19.7378 3.88842 10.4127
346 2 18.4795 3.90737 9.06683
347 1 0.534023 3.23262 8.96969
348 2 0.844689 2.32007 9.37955
349 2 1.3361 3.42509 8.20778
350 2 0.286365 3.99157 9.73766
351 4 0.157125 14.5767 14.4947
352 3 0.469303 12.8007 14.2617
353 1 0.283629 14.89 16.2696
354 2 1.24264 15.2018 16.6951
355 2 21.57 15.6045 16.6223
356 2 0.40314 13.8594 16.6484
357 1 20.6647 14.8194 13.5791
358 2 20.6452 13.8332 13.0458
359 2 19.6898 14.9221 14.1721
360 2 20.64 15.6125 12.7834
361 4 0.999225 11.5327 14.8007
362 3 2.26265 11.0503 13.8887
363 1 0.141704 9.90491 15.4756
364 2 0.420126 9.73655 16.5722
365 2 21.1513 10.5575 15.7842
366 2 0.111475 8.95545 15.0626
367 1 1.64097 15.4616 13.3858
368 2 1.62493 15.4924 12.2934
369 2 2.03688 16.455 13.6872
370 2 2.34935 14.7137 13.7497
371 4 3.77615 10.0984 14.4872
372 3 3.19594 8.48349 14.2428
373 1 4.15334 10.4906 16.3201
374 2 4.92612 9.75669 16.6542
375 2 4.56152 11.5453 16.3607
376 2 3.25873 10.5553 16.9932
377 1 5.31156 10.5816 13.4506
378 2 5.73253 11.5334 13.7715
379 2 6.22386 9.89844 13.3857
380 2 4.93007 10.6718 12.4105
381 4 3.70948 6.93078 14.3982
382 3 2.43342 5.90557 14.416
383 1 4.55115 6.61632 16.0009
384 2 5.66692 6.36027 15.9215
385 2 4.32185 7.54819 16.6052
386 2 4.13266 5.81891 16.5716
387 1 4.51233 6.68714 12.7693
388 2 3.81864 6.35543 11.991
389 2 4.91527 7.59152 12.3055
390 2 5.30209 5.92888 12.892
391 4 1.83004 4.29799 14.5768
392 3 3.05849 3.31291 13.9598
393 1 1.80028 3.56037 16.1908
394 2 1.20316 3.89843 17.0571
395 2 1.47761 2.54079 16.4048
396 2 2.89851 3.58264 16.7184
397 1 0.328592 4.02898 13.3452
398 2 -0.0915701 4.92891 12.8441
399 2 0.510559 3.18173 12.6399
400 2 21.6598 3.49812 14.054
401 4 4.13792 2.8163 12.7503
402 1 3.90878 1.15833 11.881
403 2 2.94445 0.639858 11.8735
404 2 4.23074 1.29799 10.8082
405 2 4.74036 0.491928 12.3195
406 1 5.97249 2.56011 13.2587
407 2 6.26177 2.11276 12.2924
408 2 5.77756 1.64787 13.8753
409 4 10.0283 16.1222 14.7954
410 3 8.8392 15.64 13.8125
411 1 9.69372 16.7633 16.5727
412 2 9.95189 17.8145 16.6172
413 2 8.63393 16.6841 16.8616
414 2 10.3981 16.2648 17.2562
415 1 11.2439 17.1121 13.8004
416 2 12.0757 16.5437 13.316
417 2 10.7167 17.6104 12.9277
418 2 11.7197 17.8892 14.4081
419 4 7.60376 14.576 13.8845
420 3 8.15416 13.2112 13.1404
421 1 6.83631 14.0823 15.5822
422 2 5.86121 13.5938 15.2771
423 2 7.31167 13.313 16.2053
424 2 6.59401 15.0222 16.0732
425 1 6.17012 15.1228 12.9213
426 2 5.87958 14.3245 12.1831
427 2 5.32922 15.3029 13.595
428 2 6.29636 15.9912 12.2669
429 4 9.71274 12.7962 13.4486
430 3 9.70747 11.1341 13.6399
431 1 10.3464 13.5516 15.0508
432 2 10.7294 14.5607 14.7451
433 2 9.621 13.7512 15.8424
434 2 11.1568 12.9889 15.4991
435 1 10.8961 13.4065 12.1648
436 2 11.9718 13.3192 12.404
437 2 10.8091 12.8638 11.2416
438 2 10.82 14.495 12.021
439 4 10.3188 9.74066 14.3229
440 3 9.36177 8.46124 13.9289
441 1 10.3067 9.99778 16.0991
442 2 9.51071 10.6445 16.4877
443 2 10.4453 9.10241 16.7277
444 2 11.2439 10.5659 16.3146
445 1 12.0943 9.59527 13.6756
446 2 12.2863 9.15106 12.7336
447 2 12.4 10.6378 13.5206
448 4 9.39382 6.90499 14.5972
449 3 8.77138 5.82644 13.4623
450 1 8.37167 7.23382 16.1323
451 2 8.20421 6.4317 16.8089
452 2 8.81235 8.0441 16.6706
453 2 7.38335 7.46021 15.7397
454 1 11.039 6.14171 15.07
455 2 11.6605 6.18234 14.1749
456 2 11.438 6.57155 15.9953
457 2 10.7832 5.10119 15.2921
458 4 8.03354 4.49418 12.7233
459 1 7.08843 3.32611 13.9267
460 2 6.77391 3.83094 14.8555
461 2 7.7649 2.54791 14.3222
462 1 9.0851 3.20124 11.8958
463 2 9.95469 3.48383 11.3213
464 2 9.42724 2.6407 12.7524
465 2 8.41793 2.58067 11.2803
466 4 16.7737 16.3303 12.691
467 3 16.7469 14.8785 13.6571
468 1 15.0149 16.6606 12.3404
469 2 14.7864 17.7346 12.4984
470 2 14.6905 16.3541 11.334
471 2 14.4362 16.0507 12.9863
472 1 17.4555 15.6245 11.0526
473 2 17.537 14.5069 11.1454
474 2 16.9616 15.7639 10.071
475 2 18.4626 16.0641 10.9659
476 4 16.7704 14.2698 15.2035
477 3 16.668 12.5726 15.2593
478 1 18.4056 14.296 16.2102
479 2 18.3766 13.8722 17.2302
480 2 19.0432 13.5485 15.6751
481 2 19.1434 15.1562 16.2435
482 1 15.5722 15.1935 16.3242
483 2 16.1245 15.7889 17.0224
484 2 14.8786 15.9545 15.9084
485 2 15.1257 14.4552 16.9889
486 4 15.4567 11.6058 14.6998
487 3 15.8733 9.95367 14.8817
488 1 14.3076 11.8181 16.1885
489 2 13.4106 12.4259 16.0037
490 2 13.9838 10.9757 16.8355
491 2 14.9954 12.4729 16.7012
492 1 15.0617 11.8009 12.8739
493 2 14.9603 10.819 12.4868
494 2 14.115 12.3076 12.6708
495 2 15.8305 12.2783 12.3119
496 4 14.8841 8.68529 14.1512
497 3 15.5471 7.31399 14.8764
498 1 13.1165 9.06217 14.7679
499 2 12.703 8.20385 15.2954
500 2 13.1708 9.86381 15.4959
501 1 15.2257 8.06788 12.3359
502 2 16.319 8.16645 12.2541
503 2 14.9517 6.97541 12.318
504 2 14.741 8.56781 11.5092
505 4 16.8409 6.48548 15.4222
506 3 16.534 5.02867 16.2325
507 1 18.0566 6.61191 14.0404
508 2 19.0649 6.22445 14.0974
509 2 17.6297 6.29314 13.0885
510 2 18.2092 7.71316 13.9715
511 1 17.7288 7.74657 16.6837
512 2 17.0414 8.48517 17.1672
513 2 18.2867 7.31832 17.5287
514 2 18.4086 8.34077 16.1
515 4 15.4785 3.71222 16.4459
516 1 13.8185 4.57047 16.8487
517 2 13.2991 4.70424 15.8985
518 2 13.1726 3.97533 17.5094
519 2 13.9313 5.54795 17.361
520 1 15.2639 2.92548 14.7689
521 2 15.9444 2.15718 14.44
522 2 14.2469 2.5843 14.6017
523 2 15.3765 3.83896 14.0737
ITEM: TIMESTEP
2500
ITEM: NUMBER OF ATOMS
523
ITEM: BOX BOUNDS pp pp pp
-8.1733676397526267e-03 2.2008173367639770e+01
-7.0885250978545145e-03 1.9087051525097863e+01
-7.4303342180339627e-03 2.0007430334218057e+01
ITEM: ATOMS id type x y z
1 4 1.59525 13.2226 3.26362
2 3 2.27745 11.9232 4.13739
3 1 1.43577 14.5951 4.29188
4 2 0.449777 14.9927 4.25649
5 2 1.87176 14.1195 5.18822
6 2 2.0798 15.4796 3.98728
7 1 20.9101 11.1805 5.31631
8 2 21.6634 12.2392 5.45622
9 2 20.4325 11.3896 4.32603
10 2 21.7732 10.4834 5.30871
11 4 3.63959 11.965 2.74475
12 3 3.25841 10.4876 2.04057
13 1 5.44977 12.4371 3.35249
14 2 5.77144 11.4085 3.51864
15 2 5.89725 12.6375 2.34529
16 2 5.63896 13.0903 4.15783
17 1 2.20369 13.298 1.59742
18 2 2.36513 14.4316 1.73346
19 2 2.00441 12.669 0.678511
20 2 10.8118 18.428 12.5693
21 4 3.9527 9.02618 1.6247
22 3 2.83939 7.79409 1.70441
23 1 4.91129 8.31812 3.20267
24 2 5.39295 7.34744 3.26752
25 2 5.53035 9.11436 3.63249
26 2 4.05732 8.22732 3.89752
27 1 5.09566 9.07296 0.0861924
28 2 5.29721 9.93966 19.5137
29 2 5.92778 8.2872 -0.0504244
30 2 4.53702 8.63043 19.2769
31 4 1.27571 7.4855 2.18056
32 3 0.734684 6.12161 1.30148
33 1 21.837 8.50913 1.7196
34 2 21.0894 8.66556 2.67207
35 2 0.226099 9.45033 1.33068
36 2 21.3764 8.05873 0.845985
37 1 1.07564 6.8886 3.95253
38 2 0.900117 7.45959 4.85863
39 2 0.289143 6.11494 3.93928
40 2 1.92166 6.16574 4.19363
41 4 0.717766 4.47088 1.42206
42 3 21.9128 3.68679 2.4155
43 1 2.52637 3.82617 1.01834
44 2 3.13767 4.7713 1.0676
45 2 3.04424 3.15719 1.78381
46 2 2.49072 3.13895 0.107536
47 1 21.7301 4.27371 19.7846
48 2 20.961 5.02442 19.7489
49 2 0.163253 4.41323 18.8017
50 2 21.1358 3.28642 19.6436
51 4 21.9631 2.02203 1.91679
52 1 0.670961 0.863316 2.81965
53 2 1.82407 0.522437 2.91327
54 2 0.625128 1.73519 3.82129
55 2 0.0950738 19.1182 3.08588
56 1 21.0182 1.42232 0.425378
57 2 20.1913 0.598187 0.749904
58 2 20.6919 2.42414 20.0239
59 2 -0.233641 0.751809 0.193478
60 4 8.39465 16.4758 1.91387
61 3 9.25151 15.1266 1.47304
62 1 9.07697 16.9965 3.60666
63 2 9.39533 17.9951 3.90067
64 2 8.30556 16.7256 4.29294
65 2 9.8952 16.2893 3.82928
66 1 7.37313 17.4118 0.689002
67 2 6.48149 17.6114 1.11653
68 2 7.77473 18.2998 0.503358
69 2 6.88387 16.793 19.6461
70 4 10.0766 14.0748 0.339318
71 3 10.4402 12.6685 1.11432
72 1 11.5433 14.9512 19.8024
73 2 11.2986 16.1558 19.8298
74 2 12.4076 14.726 0.416297
75 2 12.0197 15.153 18.7565
76 1 8.66474 13.5685 19.2604
77 2 9.10854 12.6754 19.073
78 2 7.8212 13.6598 19.988
79 2 8.57148 14.2374 18.3476
80 4 11.6053 11.3772 1.0904
81 3 10.8726 10.1771 1.8944
82 1 13.3127 11.5862 2.35962
83 2 13.8299 12.5365 2.11704
84 2 12.9843 11.6449 3.4162
85 2 13.9468 10.7023 2.02577
86 1 12.2075 11.2747 19.2292
87 2 11.2218 11.5752 18.8057
88 2 13.0429 11.7407 18.7147
89 2 12.267 10.1886 19.0572
90 4 10.9122 8.49906 2.53688
91 3 10.2593 7.34312 1.45678
92 1 9.68365 8.82924 3.83774
93 2 9.00316 7.99128 3.89849
94 2 10.2604 9.10953 4.78629
95 2 9.13882 9.7215 3.52615
96 1 12.6123 8.27568 3.17474
97 2 13.0485 9.37774 3.19309
98 2 12.4216 8.15965 4.17979
99 4 9.22547 6.08453 1.084
100 3 9.7592 5.03885 19.9047
101 1 7.68047 6.38186 0.263953
102 2 6.83575 5.64378 0.700011
103 2 7.22148 7.38793 0.691257
104 2 7.71455 6.43118 19.1312
105 1 8.90922 5.40776 2.78892
106 2 9.87508 5.31533 3.31854
107 2 8.29519 6.18312 3.28015
108 2 8.29254 4.47977 2.92199
109 4 11.1575 4.27298 19.4368
110 1 11.0175 4.03396 17.5466
111 2 11.3642 3.04476 17.2408
112 2 9.90132 4.03488 17.4661
113 2 11.4998 4.85087 17.0023
114 1 12.2805 3.03414 0.337312
115 2 12.477 2.12516 19.943
116 2 12.9938 3.68544 1.05093
117 2 11.6366 2.8673 1.30551
118 4 19.0979 15.1621 2.253
119 3 18.1285 13.8213 2.76524
120 1 19.9633 14.3581 0.777557
121 2 20.4625 15.2031 0.257459
122 2 20.5558 13.5092 1.25152
123 2 19.1109 13.9514 0.292179
124 1 17.8995 16.4053 1.5066
125 2 17.6141 17.2887 2.22653
126 2 17.9577 16.6902 0.463666
127 2 16.8485 15.6667 1.67247
128 4 17.2759 12.5371 3.07468
129 3 17.108 11.3821 1.79716
130 1 20.1927 15.6232 3.7148
131 2 19.4609 15.7131 4.56496
132 2 20.8649 14.7917 3.94296
133 2 20.9793 16.423 3.52404
134 1 14.3886 16.7212 2.94058
135 2 14.7165 15.7007 2.71358
136 2 15.224 17.3612 2.6316
137 2 13.3668 16.6582 2.49289
138 4 17.1615 9.83292 1.29151
139 3 15.6511 9.09896 1.20542
140 1 18.2371 9.78066 19.8036
141 2 17.8725 10.1898 18.8793
142 2 19.253 10.0305 0.26251
143 2 18.4975 8.6576 19.8423
144 1 18.1362 8.82929 2.87958
145 2 17.2126 8.12452 2.99594
146 2 18.982 8.3826 2.43315
147 2 18.0841 9.66586 3.75295
148 4 15.0695 7.58189 1.37812
149 3 16.1462 6.52622 1.92457
150 1 13.9357 7.47389 2.89913
151 2 13.7924 6.35654 3.18556
152 2 14.7454 7.87359 3.58632
153 1 13.9465 7.26645 19.9642
154 2 12.7612 6.82227 0.132602
155 2 14.1456 8.31625 19.7983
156 2 14.2227 6.79551 19.1636
157 4 16.4676 4.99078 1.50006
158 3 16.4194 4.86861 19.9138
159 1 15.4695 3.99007 2.74623
160 2 14.4048 3.72071 2.72783
161 2 15.9287 2.99784 2.73369
162 2 15.7714 4.5005 3.67407
163 1 18.2039 4.49988 2.24617
164 2 18.0658 3.34833 2.35955
165 2 19.0817 4.81613 1.61985
166 2 18.1691 4.85726 3.26574
167 4 16.4248 3.96679 18.5106
168 1 15.4119 2.35488 19.0173
169 2 14.3548 2.66305 18.8053
170 2 15.5744 1.74613 18.1404
171 2 15.675 2.02586 -0.105413
172 1 18.2358 3.8038 18.1114
173 2 18.5903 3.69541 19.0913
174 2 18.4013 2.73555 17.658
175 2 18.8983 4.34598 17.4383
176 4 4.35337 15.232 9.86263
177 3 5.66197 14.7704 8.93679
178 1 4.35723 16.9916 10.5411
179 2 4.18389 17.0516 11.6192
180 2 5.25994 17.5759 10.2402
181 2 3.37903 17.4009 10.1356
182 1 2.59201 14.6415 9.48197
183 2 2.59177 13.7422 8.81819
184 2 2.00336 14.2979 10.3194
185 2 2.01529 15.5235 9.04085
186 4 7.04673 14.5552 8.01323
187 3 7.72994 13.2312 8.59906
188 1 8.17974 16.0031 8.27444
189 2 7.66629 16.6442 9.01508
190 2 9.18812 15.649 8.63703
191 2 8.36641 16.5703 7.33463
192 1 6.6331 14.2261 6.21546
193 2 7.07722 13.3238 5.81434
194 2 5.54285 14.1575 6.06206
195 2 7.11777 15.1144 5.74351
196 4 7.35414 11.6365 8.28697
197 3 5.70902 11.5217 8.24721
198 1 7.91681 10.9407 9.92178
199 2 8.68326 11.5285 10.4496
200 2 7.07623 10.8082 10.6001
201 2 8.37144 9.94263 9.77945
202 1 8.10369 10.9273 6.62606
203 2 8.80676 10.088 6.90742
204 2 7.35445 10.5663 5.99535
205 2 8.73482 11.6419 6.1205
206 4 4.28847 10.6149 8.14708
207 3 5.03288 9.01963 8.23483
208 1 3.16982 10.9812 9.63521
209 2 2.76027 10.0721 10.1139
210 2 3.76002 11.4796 10.3804
211 2 2.35755 11.6889 9.446
212 1 3.51695 11.2813 6.47699
213 2 3.25718 10.4386 5.82409
214 2 2.63548 11.9038 6.67931
215 2 4.29925 11.9623 6.04796
216 4 4.80596 7.39779 7.91484
217 3 5.34099 6.43933 9.174
218 1 3.10211 6.98543 7.39984
219 2 2.29101 7.41325 7.98331
220 2 3.06275 7.30379 6.34538
221 2 3.02433 5.91032 7.39893
222 1 5.9115 7.05419 6.48922
223 2 6.6912 6.30855 6.62054
224 2 5.38275 6.71031 5.57178
225 2 6.42896 7.98643 6.16686
226 4 5.95542 4.94852 9.12583
227 1 5.20669 3.75501 7.92129
228 2 4.8081 4.24541 7.02499
229 2 6.06613 3.16585 7.66078
230 2 4.53062 3.16768 8.53559
231 1 7.86534 4.69581 9.33449
232 2 8.10797 3.6736 8.89342
233 2 8.39633 5.33224 8.57426
234 4 14.0149 17.0732 4.78708
235 3 13.1521 15.8181 5.52637
236 1 15.6527 16.9214 5.82254
237 2 15.9635 17.812 6.34755
238 2 15.5017 16.1046 6.59135
239 2 16.4352 16.5546 5.15969
240 1 13.031 18.6122 4.60686
241 2 12.0067 18.3994 4.88735
242 2 13.2705 0.3743 5.22448
243 2 13.1099 19.0043 3.5821
244 4 12.5353 14.5219 6.35439
245 3 13.4367 13.1972 5.98338
246 1 12.6438 14.8572 8.14815
247 2 13.6703 14.9656 8.39409
248 2 12.2394 15.8222 8.36782
249 2 12.3052 14.1063 8.88548
250 1 10.7165 14.3059 5.95388
251 2 10.5425 14.2775 4.87518
252 2 10.4375 13.3177 6.28359
253 2 10.1317 15.0449 6.48846
254 4 13.9786 11.9601 6.8899
255 3 12.8764 11.0179 7.61111
256 1 15.4661 12.7103 7.79344
257 2 15.1147 13.5359 8.4034
258 2 15.961 11.9296 8.39031
259 2 16.1748 13.0625 7.01154
260 1 14.6941 10.5401 5.77889
261 2 13.8503 10.3896 5.06398
262 2 15.5586 10.7464 5.15781
263 2 14.8436 9.54561 6.34225
264 4 12.5501 9.71035 8.51947
265 3 11.6315 8.69655 7.58034
266 1 11.3432 10.3259 9.87428
267 2 11.7742 11.0082 10.6974
268 2 10.5578 10.9591 9.43333
269 2 10.8889 9.46184 10.3974
270 1 14.1481 8.96549 8.96291
271 2 14.9798 9.70259 9.03673
272 2 14.1416 8.59121 9.97578
273 2 14.4276 8.07354 8.2663
274 4 10.9875 7.18331 7.96834
275 3 12.0773 5.98231 7.37123
276 1 9.4441 7.09675 6.93885
277 2 9.29954 8.06371 6.455
278 2 9.43366 6.33909 6.1281
279 2 8.58321 6.96152 7.63024
280 1 10.5262 7.00433 9.67952
281 2 11.2653 6.97777 10.4966
282 2 9.79994 7.80368 9.93914
283 2 9.95961 6.09764 9.73072
284 4 11.7503 4.52004 8.10407
285 1 10.7198 3.3838 7.34318
286 2 10.409 2.41222 7.863
287 2 10.2611 3.53252 6.37276
288 1 12.9563 4.10172 9.47325
289 2 13.9184 4.47514 9.17346
290 2 12.6391 4.70597 10.3628
291 2 13.0384 3.04762 9.76223
292 4 19.8957 11.1057 6.96063
293 3 20.7067 10.4506 8.27985
294 1 18.336 9.97641 6.75559
295 2 17.5606 10.2886 7.35204
296 2 18.0322 9.73195 5.69872
297 2 18.6316 8.96407 7.17513
298 1 19.1516 12.9361 7.16128
299 2 19.7335 13.3185 7.9715
300 2 19.075 13.8609 6.38426
301 2 18.2956 13.3044 7.79795
302 4 20.8252 8.93644 8.82321
303 3 19.4871 7.88981 8.59752
304 1 0.420378 7.92605 8.69521
305 2 0.167041 6.83371 8.9387
306 2 0.538342 8.05115 7.5777
307 2 1.19935 8.44904 9.27205
308 1 20.7867 9.82697 10.6467
309 2 19.9593 10.5488 10.6394
310 2 20.7158 9.27899 11.5931
311 2 21.7269 10.4255 10.6345
312 4 18.9621 6.43273 9.31778
313 3 18.7579 5.42052 8.01942
314 1 20.181 5.71393 10.5461
315 2 21.2444 6.00836 10.4277
316 2 19.932 6.04154 11.5484
317 2 20.1222 4.66227 10.5192
318 1 17.3821 6.34539 10.3634
319 2 16.8525 5.38231 10.2812
320 2 17.6307 6.46515 11.4301
321 2 16.6577 7.09443 10.0423
322 4 18.4933 5.04207 6.50681
323 3 18.4928 3.43952 6.85606
324 1 16.676 5.24226 6.19447
325 2 16.1802 6.0261 6.81991
326 2 16.5617 5.59604 5.15875
327 2 16.0852 4.36289 6.4377
328 1 19.7406 5.74035 5.27546
329 2 20.1273 6.65378 5.77757
330 2 20.6416 5.12622 5.15618
331 2 19.3642 6.07622 4.28197
332 4 18.4706 1.55042 6.0456
333 3 19.2849 1.00744 7.48275
334 1 16.7391 1.18336 5.74568
335 2 16.6976 0.13864 5.47081
336 2 16.1314 1.53435 6.55378
337 2 16.4437 1.72415 4.83662
338 1 19.5559 1.32707 4.58918
339 2 20.1331 0.452367 4.8592
340 2 19.0353 1.24696 3.66814
341 2 20.3184 2.17764 4.53231
342 4 19.546 2.68176 8.07464
343 1 18.5239 2.81488 9.61861
344 2 19.1618 3.08223 10.4449
345 2 17.9169 3.70878 9.62664
346 2 17.8969 1.92173 9.84635
347 1 21.5102 2.94194 7.88745
348 2 21.9153 3.55075 8.88434
349 2 21.5817 2.25415 6.80979
350 2 21.2202 3.87137 7.41589
351 4 0.759997 15.0145 14.5126
352 3 0.674691 13.4313 14.3457
353 1 -0.00210684 15.3501 16.0937
354 2 21.5258 16.2084 16.5153
355 2 21.0974 15.023 15.3757
356 2 0.173291 14.3668 16.5233
357 1 21.9836 15.6804 12.895
358 2 21.464 14.9417 12.2921
359 2 21.3124 16.608 13.0901
360 2 0.797711 16.3127 12.5697
361 4 0.823156 12.0152 15.4503
362 3 1.83764 10.8866 14.8901
363 1 21.5189 11.728 16.7438
364 2 -0.134681 10.9708 17.3691
365 2 21.2961 12.4772 17.4021
366 2 20.506 11.5081 16.2021
367 1 2.69247 15.1408 14.1642
368 2 3.42976 14.3823 14.0155
369 2 2.89524 15.8405 13.3469
370 2 2.94111 15.7974 15.052
371 4 3.3165 9.92827 14.4704
372 3 2.83273 8.39418 14.1326
373 1 4.23002 9.9907 16.1644
374 2 5.22291 9.74134 16.3568
375 2 4.08849 11.0512 16.253
376 2 3.46605 9.5605 16.789
377 1 4.20024 10.8229 13.0319
378 2 3.81582 10.4463 12.0198
379 2 3.97282 11.9083 13.1214
380 2 5.26 10.5641 13.1602
381 4 3.49897 6.85805 13.6932
382 3 2.52422 5.57962 14.1259
383 1 4.95263 6.45981 14.8886
384 2 5.87795 6.22191 14.2903
385 2 5.35062 7.34766 15.4572
386 2 4.55611 5.71985 15.6046
387 1 3.22715 7.06399 11.8491
388 2 3.83046 6.43396 11.1948
389 2 2.17083 6.87751 11.8094
390 2 3.26134 8.15067 11.6774
391 4 2.66279 3.97955 13.7503
392 3 3.86361 3.50213 12.7766
393 1 2.51552 3.08256 15.4106
394 2 1.54123 3.45431 15.6297
395 2 2.38072 2.00066 15.4021
396 2 3.21001 3.12547 16.4822
397 1 1.00954 3.63065 12.8353
398 2 1.31091 3.92465 11.8991
399 2 1.08335 2.56653 12.8013
400 2 0.127132 3.99146 13.4909
401 4 4.73193 3.09762 11.404
402 1 3.91327 1.52501 10.7524
403 2 3.23416 1.12245 11.5106
404 2 3.46533 1.76238 9.81116
405 2 4.67606 0.796706 10.5433
406 1 6.41898 2.78149 12.0483
407 2 6.96927 2.17978 11.3146
408 2 6.18738 2.21639 12.955
409 4 7.99994 17.0403 14.5457
410 3 7.84488 15.336 14.4296
411 1 9.18091 17.2855 15.9079
412 2 9.09168 18.3349 16.1373
413 2 8.71435 16.7986 16.8011
414 2 10.2055 16.878 15.8755
415 1 8.9419 17.3284 12.8976
416 2 9.56257 18.406 13.0629
417 2 9.7363 16.5615 12.6589
418 2 8.46188 17.6124 11.9517
419 4 7.09834 13.9289 13.8654
420 3 8.08794 12.56 14.1365
421 1 5.60511 13.5329 14.9234
422 2 5.0913 12.6068 14.571
423 2 5.93977 13.233 15.9412
424 2 4.89865 14.3248 15.1008
425 1 6.48492 14.2448 12.1182
426 2 5.48578 14.7342 12.2544
427 2 7.14787 14.9935 11.6769
428 2 6.38181 13.3676 11.487
429 4 9.69288 12.5237 13.7719
430 3 10.0857 10.9399 13.3449
431 1 10.5242 13.042 15.384
432 2 10.3148 14.0845 15.5847
433 2 9.96572 12.4379 16.133
434 2 11.6641 12.7252 15.5173
435 1 10.3087 13.427 12.1772
436 2 11.3964 13.2469 12.153
437 2 9.85384 12.919 11.2699
438 2 10.1563 14.5471 12.209
439 4 10.7026 9.4445 13.7833
440 3 9.93884 8.35564 12.8207
441 1 10.6582 9.02801 15.581
442 2 9.65903 8.73959 15.8927
443 2 11.4103 8.22306 15.7074
444 2 11.0414 9.88951 16.1621
445 1 12.5579 9.7335 13.4631
446 2 12.6802 10.1076 12.4107
447 2 12.7438 10.5898 14.1206
448 4 9.8259 6.77313 13.2157
449 3 9.18039 6.01723 11.8828
450 1 8.5501 6.74261 14.5833
451 2 8.96066 6.67442 15.589
452 2 7.92144 7.64378 14.6618
453 2 7.95863 5.83338 14.3684
454 1 11.4926 6.0775 13.6956
455 2 12.2928 6.43206 13.0775
456 2 11.9059 6.15864 14.7021
457 2 11.5313 4.99619 13.4627
458 4 8.46642 4.64571 11.1835
459 1 7.2699 4.08265 12.4159
460 2 6.61964 4.93619 12.643
461 2 7.802 3.83395 13.3409
462 1 9.81077 3.37166 11.2322
463 2 9.79901 2.69703 10.3544
464 2 10.7278 3.95292 11.1061
465 2 9.84619 2.71953 12.1241
466 4 17.1364 15.6148 12.2662
467 3 17.2888 14.9834 13.8077
468 1 15.457 15.471 11.3173
469 2 15.4991 14.5795 10.6255
470 2 14.471 15.5701 11.8039
471 2 15.6311 16.3282 10.6665
472 1 18.3445 14.3627 11.4513
473 2 17.9093 13.35 11.6457
474 2 18.5789 14.299 10.3812
475 2 19.2751 14.4665 12.0391
476 4 16.8158 14.8234 15.3352
477 3 16.2974 13.1917 15.3755
478 1 18.1763 15.1449 16.5723
479 2 17.8851 15.1002 17.6153
480 2 18.8344 14.2832 16.3535
481 2 18.7488 16.0173 16.1993
482 1 15.2829 15.9369 15.7138
483 2 14.6635 15.2802 16.3699
484 2 15.6566 16.8133 16.3366
485 2 14.7096 16.1961 14.7995
486 4 14.9364 12.3635 15.2037
487 3 15.4358 10.8251 14.7893
488 1 14.0916 11.8724 16.8637
489 2 13.0437 11.6048 16.7112
490 2 14.6081 10.9977 17.2823
491 2 14.1882 12.7213 17.5669
492 1 13.909 13.1986 13.9713
493 2 13.7309 12.4392 13.204
494 2 12.9687 13.6048 14.4496
495 2 14.3619 14.0742 13.4337
496 4 15.4783 9.41557 13.9889
497 3 16.1413 8.19181 14.9013
498 1 13.748 8.67088 13.6183
499 2 13.7851 8.13057 12.6449
500 2 13.4715 7.8574 14.2905
501 1 16.3234 10.0353 12.4365
502 2 17.126 10.7226 12.604
503 2 16.6957 9.29788 11.6609
504 2 15.4828 10.5359 11.9889
505 4 17.5527 7.65722 15.6468
506 3 16.8347 6.53302 16.6768
507 1 18.6203 6.91483 14.3253
508 2 18.7674 5.84914 14.4556
509 2 18.07 7.07743 13.39
510 2 19.5704 7.4636 14.2347
511 1 18.4423 9.25554 16.2486
512 2 19.1086 9.17652 17.1153
513 2 19.1253 9.46672 15.3982
514 2 17.6979 10.0338 16.3542
515 4 15.8347 5.19553 16.6107
516 1 13.9983 5.42677 16.9665
517 2 13.5463 4.90183 16.1029
518 2 13.5374 4.91293 17.8348
519 2 13.6692 6.50128 16.9624
520 1 16.1901 4.13009 15.1196
521 2 17.2389 4.01693 15.1203
522 2 15.6999 3.18414 15.2406
523 2 15.7393 4.50653 14.1836
ITEM: TIMESTEP
3000
ITEM: NUMBER OF ATOMS
523
ITEM: BOX BOUNDS pp pp pp
-7.2771107037983285e-03 2.2007277110703804e+01
-6.3112274079859532e-03 1.9086274227407955e+01
-6.6155551853572803e-03 2.0006615555185331e+01
ITEM: ATOMS id type x y z
1 4 1.72573 13.1515 2.91251
2 3 2.38676 11.7075 3.54862
3 1 2.99116 14.4083 3.92056
4 2 4.00382 13.9731 3.87194
5 2 2.93438 15.5402 3.79728
6 2 2.65446 14.1864 4.91225
7 1 20.1723 9.98289 6.0467
8 2 21.3361 9.78019 6.4595
9 2 20.4483 10.866 5.42505
10 2 20.1543 9.15274 5.33895
11 4 3.38084 11.5417 2.07589
12 3 2.82937 10.1507 1.35155
13 1 5.29177 11.4016 2.68812
14 2 5.97991 12.2747 2.42483
15 2 5.25776 11.7353 3.75364
16 2 5.91329 10.4704 2.38898
17 1 2.89118 13.1307 1.47482
18 2 3.42358 14.075 1.44952
19 2 2.33196 13.1947 0.689835
20 2 8.7308 16.7526 14.0545
21 4 3.59326 8.83908 1.00895
22 3 2.22822 7.62297 1.02024
23 1 4.74143 8.01522 2.17662
24 2 5.25984 7.33806 1.44757
25 2 5.53746 8.68212 2.58497
26 2 4.17069 7.51511 2.98773
27 1 4.23598 8.6274 19.2626
28 2 4.49651 9.66052 19.2094
29 2 5.19258 8.02895 19.1189
30 2 3.60264 8.16835 18.6154
31 4 0.986353 6.6915 1.49199
32 3 0.591118 5.08679 1.49467
33 1 21.3779 7.37153 0.653805
34 2 20.8123 7.94601 1.4199
35 2 21.3668 7.68591 19.6801
36 2 20.4608 6.34614 0.429187
37 1 0.671267 7.07604 3.40283
38 2 0.126911 7.95939 3.57916
39 2 0.0555124 6.24978 3.69345
40 2 1.59702 7.108 3.96611
41 4 1.71022 3.94652 0.70783
42 3 0.997282 2.30944 0.590806
43 1 3.4271 3.78981 1.79312
44 2 3.87454 4.77016 1.85787
45 2 3.4174 3.32487 2.7257
46 2 4.02116 3.20084 1.14762
47 1 2.25207 4.86854 19.1394
48 2 2.63164 5.92057 19.3549
49 2 3.02455 4.1098 18.5995
50 2 1.55217 4.73913 18.392
51 4 0.257857 2.1791 2.09448
52 1 1.45708 1.85508 4.01786
53 2 1.80315 1.38186 3.03863
54 2 1.68134 2.71053 4.51559
55 2 0.543092 1.27534 4.38286
56 1 21.3444 0.481806 1.33095
57 2 21.5958 0.216445 0.262454
58 2 21.7163 18.5862 1.66111
59 2 20.0773 0.406686 1.62239
60 4 9.07128 16.7562 2.06812
61 3 9.79759 15.323 1.78531
62 1 9.3948 17.398 3.92407
63 2 8.43964 17.599 4.45387
64 2 9.92255 16.7135 4.56743
65 2 10.0261 18.31 3.81644
66 1 9.0755 18.2499 0.914222
67 2 8.57622 0.0287858 1.70797
68 2 9.85264 18.7137 0.374636
69 2 8.2995 17.9849 19.7283
70 4 10.0606 14.2578 0.487368
71 3 10.1293 12.6538 0.962586
72 1 11.6689 14.6806 19.2863
73 2 11.4777 13.9334 18.3744
74 2 11.1877 15.6618 18.9376
75 2 12.6135 14.8774 19.7099
76 1 8.60112 13.8514 19.4901
77 2 8.13332 14.6683 18.6678
78 2 9.08081 13.0363 19
79 2 8.17329 14.2062 0.336239
80 4 10.8463 11.2028 0.538597
81 3 10.423 10.1168 1.72138
82 1 12.5335 11.7782 0.886939
83 2 12.8561 12.6142 0.280234
84 2 12.6258 12.0504 1.87872
85 2 13.3862 11.053 0.861388
86 1 10.5992 10.6226 18.7525
87 2 9.67489 10.9851 18.3354
88 2 11.3129 10.9565 18.0067
89 2 10.5706 9.55413 18.4202
90 4 10.8304 8.98829 3.08151
91 3 10.2426 7.56489 2.71068
92 1 10.1487 9.40384 4.75164
93 2 9.56753 8.53934 5.13929
94 2 10.9085 9.69851 5.52294
95 2 9.46404 10.2871 4.67055
96 1 12.7036 8.97357 3.15973
97 2 13.1106 9.77339 2.35602
98 2 13.099 9.2491 4.04157
99 4 9.44143 6.24366 1.95191
100 3 10.7434 5.32831 1.26711
101 1 8.54867 7.0739 0.552423
102 2 8.15197 8.08816 0.614231
103 2 9.13435 7.24453 19.469
104 2 7.72225 6.47069 0.261982
105 1 8.09519 5.67244 3.22664
106 2 8.56309 5.11406 4.03033
107 2 7.65459 6.55552 3.68444
108 2 7.27063 5.16319 2.72311
109 4 11.0041 3.8804 0.39671
110 1 11.9121 4.02474 18.5123
111 2 12.2889 3.0994 18.0869
112 2 11.0587 4.39051 17.9481
113 2 12.7255 4.77355 18.674
114 1 9.32881 2.88217 0.997521
115 2 9.15425 2.7487 2.22417
116 2 8.4076 3.10506 0.551813
117 2 9.54311 1.94614 0.469137
118 4 18.3751 15.6094 1.39654
119 3 18.004 13.8849 1.826
120 1 19.9154 15.8529 0.374516
121 2 19.3181 16.3658 19.6855
122 2 20.6388 16.5017 0.907113
123 2 20.4215 14.8849 0.144486
124 1 16.8503 15.5898 0.228684
125 2 16.7748 16.2434 19.4454
126 2 16.6088 14.6794 20.004
127 2 16.1545 15.8642 0.979865
128 4 18.0608 12.5347 2.71733
129 3 17.0582 11.3307 2.14788
130 1 18.1133 16.5687 3.0809
131 2 17.61 15.8195 3.62935
132 2 19.0798 16.7656 3.5632
133 2 17.7116 17.5818 2.98485
134 1 12.7352 18.4764 4.21859
135 2 12.7682 17.8148 3.30573
136 2 13.1452 0.37898 4.25903
137 2 11.781 18.944 4.30873
138 4 17.0567 9.55594 2.27241
139 3 15.514 8.97939 2.31025
140 1 17.9496 8.79921 0.790196
141 2 18.139 9.56908 19.9424
142 2 18.6034 7.94332 1.08471
143 2 17.0237 8.54517 0.398762
144 1 18.0942 8.86837 3.8831
145 2 18.5579 9.67487 4.35426
146 2 17.2793 8.35345 4.58587
147 2 18.5639 8.21743 3.1498
148 4 14.7856 7.78616 1.25502
149 3 15.5747 6.39577 1.4764
150 1 13.2888 7.61522 2.60994
151 2 12.4731 6.95912 2.25867
152 2 13.9205 7.11442 3.37587
153 1 14.1705 8.42903 19.6585
154 2 14.5284 8.69595 18.4994
155 2 13.4969 7.62166 19.8573
156 2 13.1466 8.77776 19.607
157 4 16.1531 5.05297 0.807555
158 3 16.2991 5.14552 19.2914
159 1 14.9834 3.76462 1.33994
160 2 13.8871 3.7636 1.071
161 2 15.3706 2.8377 0.832244
162 2 15.0128 3.64106 2.42275
163 1 17.8163 5.17914 1.54982
164 2 18.0886 4.21793 1.93447
165 2 18.5961 5.65746 0.910536
166 2 18.0747 5.70557 2.54059
167 4 16.9496 4.43924 17.7882
168 1 15.6467 2.94747 17.3986
169 2 15.6598 2.93191 16.3936
170 2 15.8907 2.00475 17.8206
171 2 14.5902 3.35567 17.8622
172 1 18.6238 3.64419 17.9201
173 2 18.9573 3.99784 18.899
174 2 18.869 2.58567 17.9497
175 2 19.1081 4.34621 17.2636
176 4 4.84403 15.8728 9.73749
177 3 5.05386 15.5031 8.10668
178 1 4.2772 17.5992 9.76003
179 2 3.8662 17.9632 10.7244
180 2 5.12444 18.3087 9.47713
181 2 3.4322 17.7382 9.03174
182 1 4.06656 14.4925 10.8062
183 2 2.97437 14.6078 10.8296
184 2 4.35218 13.5455 10.335
185 2 4.47595 14.4185 11.8524
186 4 6.49968 14.9596 7.47226
187 3 6.86633 13.3629 7.5519
188 1 7.88905 16.0108 8.1915
189 2 7.58318 16.9071 8.68094
190 2 8.47595 15.4503 8.94463
191 2 8.60768 16.3274 7.43869
192 1 6.34755 15.4768 5.7411
193 2 6.742 14.8461 4.92658
194 2 5.31897 15.8253 5.52346
195 2 7.05375 16.3046 5.53264
196 4 6.80288 11.7498 7.63165
197 3 5.37381 11.3521 8.37637
198 1 8.02862 11.2472 8.95649
199 2 7.65465 10.6896 9.81921
200 2 8.80748 10.6403 8.49222
201 2 8.46073 12.2302 9.24248
202 1 7.10462 11.2616 5.8532
203 2 6.47626 10.3963 5.40918
204 2 6.91581 12.0734 5.17834
205 2 8.14024 10.8906 5.6978
206 4 4.09077 10.2836 8.36753
207 3 4.48532 8.63824 8.66809
208 1 2.99661 11.1309 9.70491
209 2 2.27325 10.3946 10.1375
210 2 3.70747 11.3939 10.5049
211 2 2.65315 12.0857 9.31327
212 1 3.17564 10.3739 6.79637
213 2 3.74465 10.0767 5.91295
214 2 2.29188 9.7015 6.77211
215 2 2.85908 11.4397 6.6157
216 4 5.17367 7.37017 7.9021
217 3 5.46145 6.09507 8.88574
218 1 3.82223 6.81309 6.77058
219 2 3.90305 6.88157 5.69128
220 2 3.35821 5.82944 7.00803
221 2 3.02617 7.55341 6.85602
222 1 6.9313 7.90437 7.41597
223 2 7.58749 7.84025 8.25861
224 2 7.24297 7.20039 6.6226
225 2 6.8955 8.93688 7.05105
226 4 6.16728 4.59921 9.00093
227 1 6.22541 3.75914 7.23034
228 2 5.87218 2.76459 7.61046
229 2 5.46512 4.04752 6.51969
230 2 7.2243 3.73802 6.76377
231 1 7.88985 4.89601 9.57638
232 2 8.31139 3.88043 9.43715
233 2 8.58208 5.48899 8.90321
234 4 13.6188 17.5536 5.72113
235 3 12.6023 16.1698 5.76339
236 1 15.1932 17.3256 4.60212
237 2 16.0906 17.0879 5.24537
238 2 15.0449 16.4551 3.89885
239 2 15.3958 18.1389 3.88775
240 1 13.6065 18.4266 7.31856
241 2 13.3128 0.352901 7.00093
242 2 13.016 17.9423 8.15501
243 2 14.7244 18.4892 7.54888
244 4 11.9687 14.9379 6.66885
245 3 12.7431 13.4583 6.45502
246 1 12.0369 15.0787 8.47253
247 2 13.0467 14.7204 8.71175
248 2 11.9009 16.0973 8.84865
249 2 11.1727 14.3911 8.78785
250 1 10.1496 14.7349 6.1934
251 2 10.0781 14.2271 5.18091
252 2 9.45436 14.1513 6.8205
253 2 9.76865 15.7393 5.91604
254 4 14.1954 12.6618 6.46182
255 3 13.9129 11.0183 6.70779
256 1 15.1777 13.2245 8.01984
257 2 14.6807 13.7927 8.82344
258 2 15.339 12.303 8.59475
259 2 16.1994 13.6369 7.85577
260 1 15.0859 13.0266 4.92495
261 2 14.4039 12.5008 4.24014
262 2 15.1354 14.0618 4.5883
263 2 16.0761 12.4985 4.9566
264 4 13.2562 9.81084 7.77811
265 3 12.6606 8.36083 7.19343
266 1 11.7588 10.6515 8.57205
267 2 12.2073 11.6118 8.71211
268 2 10.8117 10.7025 8.03012
269 2 11.5588 10.2115 9.57402
270 1 14.4965 9.39162 9.10921
271 2 14.9988 10.2249 9.55677
272 2 13.9527 8.85163 9.96719
273 2 15.1877 8.59924 8.6718
274 4 12.11 6.81117 7.70973
275 3 13.5497 6.12528 8.38688
276 1 11.3845 5.90238 6.1699
277 2 11.6154 6.50293 5.28791
278 2 11.6085 4.83611 5.97393
279 2 10.2952 5.9426 6.39648
280 1 10.8929 7.07019 9.04604
281 2 11.2011 7.91238 9.68023
282 2 9.92292 7.22734 8.535
283 2 10.7451 6.21342 9.67812
284 4 14.0726 4.56565 8.12136
285 1 13.7394 3.77129 6.58161
286 2 13.4634 2.70903 6.49229
287 2 13.7527 4.30284 5.63943
288 1 14.4826 3.52359 9.68069
289 2 15.5463 3.53857 9.89787
290 2 13.9592 3.97988 10.5722
291 2 14.1945 2.49059 9.55098
292 4 18.9303 10.0726 7.33223
293 3 19.2057 8.80547 8.63592
294 1 17.0589 9.71536 6.93477
295 2 16.6123 8.7212 7.31616
296 2 16.5246 10.5016 7.49068
297 2 16.9002 9.84516 5.90391
298 1 19.305 11.8134 8.05574
299 2 20.215 12.295 7.43563
300 2 18.2315 12.3771 7.80497
301 2 19.6901 12.004 9.10179
302 4 19.84 8.20144 10.1779
303 3 18.9955 6.92993 10.7516
304 1 21.5333 7.72089 9.81992
305 2 21.9783 7.42596 10.8498
306 2 21.6205 6.61573 9.49051
307 2 0.316174 7.82204 9.1927
308 1 20.0336 9.702 11.4106
309 2 18.9932 9.93975 11.6408
310 2 20.5785 9.57685 12.3253
311 2 20.3608 10.5177 10.7444
312 4 18.2824 5.41487 10.7489
313 3 18.1645 4.8371 9.09385
314 1 19.3941 3.96956 11.161
315 2 20.2071 3.75725 10.4031
316 2 19.8845 4.1312 12.1491
317 2 18.8342 3.05412 11.2044
318 1 16.6102 5.85321 11.4459
319 2 15.8741 6.0024 10.6097
320 2 16.2527 5.09903 12.1844
321 2 16.6899 6.83102 11.9493
322 4 18.4863 4.55696 7.57251
323 3 18.0842 2.79707 7.34839
324 1 17.4597 5.40052 6.18892
325 2 18.0581 5.61662 5.28758
326 2 16.4726 4.92408 5.98158
327 2 17.2278 6.43113 6.5039
328 1 20.1803 5.18766 6.94882
329 2 19.9185 6.16714 6.49379
330 2 20.8451 5.44957 7.75359
331 2 20.5807 4.47638 6.23268
332 4 17.696 1.9006 5.93391
333 3 18.2234 0.385012 6.86795
334 1 15.8797 1.82632 5.46497
335 2 15.7696 1.36998 4.448
336 2 15.3013 1.33129 6.25591
337 2 15.4593 2.85715 5.37974
338 1 19.0917 1.9707 4.54673
339 2 19.4514 3.00159 4.82077
340 2 19.765 1.11941 4.70388
341 2 18.7068 2.03083 3.59719
342 4 18.3063 0.63668 8.45099
343 1 17.193 0.989456 9.79059
344 2 16.416 1.72438 9.58109
345 2 16.7562 0.00577687 10.0181
346 2 17.9261 1.21366 10.6164
347 1 19.943 0.00329584 9.08424
348 2 19.7843 18.7834 10.077
349 2 19.6056 18.0994 8.70537
350 2 20.7348 0.422727 8.23728
351 4 1.26901 14.6409 14.5551
352 3 1.05359 13.4057 15.8544
353 1 21.9669 16.0743 15.1114
354 2 0.183662 16.9099 14.1812
355 2 21.4682 15.1261 15.0363
356 2 0.0830015 16.6748 15.9729
357 1 0.602641 13.9034 13.1907
358 2 21.9224 13.2286 13.5593
359 2 0.177051 14.3816 12.3237
360 2 1.06494 13.2256 12.3152
361 4 0.15275 12.0891 15.9054
362 3 1.01998 10.6793 15.9108
363 1 21.2237 12.1505 17.469
364 2 0.158778 11.7452 18.1743
365 2 20.7287 13.3186 17.6696
366 2 20.4577 11.4735 17.287
367 1 2.92661 15.532 14.4557
368 2 3.84418 15.2389 15.0049
369 2 3.01372 15.474 13.3326
370 2 2.80742 16.6912 14.424
371 4 2.3708 10.1972 15.054
372 3 1.98936 8.59335 14.6266
373 1 3.9177 10.4474 16.1647
374 2 4.42099 11.3314 15.6421
375 2 3.8395 10.8455 17.1835
376 2 4.52919 9.5229 16.205
377 1 2.4479 11.3184 13.6113
378 2 1.85135 11.0895 12.67
379 2 2.22189 12.3762 13.6897
380 2 3.49058 11.1473 13.221
381 4 2.83923 7.69526 13.4204
382 3 2.78326 5.95135 13.6653
383 1 4.61079 8.39942 13.385
384 2 4.95786 8.1818 12.3947
385 2 4.41769 9.43238 13.1811
386 2 5.39374 8.26742 14.225
387 1 2.31624 8.31608 11.7561
388 2 2.76747 7.93085 10.8158
389 2 1.23096 8.32822 11.6224
390 2 2.56842 9.40537 11.8279
391 4 2.74349 4.42221 13.0033
392 3 3.55649 4.57412 11.5136
393 1 3.32694 3.42229 14.3889
394 2 2.43007 3.3891 14.9416
395 2 3.38643 2.35501 14.0086
396 2 4.1233 3.54415 15.028
397 1 0.964016 4.30732 12.3431
398 2 0.161067 3.5938 12.8662
399 2 0.611567 5.46704 12.271
400 2 0.884875 3.81322 11.2683
401 4 4.60044 3.65855 10.4986
402 1 3.38112 2.48042 9.57034
403 2 2.28372 2.72088 9.78886
404 2 3.53795 2.61836 8.47918
405 2 3.47981 1.40209 9.63323
406 1 6.04512 3.09746 11.5628
407 2 6.84294 2.64482 10.9575
408 2 5.76631 2.30297 12.2866
409 4 7.66639 16.2151 14.4888
410 3 8.13461 14.6236 14.119
411 1 7.21817 17.2111 16.063
412 2 7.66575 16.9344 17.0151
413 2 7.80666 18.1507 15.8579
414 2 6.16781 17.408 15.8868
415 1 6.17508 17.0651 13.673
416 2 5.47201 16.6711 12.9517
417 2 5.69089 17.5338 14.55
418 2 6.6829 17.8524 13.0148
419 4 7.39674 13.321 14.791
420 3 8.58022 12.2529 14.8623
421 1 6.80452 13.0758 16.4684
422 2 7.56709 12.3705 16.8704
423 2 6.76091 13.9825 17.0841
424 2 5.88384 12.5198 16.4766
425 1 5.99357 13.2502 13.5088
426 2 5.05336 12.8033 13.8688
427 2 5.83412 14.3157 13.3695
428 2 6.38206 12.8551 12.5438
429 4 9.88923 11.9863 14.1562
430 3 10.139 10.3281 14.0423
431 1 11.2841 12.645 15.2176
432 2 11.3366 13.748 15.2511
433 2 11.3227 12.3623 16.2585
434 2 12.2963 12.3033 14.8539
435 1 10.0103 12.4323 12.3176
436 2 10.9797 11.9408 12.1013
437 2 9.22084 12.2057 11.5525
438 2 10.2221 13.4998 12.0529
439 4 11.1371 9.01465 14.0667
440 3 10.3496 7.7336 13.3072
441 1 11.4729 8.36596 15.7943
442 2 10.5688 8.02021 16.2806
443 2 12.1373 7.49008 15.7298
444 2 11.9209 9.05177 16.5151
445 1 12.8411 9.52708 13.279
446 2 12.8077 9.37388 12.1624
447 2 12.8119 10.624 13.2684
448 4 10.0983 6.12608 13.5175
449 3 9.58477 5.7254 11.9313
450 1 8.62511 5.83989 14.5599
451 2 8.41988 6.69326 15.2247
452 2 7.77494 5.62437 13.8874
453 2 8.70714 4.89504 15.1543
454 1 11.6088 5.18169 14.1022
455 2 11.1821 4.43279 14.7443
456 2 12.11 4.64657 13.2714
457 2 12.3158 5.79277 14.6904
458 4 8.39636 4.6633 11.3091
459 1 6.6866 4.29067 12.2579
460 2 6.12914 5.23387 12.3542
461 2 6.78067 4.06025 13.3236
462 1 9.54241 3.21528 11.3748
463 2 10.4075 3.34793 10.6894
464 2 9.85992 3.1242 12.4354
465 2 9.1044 2.24212 11.0857
466 4 18.7298 15.1209 12.1723
467 3 17.7296 14.8873 13.5077
468 1 18.057 16.456 11.0367
469 2 18.7073 17.3268 10.865
470 2 18.0149 15.9337 10.0554
471 2 17.0402 16.6928 11.4426
472 1 19.0922 13.6183 11.1318
473 2 19.9216 13.0625 11.6028
474 2 18.2322 12.9156 11.0048
475 2 19.2787 13.9684 10.0903
476 4 17.159 15.2887 15.0551
477 3 16.4026 13.9106 15.555
478 1 18.6116 15.383 16.2037
479 2 18.4888 15.5969 17.2421
480 2 19.0444 14.3619 16.1713
481 2 19.4055 15.9854 15.734
482 1 15.9945 16.785 15.2481
483 2 15.6307 17.3015 14.361
484 2 15.066 16.4205 15.7341
485 2 16.3269 17.5927 15.8732
486 4 15.1547 12.8739 15.3682
487 3 15.7782 11.3768 15.0181
488 1 14.3139 12.5712 16.8899
489 2 13.3911 12.0145 16.5843
490 2 14.8618 11.9699 17.6248
491 2 13.8418 13.47 17.3889
492 1 14.1858 13.7903 14.0203
493 2 13.6893 13.0416 13.3352
494 2 13.334 14.4143 14.3594
495 2 14.9288 14.4087 13.4569
496 4 15.7656 10.3082 13.7292
497 3 16.9092 9.00942 14.0238
498 1 14.2475 9.08571 13.7765
499 2 14.5929 8.10697 13.3375
500 2 14.0786 8.77558 14.827
501 1 16.0468 11.0053 11.9857
502 2 16.9174 10.6054 11.5126
503 2 15.162 10.8384 11.3753
504 2 16.0761 12.088 12.0871
505 4 18.151 8.37208 15.004
506 3 17.5687 7.23002 16.173
507 1 19.3947 7.4217 14.0062
508 2 19.0674 7.24038 12.9862
509 2 20.4123 7.8713 13.9108
510 2 19.4868 6.41115 14.4727
511 1 18.5845 9.4931 16.4076
512 2 19.3329 10.2872 16.2112
513 2 17.5904 9.9165 16.8047
514 2 18.9972 8.80854 17.16
515 4 16.4829 5.99156 16.006
516 1 14.7918 6.64952 16.4145
517 2 14.5926 6.48125 17.4663
518 2 14.711 7.74457 16.4477
519 2 13.9748 6.14499 15.8807
520 1 16.5752 4.72516 14.6525
521 2 17.1481 4.91293 13.754
522 2 17.0399 3.78207 15.0167
523 2 15.5506 4.4265 14.3171
ITEM: TIMESTEP
3500
ITEM: NUMBER OF ATOMS
523
ITEM: BOX BOUNDS pp pp pp
-3.8342454237252355e-03 2.2003834245423747e+01
-3.3253300371676175e-03 1.9083288330037149e+01
-3.4856776579932358e-03 2.0003485677657991e+01
ITEM: ATOMS id type x y z
1 4 1.26124 12.712 2.37081
2 3 2.20029 11.4995 2.9864
3 1 1.447 14.708 2.67577
4 2 1.94594 15.085 3.65182
5 2 2.19134 15.1007 1.9226
6 2 0.542936 15.1924 2.53027
7 1 21.0945 9.91119 6.42404
8 2 0.0733806 9.91357 6.80703
9 2 20.9602 10.6875 5.62826
10 2 21.3677 9.02601 5.74713
11 4 3.35739 11.3723 1.4013
12 3 3.00002 9.59273 1.19049
13 1 4.99422 12.2308 1.65441
14 2 5.66919 12.7182 0.860052
15 2 4.3964 13.1984 1.94445
16 2 5.66695 11.8073 2.53659
17 1 1.90168 12.1832 0.531516
18 2 2.04607 12.7816 19.2929
19 2 1.39302 11.2615 0.306715
20 2 8.95615 15.3759 15.4037
21 4 3.31605 7.93539 1.24252
22 3 1.79604 7.44897 1.10337
23 1 4.21984 7.41035 2.77965
24 2 4.12906 8.16737 3.59962
25 2 3.74245 6.42877 3.08467
26 2 5.27487 7.25782 2.52485
27 1 4.14469 7.67778 19.3204
28 2 4.91086 6.91071 19.0278
29 2 3.49901 7.81304 18.4585
30 2 4.57483 8.51543 19.9008
31 4 1.13968 6.00388 1.01506
32 3 2.7688 5.19513 1.09332
33 1 0.0555986 6.18404 19.506
34 2 21.727 5.05753 19.015
35 2 21.1173 6.71029 19.782
36 2 0.640069 6.76006 18.6243
37 1 22.0085 5.48589 2.58981
38 2 0.614538 5.04397 3.2363
39 2 21.9342 6.56785 2.97719
40 2 21.1407 4.80957 2.40238
41 4 3.29486 3.46289 0.614471
42 3 2.49901 2.37517 1.66739
43 1 5.06866 2.86812 0.681668
44 2 4.84713 1.94107 0.0253689
45 2 5.80465 3.57997 0.238256
46 2 5.3588 2.60255 1.72919
47 1 3.12354 3.25258 18.5565
48 2 2.64251 2.33442 18.4484
49 2 2.58345 4.0165 18.0058
50 2 4.30083 3.28599 18.469
51 4 1.07644 1.75728 2.1249
52 1 1.26719 2.0476 4.19752
53 2 2.2518 1.41197 4.20093
54 2 1.19932 2.81432 5.1876
55 2 0.654837 0.818075 4.35915
56 1 21.6683 0.554903 1.08351
57 2 0.139366 0.597245 0.253074
58 2 20.6908 19.0491 1.18594
59 2 21.5102 1.46478 1.94676
60 4 10.0262 17.3868 2.18395
61 3 9.80973 15.7752 1.80588
62 1 8.79712 18.3285 3.02544
63 2 9.30238 0.0458344 3.48967
64 2 8.25248 18.8223 2.16837
65 2 8.05704 17.8184 3.74422
66 1 11.2816 18.2728 1.12242
67 2 9.80789 2.98799 2.05079
68 2 12.0413 18.1922 0.624268
69 2 12.332 0.25884 1.93782
70 4 9.25134 14.7237 0.700999
71 3 9.8549 13.3443 1.1538
72 1 9.93091 14.9512 18.9997
73 2 9.88167 15.9413 18.81
74 2 10.9878 14.9315 18.7626
75 2 9.39313 14.684 17.8942
76 1 7.10814 15.015 0.784688
77 2 6.64418 16.0405 0.502302
78 2 6.37982 14.4103 0.0599097
79 2 6.78524 14.4624 1.72115
80 4 10.7014 11.8756 0.562544
81 3 10.6869 10.9713 1.86123
82 1 12.665 12.6084 0.159253
83 2 12.7048 13.354 1.02553
84 2 13.4571 11.9418 0.279096
85 2 12.3065 13.1449 19.2281
86 1 10.2411 10.95 19.0256
87 2 10.0556 11.508 18.1369
88 2 11.2153 10.3595 18.9115
89 2 9.54759 10.1805 19.2268
90 4 11.2898 9.59601 2.60575
91 3 10.6693 8.23017 1.90315
92 1 10.2586 9.78139 4.28725
93 2 9.20386 9.74338 4.30527
94 2 10.7696 9.16836 5.02486
95 2 10.5346 10.8057 4.60136
96 1 13.2699 9.52324 2.48477
97 2 13.2329 9.81379 1.32374
98 2 13.6506 10.3204 3.03951
99 4 9.38026 7.07275 2.0451
100 3 9.44595 5.39596 1.98033
101 1 8.02274 7.77394 0.865546
102 2 7.49241 8.55522 1.76991
103 2 8.73648 8.51433 0.0279919
104 2 7.34412 7.22617 0.490589
105 1 8.64953 7.21703 3.79239
106 2 8.65519 6.17178 4.13686
107 2 9.0686 7.86327 4.56116
108 2 7.56135 7.38207 3.71781
109 4 9.67368 3.94464 1.23992
110 1 11.0064 3.819 19.8873
111 2 12.0961 3.84344 19.925
112 2 10.656 2.8253 19.5156
113 2 10.4327 4.44774 19.0755
114 1 8.15344 3.73003 0.135959
115 2 7.30932 3.62463 0.813503
116 2 7.65185 4.3785 19.4463
117 2 8.42334 2.74359 19.8765
118 4 17.9883 14.5128 1.28279
119 3 17.8866 13.2154 2.30542
120 1 19.619 14.1721 0.442636
121 2 19.9687 14.5354 19.6016
122 2 20.4162 14.0667 1.10771
123 2 19.4369 13.2064 -0.00307159
124 1 16.4345 14.8204 0.418498
125 2 15.7578 14.4058 1.05317
126 2 16.1656 16.1081 0.433772
127 2 16.2903 14.0893 19.292
128 4 17.3621 12.0073 3.37825
129 3 17.4652 10.5763 2.48158
130 1 17.9145 16.2448 2.38599
131 2 17.1811 16.8628 1.87342
132 2 17.568 16.0661 3.42932
133 2 18.8242 16.8341 2.37808
134 1 12.0168 18.859 6.02328
135 2 11.8828 18.4995 4.95482
136 2 12.2198 0.755499 5.76136
137 2 10.9745 18.7858 6.54214
138 4 17.7534 9.36694 1.1456
139 3 16.3099 8.91948 0.722953
140 1 18.6486 10.364 0.0512882
141 2 19.5041 9.79623 19.912
142 2 18.5693 10.7625 19.2122
143 2 19.6742 11.1883 0.254017
144 1 18.6301 7.8662 2.2851
145 2 18.8586 6.74387 2.02661
146 2 19.6363 8.53257 2.53961
147 2 18.1255 8.08825 3.20747
148 4 15.0161 7.9067 1.14603
149 3 15.9051 6.49366 1.47822
150 1 13.938 8.1739 2.76899
151 2 13.3224 7.35693 2.37415
152 2 14.3761 7.94646 3.77681
153 1 13.7151 7.70299 19.9574
154 2 13.6116 8.58603 19.6635
155 2 14.2829 7.49429 18.9171
156 2 12.794 6.942 20.0137
157 4 16.3559 4.95523 1.10203
158 3 16.5379 4.85977 19.5186
159 1 14.8014 3.89503 0.98137
160 2 14.2042 4.23165 0.119133
161 2 15.2937 2.92143 0.704938
162 2 14.227 3.9255 1.9277
163 1 17.8551 4.44278 2.27138
164 2 17.9298 3.32314 2.22924
165 2 18.686 5.11382 2.20571
166 2 17.4109 4.51277 3.24647
167 4 17.1381 4.41453 18.0239
168 1 17.4895 2.53136 17.7317
169 2 16.5673 1.69875 17.8888
170 2 17.6867 2.48472 16.6016
171 2 18.4002 2.25033 18.1141
172 1 18.7977 5.31349 18.2605
173 2 18.7209 6.37235 18.5126
174 2 19.5756 5.05817 18.856
175 2 19.2231 5.1828 17.1836
176 4 3.46198 16.8294 9.67709
177 3 4.75595 16.6983 8.72479
178 1 1.74024 17.0235 8.97125
179 2 1.07993 16.7139 9.82977
180 2 1.49042 18.0797 8.76065
181 2 1.5515 16.3825 8.08173
182 1 3.64013 15.7963 11.1074
183 2 3.34328 14.7362 10.8616
184 2 4.60842 15.9612 11.5539
185 2 2.96521 16.3175 11.7826
186 4 5.7815 15.9915 7.52695
187 3 5.49527 14.3727 7.60721
188 1 7.5609 16.0638 8.24438
189 2 7.81405 17.0261 8.65343
190 2 7.69495 15.3118 9.0509
191 2 8.14621 15.8195 7.35097
192 1 5.41014 17.1038 6.08578
193 2 5.42571 16.5978 5.13028
194 2 4.40325 17.4986 6.24473
195 2 6.21829 17.8221 6.23114
196 4 6.1289 12.8929 6.97812
197 3 5.06454 11.6225 6.84716
198 1 7.18026 12.2758 8.41783
199 2 7.72928 13.0423 8.96477
200 2 6.5717 11.8205 9.19492
201 2 7.95129 11.5647 8.0401
202 1 6.8655 13.4143 5.4109
203 2 6.44888 12.6778 4.62511
204 2 6.54394 14.415 5.23494
205 2 7.95347 13.3852 5.47365
206 4 4.08723 10.3564 7.33575
207 3 4.8999 8.83487 7.71685
208 1 3.02755 10.7427 8.85618
209 2 3.2918 11.7899 9.21378
210 2 1.96323 10.9013 8.67135
211 2 3.22341 10.0231 9.64729
212 1 3.23976 9.8232 5.70967
213 2 4.13498 9.47797 5.18455
214 2 2.44439 9.0691 5.78464
215 2 2.939 10.6562 5.04773
216 4 5.4306 7.29411 7.52888
217 3 5.20525 6.38741 8.87857
218 1 4.76819 6.79192 5.84023
219 2 5.6983 6.62905 5.29286
220 2 4.14305 5.85486 5.93901
221 2 4.04635 7.50014 5.41899
222 1 7.17457 7.66201 7.39426
223 2 7.44845 8.03671 6.40604
224 2 7.48279 8.42316 8.12903
225 2 7.88256 6.81645 7.52742
226 4 6.04958 5.17858 9.65227
227 1 6.85396 3.7825 8.48166
228 2 7.98709 3.75995 8.47979
229 2 6.5344 2.76623 8.72498
230 2 6.56166 3.99133 7.42869
231 1 7.54315 5.91371 10.6387
232 2 8.11932 6.6407 10.049
233 2 7.12456 6.35146 11.583
234 4 13.0334 17.4605 6.67059
235 3 11.9953 16.1762 6.51053
236 1 14.3238 16.9709 5.26172
237 2 13.9562 17.3756 4.2707
238 2 15.2541 17.4862 5.5251
239 2 14.6467 15.9133 5.19991
240 1 13.7257 17.6954 8.33271
241 2 13.5717 18.7809 8.49075
242 2 13.1288 17.0856 9.08976
243 2 14.761 17.3451 8.64219
244 4 11.8432 14.5997 6.84645
245 3 13.4296 13.9737 6.75311
246 1 11.3921 14.4841 8.67495
247 2 11.2901 13.4358 9.02711
248 2 12.2086 14.8524 9.33399
249 2 10.4823 15.0995 8.94126
250 1 10.7909 13.7727 5.56989
251 2 10.8938 14.2738 4.60337
252 2 11.2067 12.7349 5.55933
253 2 9.72846 13.6593 5.91006
254 4 14.4238 12.5828 6.62741
255 3 13.7079 11.3717 7.42363
256 1 16.0168 13.4128 7.01283
257 2 15.6895 14.4757 6.89674
258 2 16.3183 13.2138 8.04184
259 2 16.7941 13.2473 6.24475
260 1 14.4737 12.1625 4.85043
261 2 14.917 11.1887 4.72668
262 2 13.4816 11.9874 4.31884
263 2 15.0889 12.8472 4.24823
264 4 12.7107 10.2544 8.11689
265 3 12.7471 8.86959 7.15564
266 1 10.9492 10.845 8.05044
267 2 10.5309 10.6981 9.01281
268 2 10.8073 11.9034 7.87112
269 2 10.3479 10.286 7.36809
270 1 13.5529 9.96594 9.75922
271 2 14.5701 10.2856 9.74707
272 2 12.9864 10.5632 10.5424
273 2 13.3952 8.96259 10.1661
274 4 12.1581 7.30224 7.52744
275 3 13.6338 6.43541 7.58329
276 1 11.1697 6.49516 6.12214
277 2 10.6399 5.55295 6.36544
278 2 10.6043 7.24169 5.56569
279 2 11.9789 6.2385 5.41201
280 1 11.339 7.38586 9.20648
281 2 11.6311 8.34024 9.67975
282 2 10.2284 7.39715 9.21199
283 2 11.6309 6.60775 9.93905
284 4 13.8683 4.84575 7.42043
285 1 14.6832 3.85257 6.22196
286 2 14.5993 2.76773 6.39165
287 2 15.3408 4.27449 5.53521
288 1 13.5035 4.02852 9.06678
289 2 14.2703 3.37749 9.43871
290 2 13.3825 4.90973 9.76382
291 2 12.5469 3.43421 9.04372
292 4 19.5836 10.1359 7.51268
293 3 19.6855 8.96172 8.70235
294 1 17.916 9.70183 6.70766
295 2 17.6912 10.737 6.38728
296 2 18.0665 9.22635 5.69324
297 2 17.0751 9.34664 7.35984
298 1 19.3837 11.979 7.95104
299 2 20.3129 12.4491 8.36233
300 2 19.0242 12.5205 7.01623
301 2 18.9941 11.7822 8.97898
302 4 20.188 7.92838 10.0012
303 3 18.7483 6.83804 10.1318
304 1 21.4949 7.10134 8.96904
305 2 0.501375 7.07458 9.53025
306 2 21.429 6.14062 8.75755
307 2 21.515 7.97404 8.30576
308 1 20.2379 8.5256 11.6493
309 2 21.2984 8.44263 11.9856
310 2 20.2423 9.63296 11.5956
311 2 19.5921 8.12366 12.4341
312 4 17.5843 5.75009 10.1084
313 3 17.3995 5.04135 8.49472
314 1 17.6119 4.48891 11.3961
315 2 16.5537 4.10437 11.4785
316 2 18.328 3.66231 11.3684
317 2 17.7951 5.08796 12.2783
318 1 15.9796 6.60553 10.563
319 2 16.136 7.68293 10.5604
320 2 15.1075 6.35277 9.95531
321 2 15.7026 6.33143 11.5794
322 4 18.4361 4.42837 7.46259
323 3 17.391 3.40414 6.41423
324 1 19.6331 5.40553 6.41295
325 2 20.5601 4.79871 6.34668
326 2 19.2677 5.49761 5.35281
327 2 19.8818 6.34794 6.93037
328 1 19.0081 2.90458 8.53131
329 2 18.0363 2.3912 8.57397
330 2 19.8418 2.28133 8.1657
331 2 19.257 3.17485 9.57094
332 4 17.8907 1.8839 5.83922
333 3 17.807 0.791307 7.09703
334 1 16.4921 1.54721 4.57753
335 2 16.7917 1.60718 3.51789
336 2 15.7837 0.73465 4.64305
337 2 15.9679 2.5141 4.73754
338 1 19.5348 1.58662 5.1897
339 2 20.0492 2.13269 4.34159
340 2 20.3869 1.44607 5.93282
341 2 19.4407 0.567516 4.74777
342 4 18.5712 19.0392 8.23155
343 1 17.2529 17.5578 8.5287
344 2 17.2936 17.0209 7.62158
345 2 17.3042 16.9558 9.49149
346 2 16.3745 18.2109 8.38276
347 1 20.0418 18.459 7.52043
348 2 19.9688 17.4982 7.84654
349 2 19.6694 18.1581 6.47795
350 2 21.382 18.4638 7.57662
351 4 1.13631 15.2466 15.3018
352 3 0.172897 13.664 15.4
353 1 0.642367 16.498 16.3935
354 2 0.633634 17.5208 17.0033
355 2 21.6363 16.7942 15.8999
356 2 0.237579 16.2148 17.3385
357 1 1.40011 15.7131 13.301
358 2 1.79324 14.5951 12.6939
359 2 21.168 15.0329 13.3576
360 2 1.91449 16.7318 13.1506
361 4 21.9459 12.3334 16.1311
362 3 0.689257 11.356 14.9388
363 1 21.4956 11.7048 17.8451
364 2 20.7371 10.9335 17.9093
365 2 0.448408 11.1494 18.3408
366 2 21.4106 12.6137 18.6191
367 1 2.82134 14.5598 16.1216
368 2 3.0705 13.4534 16.1638
369 2 3.40573 15.4424 15.8603
370 2 2.43431 14.6575 17.1648
371 4 2.091 10.5418 14.8971
372 3 1.83705 8.84184 14.4005
373 1 2.6633 10.0205 16.6366
374 2 3.66089 10.5842 16.8652
375 2 1.90845 10.1173 17.5508
376 2 2.93556 8.92261 16.5583
377 1 3.09893 11.4534 13.6766
378 2 3.42518 10.9342 12.8111
379 2 2.34291 12.1691 13.3534
380 2 3.95714 11.8667 14.1287
381 4 2.95452 8.06441 13.4618
382 3 2.79653 6.53481 13.9546
383 1 4.76841 8.49294 13.7983
384 2 5.344 7.636 13.4737
385 2 5.09597 9.33473 13.2487
386 2 4.93747 8.69473 14.8933
387 1 2.54037 8.16761 11.5701
388 2 3.52709 8.19326 11.0776
389 2 2.11408 7.24286 11.1543
390 2 2.03853 9.15925 11.3288
391 4 3.07124 4.93547 13.494
392 3 4.15735 4.94492 12.1963
393 1 3.81357 4.32819 15.1241
394 2 2.95219 4.53028 15.756
395 2 4.09125 3.34518 15.1067
396 2 4.75617 4.92864 15.3172
397 1 1.51194 4.0149 13.2631
398 2 0.479521 4.49062 12.9937
399 2 1.63733 2.85503 12.9843
400 2 1.48828 3.77829 14.3301
401 4 4.87641 3.95499 11.0586
402 1 3.26024 3.21393 10.346
403 2 2.61381 2.63861 11.0688
404 2 2.73914 4.11933 10.0076
405 2 3.42278 2.54519 9.50721
406 1 6.33769 2.77188 11.6249
407 2 6.78897 2.36627 10.7086
408 2 5.91595 1.86955 12.1147
409 4 7.75155 15.5038 14.839
410 3 7.20137 13.9675 14.3256
411 1 6.48111 15.806 16.2808
412 2 6.50592 16.8189 16.6507
413 2 5.48108 15.5534 15.93
414 2 6.86885 15.3766 17.1928
415 1 7.26333 16.5764 13.1906
416 2 7.45789 17.5983 13.262
417 2 7.73914 15.9592 12.4087
418 2 6.23494 16.3365 13.0799
419 4 6.9436 12.2928 14.2208
420 3 8.54663 11.823 14.28
421 1 6.39806 11.5537 15.8574
422 2 6.897 10.6109 16.1801
423 2 6.43872 12.2781 16.7084
424 2 5.34496 11.2318 15.8512
425 1 5.95471 12.1993 12.7051
426 2 5.27998 11.3565 12.5583
427 2 5.37664 13.0312 12.3398
428 2 6.71911 12.0068 11.9203
429 4 10.2268 11.55 14.1882
430 3 10.1965 9.9543 14.3639
431 1 11.0885 12.2146 15.775
432 2 10.8286 11.4427 16.4874
433 2 12.1104 12.1481 15.4744
434 2 10.8367 13.1793 16.1306
435 1 10.668 12.2767 12.4847
436 2 11.7191 12.3892 12.2134
437 2 10.1029 11.8164 11.6517
438 2 10.1512 13.2284 12.5468
439 4 11.2536 8.6952 14.7008
440 3 10.6704 7.39609 13.9515
441 1 11.8275 8.30364 16.4783
442 2 11.7382 7.20451 16.5376
443 2 12.9135 8.52298 16.5529
444 2 11.2808 8.78935 17.2996
445 1 12.7247 9.56196 13.9569
446 2 12.4158 10.0687 13.0573
447 2 12.8673 10.3957 14.6897
448 4 10.1499 5.7925 14.0398
449 3 9.22996 5.67397 12.7132
450 1 8.86384 5.56079 15.455
451 2 8.01909 6.14937 15.154
452 2 8.53023 4.56978 15.7069
453 2 9.20888 6.01428 16.3893
454 1 11.5436 4.60641 14.4391
455 2 12.2104 4.60154 13.5532
456 2 12.1957 5.13376 15.1704
457 2 11.2479 3.60492 14.7978
458 4 8.72032 4.58701 11.4851
459 1 7.50722 3.46595 12.4731
460 2 7.10155 4.12693 13.2754
461 2 7.91397 2.7411 13.2205
462 1 10.1847 3.81482 10.7178
463 2 9.93895 3.38645 9.72038
464 2 11.1689 4.32124 10.6714
465 2 10.3386 2.92785 11.3373
466 4 19.7668 15.6112 12.7043
467 3 18.3545 15.2169 13.4328
468 1 19.7758 17.5075 12.9127
469 2 19.4644 17.9741 13.9033
470 2 20.7008 17.9045 12.5088
471 2 19.1571 17.742 12.0161
472 1 19.5393 14.9326 11.0093
473 2 20.2252 15.2157 10.2224
474 2 19.6433 13.8782 11.3184
475 2 18.5505 14.979 10.5449
476 4 17.8272 14.9134 14.9954
477 3 16.9861 13.4937 15.0043
478 1 18.9263 14.7313 16.5041
479 2 18.2334 14.3207 17.335
480 2 19.8501 14.0734 16.4991
481 2 19.3419 15.7617 16.7587
482 1 16.4526 16.0761 15.3412
483 2 16.6456 16.6114 16.2678
484 2 16.4023 16.7886 14.5023
485 2 15.6058 15.4281 15.4885
486 4 15.6 12.6948 14.8214
487 3 15.7264 11.1394 14.4834
488 1 14.6754 12.9563 16.4238
489 2 14.042 12.073 16.6313
490 2 15.3261 13.1432 17.2576
491 2 13.9887 13.8372 16.2441
492 1 14.6719 13.3046 13.3121
493 2 13.7747 12.7318 12.9903
494 2 14.1633 14.2272 13.5745
495 2 15.1453 13.545 12.3932
496 4 15.6822 9.67067 13.6124
497 3 16.884 8.65229 14.1333
498 1 14.0344 8.75601 13.814
499 2 13.9761 7.95292 13.0646
500 2 14.1417 8.20764 14.7953
501 1 16.5657 10.2816 11.9858
502 2 17.5204 9.80103 11.9603
503 2 16.0134 10.1237 11.0597
504 2 16.7407 11.3914 12.0127
505 4 17.5976 8.41462 15.6684
506 3 16.7515 7.32165 16.5722
507 1 19.2254 7.62324 15.1812
508 2 19.0086 6.70075 14.6688
509 2 19.6602 8.32566 14.4358
510 2 19.9135 7.41366 16.0067
511 1 17.7241 9.95284 16.5901
512 2 17.0296 10.676 16.176
513 2 17.5829 9.73207 17.6744
514 2 18.6732 10.4415 16.5368
515 4 16.1881 5.73908 16.4272
516 1 14.3646 5.6354 16.3852
517 2 14.1502 4.57061 16.5495
518 2 13.8624 6.1353 17.2482
519 2 13.9472 5.97095 15.41
520 1 16.7356 5.03554 14.8286
521 2 16.7322 5.79703 14.0059
522 2 17.6961 4.51551 14.9495
523 2 15.9345 4.3275 14.5323
ITEM: TIMESTEP
4000
ITEM: NUMBER OF ATOMS
523
ITEM: BOX BOUNDS pp pp pp
2.4803189401900738e-03 2.1997519681059845e+01
2.1511088003123291e-03 1.9077811891199723e+01
2.2548354001283855e-03 1.9997745164599870e+01
ITEM: ATOMS id type x y z
1 4 0.0688873 12.089 1.92955
2 3 1.58949 11.3387 2.56458
3 1 0.318414 13.7202 3.02253
4 2 0.796946 13.942 4.10797
5 2 1.18651 14.386 2.54509
6 2 21.6394 14.5084 3.18222
7 1 21.1812 10.1301 5.91286
8 2 0.14836 9.71722 6.11426
9 2 20.8383 11.174 5.73863
10 2 20.2534 9.56715 5.63776
11 4 2.57111 10.9757 1.30129
12 3 3.01026 9.31499 1.65795
13 1 4.42816 11.7306 1.53177
14 2 4.84426 12.559 0.906742
15 2 4.20272 12.1616 2.54325
16 2 5.12086 10.8919 1.71146
17 1 2.05067 11.3907 19.5055
18 2 0.561016 12.9138 0.790543
19 2 1.19615 10.6891 19.855
20 2 7.88781 14.5759 16.3276
21 4 3.87037 8.26125 0.909194
22 3 2.81304 6.79821 0.69627
23 1 5.17066 7.43327 1.88515
24 2 5.54827 7.79699 2.85501
25 2 4.82573 6.4509 1.9674
26 2 6.12758 7.3298 1.39708
27 1 4.84088 8.24938 19.2327
28 2 5.81769 7.75603 19.0396
29 2 4.26958 7.98457 18.3226
30 2 5.07294 9.31014 18.8344
31 4 1.88548 5.63408 0.160903
32 3 2.47581 4.19271 -0.0153506
33 1 1.20588 6.40374 18.5396
34 2 1.96794 6.4823 17.8597
35 2 0.642729 5.9264 17.8951
36 2 1.4312 7.39629 18.7618
37 1 0.541041 5.61061 1.66244
38 2 21.5774 6.11007 1.56211
39 2 0.422065 4.63661 1.73406
40 2 1.04637 6.16393 2.64033
41 4 2.89316 2.72588 0.616301
42 3 1.60203 2.2275 1.84535
43 1 4.45499 3.078 2.06536
44 2 3.6105 3.45364 2.71923
45 2 4.83858 2.19214 2.67727
46 2 5.17014 3.80706 1.69388
47 1 2.94476 1.36163 19.3525
48 2 3.67754 0.381555 19.4752
49 2 1.79932 0.955174 19.3639
50 2 3.2598 1.58988 18.314
51 4 1.76766 0.775434 2.67436
52 1 2.80068 18.1762 3.22055
53 2 2.90578 18.1168 4.23409
54 2 2.10248 17.9075 2.22564
55 2 3.65927 17.4444 3.06112
56 1 21.3582 17.2776 1.48179
57 2 20.6883 16.9515 2.32196
58 2 0.0519283 17.72 2.04088
59 2 20.844 16.932 0.522513
60 4 11.5573 16.467 3.04942
61 3 10.5231 16.9417 1.55281
62 1 10.1273 2.28696 2.29923
63 2 9.36503 2.9449 2.72843
64 2 10.9265 1.772 2.93792
65 2 10.5191 2.90358 1.44987
66 1 12.9101 17.5525 2.18202
67 2 10.6005 4.39196 1.30695
68 2 13.2484 17.5285 1.36106
69 2 9.70501 1.77246 1.50786
70 4 9.484 15.7005 1.15024
71 3 10.2686 14.1333 1.11591
72 1 8.21064 16.1319 19.762
73 2 8.81195 15.8928 18.8355
74 2 7.45738 15.4322 19.7507
75 2 7.78031 17.1039 20.0479
76 1 8.13698 15.9405 2.60394
77 2 7.42647 16.4061 1.90765
78 2 7.75866 14.8703 2.72772
79 2 8.50873 16.3668 3.65665
80 4 10.4901 12.8961 0.0931065
81 3 11.0541 11.4387 0.730848
82 1 11.9269 13.3166 19.0951
83 2 12.0397 13.9801 18.0765
84 2 12.1466 14.1711 19.7857
85 2 12.96 12.7658 18.8871
86 1 9.10397 12.31 18.7164
87 2 8.42435 13.1688 18.9641
88 2 9.2719 12.4166 17.6415
89 2 8.3743 11.4875 18.899
90 4 11.4288 10.4896 2.06468
91 3 10.7436 8.95915 1.69193
92 1 10.6275 11.3963 3.51412
93 2 9.62995 11.1311 3.78728
94 2 11.0963 11.1676 4.51241
95 2 10.8759 12.4117 3.24028
96 1 13.1589 9.88865 1.92574
97 2 13.1404 10.146 0.798308
98 2 13.7102 10.6815 2.3575
99 4 9.423 7.9902 1.20227
100 3 10.0037 6.56908 0.445094
101 1 8.27833 8.31594 19.5467
102 2 7.506 8.82007 19.4461
103 2 8.76978 8.35294 18.7714
104 2 7.67298 6.73158 18.792
105 1 8.41645 7.44967 2.6953
106 2 7.58876 6.8726 2.21942
107 2 9.12314 6.92317 3.36757
108 2 7.90797 8.19571 3.36122
109 4 9.64883 5.02955 0.126207
110 1 11.2931 4.17209 19.256
111 2 10.9917 4.53247 18.3395
112 2 12.2995 4.40136 19.6652
113 2 10.9712 3.1989 19.4225
114 1 8.55714 4.37116 19.0781
115 2 7.63767 5.0528 18.7749
116 2 9.08593 4.4411 18.1273
117 2 8.16295 3.11114 19.0775
118 4 17.5601 14.4 2.1882
119 3 17.3568 12.8476 2.72582
120 1 19.1008 14.7329 0.843083
121 2 18.7965 15.6176 0.250753
122 2 19.8473 15.108 1.44371
123 2 19.5815 13.9187 0.360684
124 1 15.9816 15.1418 1.4244
125 2 16.1356 16.1767 1.51149
126 2 15.3902 14.1738 0.803174
127 2 15.367 14.7148 2.53306
128 4 17.3473 11.4423 3.76323
129 3 18.3494 10.4602 3.12048
130 1 18.1434 15.1354 3.84321
131 2 18.3663 16.2119 4.03298
132 2 17.427 14.7115 4.56937
133 2 18.9095 14.4336 4.04453
134 1 10.6125 19.0676 6.15032
135 2 10.506 18.3788 5.07141
136 2 10.8675 0.937952 6.43986
137 2 9.51183 0.137905 6.56599
138 4 18.3751 8.96189 2.2828
139 3 16.6463 8.56424 1.98124
140 1 19.3898 8.7158 0.835378
141 2 19.4155 9.52088 19.9704
142 2 20.2472 8.06447 0.56644
143 2 0.952522 5.938 3.90971
144 1 18.971 7.79191 3.61308
145 2 19.3969 6.78062 3.55168
146 2 19.4557 8.14456 4.47034
147 2 17.9075 7.73617 4.20451
148 4 15.347 7.64157 1.27763
149 3 15.1728 6.06468 2.02882
150 1 13.6245 8.48519 2.30478
151 2 13.0081 7.68404 1.86355
152 2 13.9086 8.25491 3.3546
153 1 15.0274 7.75664 19.3686
154 2 13.8756 7.52002 19.1773
155 2 15.0771 8.70598 19.0452
156 2 15.5861 6.60206 19.2405
157 4 16.0118 4.73562 1.541
158 3 16.751 4.85877 0.111276
159 1 15.0671 3.09337 1.9777
160 2 15.5317 2.14348 2.2407
161 2 14.4353 3.25503 2.85384
162 2 14.3881 2.78301 1.19627
163 1 17.4319 4.58421 2.84377
164 2 17.8994 3.64627 2.79252
165 2 18.177 5.35031 2.7401
166 2 17.2443 4.55935 3.93771
167 4 17.5312 4.07001 18.7441
168 1 17.3862 2.17992 18.6527
169 2 18.1307 1.84693 18.0414
170 2 17.4509 1.59528 19.6472
171 2 16.5189 1.68314 18.1391
172 1 19.3835 4.36398 18.6624
173 2 20.0058 3.64436 19.2289
174 2 19.8235 4.71373 17.6596
175 2 19.3763 5.13754 19.3502
176 4 2.73491 16.7344 9.44005
177 3 3.89034 15.7047 8.67694
178 1 1.71192 15.2606 10.2532
179 2 1.00796 15.1189 9.4494
180 2 2.35626 14.3639 10.3154
181 2 1.16106 15.491 11.1746
182 1 3.68504 18.0217 10.5784
183 2 4.54435 17.4933 11.0466
184 2 3.9703 18.8557 9.92487
185 2 2.95113 18.4679 11.3176
186 4 4.73732 16.0333 7.29259
187 3 5.50288 14.6331 6.9604
188 1 6.09271 17.3714 7.14706
189 2 5.7575 18.256 7.71304
190 2 7.1773 17.2069 7.41544
191 2 6.16654 17.6914 6.08956
192 1 3.48475 16.5747 5.99044
193 2 3.7879 16.3978 4.93873
194 2 2.48402 16.1009 6.07564
195 2 3.31625 17.6804 5.94845
196 4 5.76794 13.0128 6.92913
197 3 4.40253 12.3137 7.50168
198 1 7.10328 12.411 8.06019
199 2 7.12646 13.1766 8.85095
200 2 6.91127 11.4396 8.51531
201 2 8.07948 12.3877 7.52522
202 1 5.96796 12.4523 5.16803
203 2 6.96792 12.4042 4.67704
204 2 5.74304 11.4111 5.0671
205 2 5.2172 12.9395 4.55438
206 4 3.79111 10.8273 7.48305
207 3 4.84329 9.65286 8.12663
208 1 2.42401 10.9183 8.75814
209 2 2.7204 10.2697 9.62421
210 2 2.16008 11.9188 9.04832
211 2 1.54463 10.419 8.35628
212 1 2.97333 10.5568 5.84021
213 2 3.68607 10.7994 5.06635
214 2 2.60896 9.56289 5.6231
215 2 2.13229 11.216 5.76266
216 4 5.70339 8.24443 7.83936
217 3 5.88111 7.1468 9.11291
218 1 5.05345 7.47612 6.23758
219 2 5.27938 8.14919 5.39827
220 2 5.53851 6.49547 6.14499
221 2 3.9626 7.30444 6.25309
222 1 7.48912 8.61766 7.56861
223 2 7.39672 9.28736 6.68045
224 2 8.0599 9.08811 8.36767
225 2 7.95008 7.67428 7.21902
226 4 6.28197 5.69297 9.81128
227 1 7.05879 4.58649 8.58727
228 2 6.26448 4.03748 8.05525
229 2 7.63903 5.19323 7.88682
230 2 7.80505 4.02569 9.13079
231 1 7.73499 6.18527 10.7976
232 2 8.49194 6.40545 9.99763
233 2 7.49393 7.0575 11.3956
234 4 11.9408 18.198 7.18645
235 3 11.7047 16.4802 7.28412
236 1 13.7813 18.2886 6.5363
237 2 13.8053 17.7155 5.58114
238 2 13.8828 0.289434 6.30473
239 2 14.5752 17.9586 7.24945
240 1 12.0642 18.7319 8.91855
241 2 11.2071 19.1291 9.55866
242 2 12.5879 17.9641 9.47377
243 2 12.7649 0.488769 8.80184
244 4 10.9345 15.0379 7.17246
245 3 11.9986 13.8041 6.67367
246 1 10.2052 14.7433 8.82395
247 2 9.80926 13.7096 8.97779
248 2 10.9228 14.9139 9.66139
249 2 9.42805 15.4492 8.9564
250 1 9.42719 14.9855 6.06271
251 2 9.39559 15.6241 5.21944
252 2 9.24798 13.9639 5.7032
253 2 8.54023 15.157 6.68328
254 4 13.3373 12.7024 6.76125
255 3 12.9664 11.1137 7.10411
256 1 14.6089 13.5664 7.74775
257 2 14.7022 13.5755 8.84791
258 2 15.6129 13.2299 7.44741
259 2 14.611 14.6308 7.44889
260 1 14.0965 12.4194 5.13117
261 2 14.8073 13.236 5.03421
262 2 14.4681 11.3598 5.09043
263 2 13.3757 12.3912 4.327
264 4 12.5405 10.2397 8.40289
265 3 12.9961 8.62052 8.30151
266 1 10.6881 10.3134 8.56835
267 2 10.3388 9.76765 9.46698
268 2 10.2813 11.3733 8.64587
269 2 10.2332 9.84653 7.67379
270 1 13.5181 10.7682 9.84265
271 2 12.8683 10.8031 10.7046
272 2 14.4277 10.1982 10.0255
273 2 13.8798 11.7707 9.58968
274 4 12.1535 7.31646 7.74725
275 3 13.3629 5.99043 7.74989
276 1 11.31 7.55694 6.08041
277 2 10.2941 8.03419 6.10212
278 2 11.9148 8.0584 5.32672
279 2 11.0052 6.5525 5.76462
280 1 10.7723 6.58456 8.77422
281 2 11.1452 6.41148 9.79263
282 2 10.0003 7.37401 8.87546
283 2 10.4025 5.63028 8.34982
284 4 13.6079 4.47456 7.21423
285 1 12.4524 3.69423 6.14449
286 2 12.598 2.66316 5.85242
287 2 11.6411 4.15478 5.63627
288 1 14.8185 3.40205 8.1475
289 2 15.7697 3.85471 8.27032
290 2 14.5559 2.95275 9.13435
291 2 14.9668 2.6102 7.41283
292 4 20.2376 10.439 7.59936
293 3 20.4839 9.22924 8.86754
294 1 18.6428 10.9673 7.22417
295 2 18.5768 12.0647 6.94325
296 2 17.902 10.5355 6.4472
297 2 17.9932 10.8209 8.19026
298 1 21.1749 11.8746 8.48301
299 2 20.5891 12.7474 8.16526
300 2 21.3913 11.5134 9.58601
301 2 0.0199946 12.1996 7.88569
302 4 20.6462 7.72505 9.46209
303 3 19.3156 6.6401 9.30375
304 1 21.7031 6.56419 8.61859
305 2 0.738619 7.14185 8.51852
306 2 0.454883 6.01482 9.56215
307 2 21.8479 5.76605 7.74856
308 1 20.8134 7.9489 11.1028
309 2 20.8558 7.05903 11.7918
310 2 21.7736 8.43486 11.2351
311 2 19.8975 8.561 11.3775
312 4 17.7345 6.09283 8.80282
313 3 17.8145 4.47504 8.42811
314 1 16.5277 6.11253 10.2401
315 2 15.5978 6.56919 9.82319
316 2 16.3713 5.03598 10.2897
317 2 16.6858 6.5486 11.2057
318 1 16.8328 6.93296 7.28491
319 2 16.1648 7.6032 7.83722
320 2 17.3036 7.51417 6.49092
321 2 16.1959 6.17816 6.78573
322 4 19.0261 3.64342 7.50649
323 3 18.3396 2.29379 6.97664
324 1 19.0966 4.79026 6.0756
325 2 19.3226 4.25541 5.1635
326 2 18.1498 5.32832 5.94966
327 2 19.7888 5.60541 6.22573
328 1 20.5842 3.44493 8.4997
329 2 20.7598 2.36528 8.7099
330 2 21.5263 3.81654 8.07354
331 2 20.4004 3.96908 9.46931
332 4 18.7806 1.14813 5.681
333 3 18.7747 18.7604 6.60184
334 1 17.4323 1.26292 4.44962
335 2 16.6167 1.9056 4.91329
336 2 17.6918 1.64812 3.47001
337 2 17.0524 0.226188 4.23752
338 1 20.2475 1.66815 4.76252
339 2 20.2459 2.70436 4.45248
340 2 21.0896 1.60923 5.50167
341 2 20.4619 0.956222 3.90144
342 4 19.0604 17.124 6.72476
343 1 17.2854 16.502 6.88487
344 2 16.9429 17.3464 7.44826
345 2 16.6345 16.5967 5.98538
346 2 17.1061 15.4612 7.23154
347 1 20.5021 15.987 6.76166
348 2 19.9304 15.0436 6.46742
349 2 21.1109 16.7113 6.45653
350 2 21.447 16.1871 7.78267
351 4 1.04339 14.5375 16.924
352 3 0.1221 13.5043 15.8283
353 1 0.0817017 14.6791 18.3443
354 2 20.6295 14.9103 18.3719
355 2 0.105701 14.3924 19.4518
356 2 0.234541 16.1285 18.0331
357 1 1.4484 16.1203 15.874
358 2 2.3076 16.6171 16.0677
359 2 20.5442 14.864 12.8865
360 2 0.619824 16.7199 16.2763
361 4 21.727 12.0303 15.3092
362 3 0.210908 10.8884 14.184
363 1 19.827 11.8361 15.8633
364 2 18.947 12.4565 15.3334
365 2 19.5247 10.6648 15.8093
366 2 19.5363 12.2331 16.8703
367 1 2.59323 13.7901 17.654
368 2 3.50811 14.4532 17.8313
369 2 2.09274 13.3344 18.558
370 2 3.03678 12.8083 17.1737
371 4 1.75962 10.4475 14.5196
372 3 1.46579 8.93114 13.9977
373 1 2.34572 10.7467 16.1821
374 2 1.57406 11.2741 16.7471
375 2 2.51736 9.76799 16.7402
376 2 3.24381 11.3628 16.2716
377 1 2.84611 11.5168 13.4413
378 2 3.87415 11.1741 13.5226
379 2 2.7063 11.629 12.3707
380 2 2.79017 12.5263 13.843
381 4 2.72163 7.99246 13.5062
382 3 2.19661 6.50929 14.0066
383 1 4.46106 8.43812 14.0865
384 2 5.05843 7.51817 14.0951
385 2 5.09101 9.2557 13.8368
386 2 4.28197 8.55363 15.1443
387 1 2.62053 7.92714 11.6544
388 2 3.44768 7.33334 11.3041
389 2 1.74466 7.31931 11.406
390 2 2.7049 8.87834 11.0645
391 4 3.37893 5.28948 14.2429
392 3 4.16094 5.01343 12.761
393 1 4.64654 5.30678 15.5216
394 2 5.2074 4.25603 15.512
395 2 5.45444 6.13746 15.7633
396 2 4.18677 5.38679 16.4492
397 1 2.31697 3.90719 14.9856
398 2 2.17827 4.52966 15.8599
399 2 1.31005 3.66945 14.7145
400 2 3.01477 3.09278 15.4308
401 4 4.94487 4.3966 11.4523
402 1 3.7574 3.49562 10.3798
403 2 4.41718 3.04672 9.61646
404 2 3.25554 2.69608 10.9183
405 2 3.04851 4.15027 9.88427
406 1 6.09872 3.09172 12.0117
407 2 6.533 2.70971 11.0599
408 2 5.65877 2.14701 12.3531
409 4 7.82679 15.1766 14.483
410 3 7.20698 13.8873 13.5435
411 1 6.64394 16.6354 14.3218
412 2 6.33273 16.6871 13.2544
413 2 5.74881 16.6656 15.0363
414 2 7.15889 17.5901 14.2164
415 1 9.57471 15.4875 13.7806
416 2 9.59257 14.7745 12.9729
417 2 9.46973 16.4933 13.2929
418 2 10.5264 15.5277 14.3
419 4 7.20291 12.2104 13.7422
420 3 8.64952 11.4851 13.805
421 1 6.22885 11.5643 15.193
422 2 6.75249 11.8194 16.129
423 2 5.25699 12.0563 15.0955
424 2 6.2532 10.488 15.1905
425 1 6.52378 11.5352 12.215
426 2 7.12802 11.9588 11.3939
427 2 6.64819 10.4525 12.1564
428 2 5.46982 11.8818 12.2006
429 4 10.2872 11.5127 13.6843
430 3 10.524 9.92534 14.1857
431 1 11.0548 12.9498 14.4589
432 2 10.663 13.4869 15.3271
433 2 12.1694 12.7501 14.6668
434 2 11.039 13.7423 13.7113
435 1 10.6034 11.643 11.8486
436 2 11.683 11.756 11.6764
437 2 10.1227 10.8045 11.2664
438 2 10.3354 12.6146 11.3954
439 4 11.6181 8.75313 14.6002
440 3 11.1616 7.2546 14.2652
441 1 11.8992 9.3186 16.4432
442 2 11.3074 8.88179 17.2749
443 2 12.9719 9.06172 16.6986
444 2 11.8467 10.4219 16.4885
445 1 13.204 9.25255 13.6
446 2 13.0791 8.94686 12.5273
447 2 13.1572 10.3512 13.6649
448 4 10.0609 6.06366 14.6717
449 3 9.09689 5.79812 13.361
450 1 8.83554 6.54307 16.0145
451 2 8.61862 7.60307 15.8733
452 2 7.92144 5.92616 16.0756
453 2 9.35001 6.4467 17.0052
454 1 11.4186 4.9667 15.3159
455 2 12.3191 5.12165 14.6765
456 2 11.6891 5.55321 16.2438
457 2 11.4419 3.92343 15.6105
458 4 8.49964 4.94058 11.9992
459 1 7.30932 3.71281 12.9658
460 2 6.86972 4.35853 13.7588
461 2 7.848 2.83784 13.3908
462 1 9.93788 3.91962 11.1822
463 2 10.8929 4.21189 11.6163
464 2 9.71471 2.89342 11.526
465 2 9.83856 3.91771 10.0983
466 4 19.6259 15.7631 12.6683
467 3 18.0648 15.2319 13.1409
468 1 20.3905 17.2855 13.4649
469 2 20.9167 17.8732 12.7162
470 2 19.5513 17.8921 13.9249
471 2 21.2659 17.2988 14.2124
472 1 19.4015 16.076 10.8677
473 2 19.3779 17.1298 10.5302
474 2 20.3017 15.5283 10.4773
475 2 18.4735 15.5896 10.4938
476 4 17.0737 15.4775 14.4488
477 3 16.6676 13.9661 14.9558
478 1 18.1494 15.8606 15.9657
479 2 17.3615 16.0026 16.767
480 2 18.7888 15.0514 16.2218
481 2 18.6126 16.8837 15.9008
482 1 15.6187 16.6002 14.113
483 2 15.8528 17.6825 14.2678
484 2 15.4285 16.485 13.0015
485 2 14.6126 16.4388 14.5285
486 4 15.6086 12.7141 14.6357
487 3 16.2472 11.261 14.1138
488 1 14.8366 12.7053 16.4095
489 2 14.1653 11.911 16.7568
490 2 15.5363 12.8752 17.1915
491 2 14.2485 13.6493 16.4632
492 1 14.5242 13.3984 13.288
493 2 13.8506 12.5535 12.9828
494 2 14.1059 14.2075 13.8845
495 2 15.1294 13.7415 12.4631
496 4 16.1103 9.58607 13.7313
497 3 17.0221 8.40594 14.4918
498 1 14.4999 8.70334 14.148
499 2 14.6569 7.77377 13.5646
500 2 14.4256 8.47373 15.198
501 1 16.5093 9.41834 11.8871
502 2 15.6949 8.85705 11.4265
503 2 16.503 10.4506 11.4941
504 2 17.4111 8.72706 11.7535
505 4 17.6221 7.95839 16.0261
506 3 16.9456 6.46443 16.2776
507 1 19.4504 7.74852 16.2465
508 2 19.9959 7.14503 15.5384
509 2 19.934 8.74282 16.2146
510 2 19.5852 7.37608 17.2635
511 1 17.2648 9.29972 17.2144
512 2 17.5511 10.1884 16.6605
513 2 16.1946 9.53387 17.5344
514 2 17.8777 9.19123 18.0975
515 4 16.6976 4.93411 16.6388
516 1 14.8538 4.76914 16.4696
517 2 14.4526 5.78409 16.2748
518 2 14.7181 4.11519 15.5732
519 2 14.3881 4.29964 17.3466
520 1 17.3979 3.70395 15.4623
521 2 17.6875 4.08692 14.5016
522 2 18.2684 3.31687 15.975
523 2 16.6549 2.90624 15.3861
ITEM: TIMESTEP
4500
ITEM: NUMBER OF ATOMS
523
ITEM: BOX BOUNDS pp pp pp
1.2090271029137512e-02 2.1987909728970937e+01
1.0485541995301162e-02 1.9069477458004819e+01
1.0991155480999382e-02 1.9989008844519027e+01
ITEM: ATOMS id type x y z
1 4 0.8236 11.0618 3.51316
2 3 2.35546 10.5743 3.20303
3 1 0.412982 13.3116 3.2114
4 2 1.203 14.028 2.83035
5 2 21.784 13.2924 2.48765
6 2 21.3664 13.8508 3.58225
7 1 21.0159 11.8563 7.2398
8 2 21.4413 11.3615 8.14144
9 2 20.2499 12.7685 7.13751
10 2 20.9767 11.1603 6.43938
11 4 1.87049 10.3611 1.14565
12 3 2.30991 9.03799 0.400833
13 1 3.1496 11.6206 0.69892
14 2 4.01521 11.08 0.29097
15 2 2.39627 11.8962 19.9273
16 2 3.43964 12.1105 1.60294
17 1 0.0925508 10.8375 0.857432
18 2 19.8158 11.7356 16.4276
19 2 21.6922 10.4947 19.9018
20 2 8.37296 16.4159 15.161
21 4 3.49505 7.88045 0.339343
22 3 2.66325 6.38431 0.470777
23 1 4.6561 8.1046 1.89105
24 2 4.34446 9.03276 2.43821
25 2 4.3061 7.24834 2.42396
26 2 5.67282 8.01238 1.41409
27 1 4.17423 7.94282 18.6143
28 2 4.14194 8.83514 17.9371
29 2 5.13958 7.41323 18.4819
30 2 3.30814 7.33331 18.1615
31 4 1.66981 5.05297 19.8003
32 3 2.13602 3.62752 0.623494
33 1 2.23538 4.63077 17.8244
34 2 1.96501 4.83841 16.922
35 2 3.38645 4.77549 17.9161
36 2 2.05385 3.41692 18.2264
37 1 21.9086 4.81005 19.783
38 2 21.7854 4.0613 0.539082
39 2 20.875 5.67086 0.0354875
40 2 21.3416 4.21009 19.0968
41 4 3.61882 2.75704 0.529127
42 3 3.28996 2.08918 2.15656
43 1 4.92976 3.95203 1.43815
44 2 4.12252 4.62669 1.82451
45 2 5.18746 3.65133 2.46972
46 2 5.52556 4.78723 1.08339
47 1 4.52847 1.6685 19.3088
48 2 5.29494 2.3627 18.9719
49 2 4.72883 0.63971 19.5967
50 2 4.04043 1.85327 18.4013
51 4 2.11187 1.2286 2.97084
52 1 1.72319 18.5023 2.47367
53 2 2.42495 18.2985 1.53453
54 2 1.48016 17.5613 3.12641
55 2 0.570182 18.6625 2.29407
56 1 20.4489 16.0956 1.7174
57 2 20.5176 16.4117 2.92841
58 2 21.0392 15.2974 0.822761
59 2 19.5974 16.5653 1.84467
60 4 12.5644 16.3877 1.81866
61 3 11.1229 16.1002 2.8864
62 1 12.1082 1.26919 4.21278
63 2 11.2569 1.11882 3.63838
64 2 11.6275 1.80178 5.02416
65 2 12.5075 2.0354 3.69144
66 1 13.2845 17.9454 2.50481
67 2 9.38247 5.46296 0.887799
68 2 14.103 17.9429 1.8163
69 2 12.8389 0.45405 4.46384
70 4 9.79079 15.6769 1.69754
71 3 10.5536 14.5672 0.688524
72 1 9.30897 17.378 0.396659
73 2 9.28855 16.9922 19.3814
74 2 8.17422 17.3252 0.881253
75 2 9.60851 18.3908 0.570457
76 1 8.28754 15.5781 2.88448
77 2 7.45026 15.1174 2.38404
78 2 8.6062 14.8268 3.66179
79 2 8.246 16.3966 3.53128
80 4 11.2139 13.5467 19.6061
81 3 12.0884 12.5378 0.619487
82 1 12.2319 14.3263 18.34
83 2 12.2062 14.1279 17.2622
84 2 12.0843 15.3444 18.2232
85 2 13.3103 14.2904 18.6108
86 1 9.43497 13.1783 18.9208
87 2 8.86744 13.4794 19.8893
88 2 9.31822 13.7992 18.0529
89 2 9.0489 12.1583 18.8408
90 4 11.7647 11.1608 1.54123
91 3 10.7089 10.0615 0.549782
92 1 10.6932 11.7142 2.8355
93 2 9.68366 11.3245 2.8255
94 2 11.1634 11.5478 3.81599
95 2 10.8442 12.7678 2.59019
96 1 13.5203 10.4005 1.98751
97 2 13.9592 10.5218 0.966071
98 2 14.0551 11.0396 2.60987
99 4 9.56169 8.49215 0.577727
100 3 10.1477 7.33424 19.5225
101 1 8.06284 9.12838 0.137984
102 2 7.53873 10.2829 0.387904
103 2 8.17891 10.2204 19.4077
104 2 7.53705 8.58285 19.5482
105 1 9.50861 7.65648 2.29794
106 2 8.62442 7.87482 2.79762
107 2 9.85127 6.65808 2.31754
108 2 10.1767 8.32609 2.82749
109 4 10.2431 5.47017 19.5796
110 1 11.8564 4.69777 19.2628
111 2 12.0899 4.53169 18.2741
112 2 12.7379 5.18624 19.698
113 2 11.4266 3.94675 19.9509
114 1 8.9789 4.79164 18.3231
115 2 8.05559 5.54029 18.1946
116 2 9.28817 4.55629 17.3917
117 2 8.5457 3.79639 18.6984
118 4 16.4131 13.8912 2.04253
119 3 16.4388 12.6762 3.0875
120 1 16.789 13.285 0.235223
121 2 16.6804 13.9906 19.4259
122 2 17.8702 13.1295 0.579788
123 2 16.4144 12.3291 0.286071
124 1 14.8415 15.1029 2.07307
125 2 15.6659 16.1021 1.7977
126 2 13.9774 14.878 1.4597
127 2 14.6303 15.4576 2.98046
128 4 17.3304 11.5583 4.04131
129 3 17.758 10.4044 2.92822
130 1 17.6567 15.0444 2.75673
131 2 18.4536 14.8741 2.0433
132 2 17.3634 16.1127 2.82184
133 2 17.9708 14.6842 3.75405
134 1 10.0192 18.3804 6.39268
135 2 10.4471 18.4926 5.43559
136 2 9.39541 0.378392 6.73935
137 2 9.44914 17.5823 6.1675
138 4 18.0166 8.62666 2.31398
139 3 16.5613 8.04222 2.12596
140 1 19.6537 8.7573 1.69512
141 2 19.4556 9.01141 0.455551
142 2 20.3352 8.29716 2.29633
143 2 20.8026 16.9882 9.12415
144 1 18.2894 7.66945 3.83579
145 2 18.0424 6.63479 3.99911
146 2 19.1306 7.53257 4.43198
147 2 17.4422 8.0042 4.46105
148 4 15.1311 7.82373 1.45024
149 3 14.5354 6.36416 1.65959
150 1 13.6679 8.83119 2.34288
151 2 12.741 8.44895 1.87048
152 2 13.6943 8.70634 3.46124
153 1 15.09 8.39976 19.6524
154 2 14.4851 7.71137 18.9118
155 2 15.0377 9.47246 19.4375
156 2 16.1359 7.88035 19.2786
157 4 15.2428 4.8442 1.53849
158 3 15.9932 4.89819 0.031422
159 1 13.8453 3.62848 1.81135
160 2 14.1349 2.9793 2.67215
161 2 13.0918 4.40503 2.05171
162 2 13.5101 3.09856 0.900847
163 1 16.4052 4.50278 3.12185
164 2 16.0175 5.12241 3.90578
165 2 16.0203 3.51648 3.27256
166 2 17.5086 4.64708 3.16116
167 4 16.6759 4.0247 18.7821
168 1 15.7813 2.42374 18.1092
169 2 16.3832 1.60043 17.5392
170 2 15.1058 2.02071 18.8851
171 2 15.1528 2.71223 17.3278
172 1 18.4608 3.91429 19.2664
173 2 18.9889 3.72424 18.3688
174 2 19.0679 4.69931 19.8694
175 2 18.8137 3.02358 19.9529
176 4 2.55696 16.2827 10.2898
177 3 3.44019 15.7048 9.03575
178 1 3.58204 15.9504 11.8041
179 2 3.09031 16.2504 12.7047
180 2 3.73012 14.8818 11.8983
181 2 4.53588 16.4598 11.7279
182 1 1.73516 17.8869 10.1932
183 2 2.29734 18.7417 9.77438
184 2 0.833447 17.7877 9.59308
185 2 1.39817 18.1687 11.2524
186 4 3.79344 14.8861 7.60238
187 3 5.08644 13.9411 7.85932
188 1 4.45512 16.1391 6.34488
189 2 3.60345 16.3838 5.73281
190 2 4.77647 17.0374 6.89669
191 2 5.26717 15.7014 5.7646
192 1 2.44791 13.8036 6.81363
193 2 2.45498 14.2242 5.79069
194 2 2.9122 12.8322 6.74569
195 2 1.4771 13.8809 7.31372
196 4 5.96104 12.7048 7.27391
197 3 5.01785 11.4124 6.7661
198 1 6.97068 12.1056 8.72859
199 2 7.4715 12.8492 9.36924
200 2 6.30279 11.4616 9.31472
201 2 7.72928 11.3768 8.3702
202 1 6.7229 13.2301 5.68316
203 2 7.12071 14.2199 5.90952
204 2 7.57018 12.6681 5.26838
205 2 5.8454 13.3481 5.01992
206 4 3.81854 10.6747 7.68414
207 3 4.6305 9.48826 8.48486
208 1 3.11642 11.6616 9.13925
209 2 3.11198 10.8617 9.92689
210 2 3.73296 12.4528 9.51955
211 2 2.12525 12.1392 9.055
212 1 2.52249 10.069 6.50543
213 2 2.8383 9.86921 5.43052
214 2 2.00831 9.17082 6.85567
215 2 1.75362 10.8465 6.49108
216 4 5.52135 8.11053 8.05056
217 3 5.51 7.12808 9.42175
218 1 4.44323 7.28265 6.77849
219 2 3.60972 7.95723 6.58749
220 2 4.93476 6.99101 5.86073
221 2 3.83156 6.4812 7.17129
222 1 7.36178 8.61136 7.61758
223 2 7.52624 9.20536 6.67728
224 2 7.87846 9.21936 8.3596
225 2 7.90766 7.65244 7.48816
226 4 6.48008 5.79905 10.04
227 1 6.99102 5.1195 8.37228
228 2 7.65211 4.24334 8.22817
229 2 6.02122 4.8583 7.8742
230 2 7.18852 5.93188 7.67481
231 1 7.89342 6.38148 11.1538
232 2 8.48481 7.02283 10.4657
233 2 7.37213 7.01543 11.9277
234 4 11.3868 17.9288 7.66708
235 3 11.3323 16.2805 7.9941
236 1 13.1946 18.0505 6.73745
237 2 13.8982 18.6099 7.34396
238 2 13.7224 17.0901 6.67283
239 2 13.2829 18.5018 5.74436
240 1 11.2778 18.8527 9.2553
241 2 11.2401 0.85544 8.99159
242 2 10.3434 18.4086 9.68602
243 2 12.1524 18.7528 9.67723
244 4 10.6063 14.9172 8.42044
245 3 11.4822 13.5679 8.30733
246 1 9.66095 15.0332 10.063
247 2 8.79652 14.3276 9.96569
248 2 10.2646 14.692 10.9268
249 2 9.23973 16.0002 10.1857
250 1 9.16359 14.9161 7.24212
251 2 8.35717 14.2255 7.48609
252 2 8.77854 15.9144 6.9194
253 2 9.61504 14.4335 6.32094
254 4 12.8536 13.2518 7.34162
255 3 13.1074 11.6587 7.4263
256 1 14.2489 13.944 8.43347
257 2 14.6685 14.8537 7.96215
258 2 13.6948 14.2264 9.33353
259 2 14.9678 13.1415 8.57385
260 1 12.8554 13.7478 5.52351
261 2 12.7168 12.9088 4.79011
262 2 12.0782 14.5289 5.24071
263 2 13.733 14.2888 5.20279
264 4 12.6882 10.1119 7.79452
265 3 13.032 9.00747 6.66067
266 1 10.8045 10.3231 7.84644
267 2 10.3105 9.86747 8.76204
268 2 10.5373 11.4271 7.86445
269 2 10.3595 9.90387 6.93543
270 1 13.838 9.58173 9.23078
271 2 14.6229 10.3652 9.46519
272 2 13.3537 9.35733 10.1604
273 2 14.3298 8.63241 9.03292
274 4 12.2855 7.53418 6.7207
275 3 13.4522 6.36706 6.34612
276 1 11.1054 7.73635 5.26532
277 2 10.1575 7.21865 5.45041
278 2 11.0446 8.80946 5.1556
279 2 11.631 7.38818 4.38619
280 1 11.4085 7.04695 8.28865
281 2 10.9732 7.86712 8.82264
282 2 10.5166 6.50089 7.98038
283 2 11.9686 6.39351 8.95932
284 4 13.0555 4.75983 6.36265
285 1 11.4492 4.14863 6.34075
286 2 11.5573 3.14024 6.70035
287 2 10.5297 4.43629 5.94118
288 1 14.481 4.00566 7.23288
289 2 15.3775 3.74409 6.64096
290 2 14.8226 4.85771 7.89763
291 2 14.1384 3.14356 7.81688
292 4 19.6191 11.2464 8.50898
293 3 19.6509 9.55478 8.55675
294 1 17.773 11.3309 8.27964
295 2 17.1667 12.3669 8.33824
296 2 17.6743 10.8429 7.29529
297 2 17.2279 10.6631 8.97894
298 1 19.8155 12.0448 10.4039
299 2 18.7486 11.7617 10.856
300 2 20.6817 11.3661 10.5974
301 2 19.8792 13.158 10.5105
302 4 20.1382 8.08815 8.93134
303 3 19.0686 7.02826 8.13839
304 1 0.0691627 7.74624 8.83759
305 2 0.469742 6.6798 8.36764
306 2 21.5562 7.09947 8.15523
307 2 0.701417 7.17708 9.4633
308 1 19.7494 8.02355 10.6405
309 2 19.7086 6.97632 11.0185
310 2 20.4311 8.63598 11.2641
311 2 18.6728 8.29821 10.4156
312 4 18.4927 5.50791 8.08706
313 3 19.5585 4.26211 7.65347
314 1 17.5967 4.92717 9.62966
315 2 17.756 3.97717 10.1197
316 2 17.7519 5.8581 10.2487
317 2 16.4735 4.87249 9.56387
318 1 17.188 5.75596 6.76274
319 2 17.3753 4.88434 6.10301
320 2 16.13 5.70682 7.08849
321 2 17.3175 6.71116 6.1655
322 4 20.7698 3.17052 7.67057
323 3 20.6038 1.9277 6.62626
324 1 0.114617 3.89172 6.64721
325 2 21.9862 3.816 5.59164
326 2 0.382108 4.89939 7.12577
327 2 1.05468 3.36684 6.95973
328 1 21.3946 2.59394 9.29728
329 2 21.9317 3.36502 9.81355
330 2 20.5842 2.25401 9.8923
331 2 0.0251051 1.64984 9.26846
332 4 20.1263 0.608001 5.88987
333 3 19.0992 18.6846 6.89847
334 1 18.9663 1.22828 4.45566
335 2 19.4535 0.796049 3.50133
336 2 18.083 0.626077 4.67399
337 2 18.7099 2.33696 4.49458
338 1 21.7721 18.8431 5.07735
339 2 0.542923 0.59118 4.98835
340 2 0.243692 17.9022 5.69081
341 2 21.4953 18.2121 4.08766
342 4 18.6176 16.9245 6.74238
343 1 16.887 16.735 7.10701
344 2 16.2981 16.7482 6.20885
345 2 16.4306 16.1197 7.87781
346 2 16.7118 17.5832 7.79662
347 1 19.3355 15.3251 5.89328
348 2 19.3143 14.6445 6.96771
349 2 18.3434 14.8003 5.52568
350 2 20.1354 15.6539 5.20592
351 4 0.439308 14.1559 17.2443
352 3 0.458248 12.8726 16.0042
353 1 0.696821 12.8622 18.78
354 2 1.98458 12.8666 18.6412
355 2 1.03655 13.43 19.6587
356 2 20.7795 9.99276 16.3349
357 1 20.7265 14.7476 16.9163
358 2 20.3048 14.6134 17.78
359 2 19.3762 14.9376 10.8007
360 2 20.3819 14.5393 15.8797
361 4 21.2925 11.7786 15.6373
362 3 21.8765 10.5682 14.9016
363 1 19.8101 12.2389 14.4266
364 2 20.3679 13.0092 13.5066
365 2 19.3913 11.1868 14.1298
366 2 18.8265 12.7927 14.3823
367 1 1.88634 15.0742 16.8907
368 2 1.26611 15.919 17.1711
369 2 2.60691 14.8984 17.785
370 2 2.24551 15.4626 15.9357
371 4 1.66663 10.5147 14.5095
372 3 1.79754 9.21369 13.426
373 1 2.83823 10.4841 15.9559
374 2 2.7242 11.3756 16.4858
375 2 2.54729 9.5307 16.4274
376 2 3.91998 10.3584 15.6668
377 1 2.01148 11.9661 13.2102
378 2 3.06869 11.7207 12.9326
379 2 1.37865 12.1152 12.3419
380 2 2.04321 12.8878 13.8781
381 4 2.79631 8.05773 12.8735
382 3 3.01619 7.05589 14.2185
383 1 4.49603 8.79856 12.3902
384 2 4.07593 9.67771 11.9653
385 2 5.07401 8.88578 13.3261
386 2 5.12849 8.22467 11.7532
387 1 2.056 7.04711 11.5034
388 2 2.69592 6.7584 10.6898
389 2 1.5902 6.16507 11.9732
390 2 1.26734 7.62806 11.0001
391 4 3.50612 5.53036 14.0848
392 3 4.67334 5.28446 12.7749
393 1 4.64691 5.08064 15.4888
394 2 4.43013 4.88568 16.4933
395 2 5.18947 4.18431 14.9869
396 2 5.51858 5.87296 15.3816
397 1 2.002 4.38098 13.9754
398 2 2.27639 3.63445 13.1733
399 2 1.90231 3.8507 14.9305
400 2 0.897561 4.67843 13.6682
401 4 5.28128 4.39846 11.5222
402 1 4.06352 3.26266 10.6502
403 2 4.76083 2.50143 10.2358
404 2 3.3477 2.69714 11.298
405 2 3.44902 3.69394 9.85479
406 1 6.67026 3.25419 12.1695
407 2 6.93043 2.69976 11.2389
408 2 6.11812 2.48241 12.7062
409 4 8.06879 16.0472 13.8632
410 3 8.2504 14.3668 13.5281
411 1 6.23327 16.4044 13.5539
412 2 6.23795 16.9504 12.5817
413 2 5.83664 15.3706 13.4981
414 2 5.87575 17.0092 14.3639
415 1 9.42331 17.0022 12.9967
416 2 10.4814 16.7935 13.4125
417 2 9.62154 16.7391 11.914
418 2 9.32675 18.1265 13.0547
419 4 7.39576 12.9418 14.0017
420 3 8.66741 11.787 14.249
421 1 6.29425 12.9497 15.5855
422 2 6.8456 13.3013 16.4897
423 2 5.38254 13.5745 15.6309
424 2 5.98426 11.9408 15.883
425 1 6.43496 12.1798 12.6004
426 2 7.22436 11.6962 12.0042
427 2 5.89291 11.2902 12.9711
428 2 5.84695 12.7258 11.8478
429 4 10.3006 11.5613 14.1484
430 3 10.9086 10.2842 14.9521
431 1 10.9733 13.1494 15.1051
432 2 11.8434 12.9954 15.7589
433 2 11.1657 13.864 14.2637
434 2 10.0529 13.5577 15.5967
435 1 10.5359 11.6026 12.2268
436 2 11.0216 10.6386 11.8736
437 2 9.48456 11.7144 11.8198
438 2 11.3123 12.3376 11.9746
439 4 11.9364 8.90316 14.8273
440 3 11.2587 7.63702 14.1078
441 1 12.4351 8.50576 16.7146
442 2 12.465 7.41091 16.7677
443 2 13.431 8.86671 17.032
444 2 11.7179 8.8957 17.4564
445 1 13.586 9.34033 13.9128
446 2 13.5011 9.37691 12.8239
447 2 13.7807 10.3289 14.2819
448 4 10.0695 6.58407 14.5851
449 3 9.74868 5.97701 13.1565
450 1 8.81402 7.49923 15.5136
451 2 9.04447 8.58485 15.5611
452 2 7.75943 7.34982 15.1978
453 2 8.8971 7.03239 16.5468
454 1 10.862 5.21277 15.5239
455 2 11.7786 4.88664 15.0093
456 2 11.124 5.63438 16.5233
457 2 10.2176 4.36751 15.6827
458 4 8.97219 5.10267 11.9951
459 1 7.87037 3.88787 12.9261
460 2 7.416 4.48769 13.7433
461 2 8.47386 3.0621 13.3708
462 1 10.1511 4.40789 10.6596
463 2 10.0684 5.0875 9.76885
464 2 11.2012 4.6159 10.9355
465 2 10.1081 3.3347 10.3713
466 4 19.315 15.0831 12.53
467 3 18.3239 15.585 13.9047
468 1 21.1825 15.5929 12.8801
469 2 21.5462 15.4722 13.8953
470 2 21.8446 14.9686 12.2677
471 2 21.2279 16.6304 12.6793
472 1 19.5628 17.1651 9.39673
473 2 19.3453 18.2395 9.31818
474 2 19.6676 16.8071 10.4797
475 2 18.7137 16.6706 8.78252
476 4 16.6411 15.4962 14.1979
477 3 16.7731 13.9073 14.6548
478 1 16.561 16.6078 15.6898
479 2 15.6082 16.6857 16.2619
480 2 17.3708 16.3465 16.3264
481 2 16.8498 17.6195 15.2672
482 1 15.5564 16.1041 12.714
483 2 15.2651 17.1405 12.8876
484 2 16.1503 16.0205 11.7966
485 2 14.6825 15.5181 12.5614
486 4 15.6723 12.5868 14.5315
487 3 16.3493 11.1394 14.5842
488 1 14.788 12.8934 16.1979
489 2 14.0508 12.0713 16.3384
490 2 15.4321 12.9787 17.0851
491 2 14.2915 13.8676 16.0147
492 1 14.333 12.7764 13.2248
493 2 14.2001 11.8964 12.5317
494 2 13.295 12.941 13.6513
495 2 14.3687 13.6117 12.512
496 4 16.3176 9.48129 14.1674
497 3 17.496 8.96934 15.1231
498 1 14.8047 8.44687 14.3847
499 2 14.9834 7.49187 13.889
500 2 14.7399 8.25201 15.4613
501 1 16.7992 9.50641 12.3865
502 2 15.9206 9.70326 11.6725
503 2 17.463 10.2997 12.1101
504 2 17.1731 8.53487 12.012
505 4 18.4077 7.9716 16.0878
506 3 17.6546 6.74323 16.9484
507 1 19.8951 7.44762 15.0268
508 2 20.408 8.43207 14.8051
509 2 20.6825 7.00044 15.6873
510 2 19.6522 6.80648 14.1709
511 1 18.8221 9.06967 17.6834
512 2 19.9214 9.28705 17.9255
513 2 18.3682 10.0714 17.4968
514 2 18.3403 8.60679 18.5509
515 4 17.0262 5.28417 16.7371
516 1 15.3343 5.33524 15.77
517 2 14.6359 4.80456 16.4291
518 2 14.9097 6.31138 15.5134
519 2 15.2569 4.75846 14.8518
520 1 18.1982 4.06011 15.8919
521 2 17.7275 3.28967 15.2558
522 2 18.8805 4.60442 15.2224
523 2 18.7981 3.40452 16.5696
ITEM: TIMESTEP
5000
ITEM: NUMBER OF ATOMS
523
ITEM: BOX BOUNDS pp pp pp
1.6624837560286210e-02 2.1983375162439820e+01
1.4418240251451664e-02 1.9065544759748619e+01
1.5113488691133270e-02 1.9984886511308858e+01
ITEM: ATOMS id type x y z
1 4 0.391613 9.87158 3.63525
2 3 1.4766 9.7086 2.54901
3 1 0.665279 12.0383 4.21151
4 2 21.7792 12.4782 3.33999
5 2 0.473758 11.7576 5.43648
6 2 1.58072 12.2578 3.82547
7 1 19.7071 11.2919 6.92415
8 2 19.6364 12.1596 6.26672
9 2 20.6678 10.9208 6.41707
10 2 20.4442 11.8786 7.62106
11 4 1.5434 10.1664 0.787613
12 3 1.63044 8.54359 0.203559
13 1 2.85186 11.5805 1.29433
14 2 3.36386 11.8408 2.24106
15 2 3.9696 11.4911 0.831108
16 2 2.5406 12.5439 0.770261
17 1 21.9375 11.0499 0.263847
18 2 1.91639 16.789 1.91632
19 2 0.436574 11.4235 19.2337
20 2 9.07283 15.9942 16.3111
21 4 2.86145 7.38703 0.466373
22 3 1.80678 6.12965 19.9234
23 1 2.93554 7.17815 2.2747
24 2 3.94478 7.33951 2.69099
25 2 2.12325 7.90906 2.44062
26 2 2.45954 6.17551 2.39457
27 1 4.47446 7.24229 19.8387
28 2 4.48213 6.1995 0.273715
29 2 4.54686 7.17564 18.677
30 2 5.32712 7.82679 0.249798
31 4 1.77886 4.42712 19.8039
32 3 3.50609 4.43648 0.301564
33 1 1.56026 3.62899 18.1985
34 2 0.700962 3.30549 18.3866
35 2 1.70308 4.31847 17.4875
36 2 2.28428 2.88628 18.2731
37 1 0.77958 3.66358 1.5323
38 2 21.6102 3.28674 1.80675
39 2 1.2702 1.974 1.73794
40 2 1.03819 4.22769 2.32321
41 4 4.17695 3.04592 0.87025
42 3 2.98953 2.11139 1.8243
43 1 5.70314 4.04266 1.97461
44 2 6.40221 4.82925 1.48946
45 2 5.003 4.68525 2.58493
46 2 6.30642 3.17614 2.27755
47 1 5.04112 2.36763 19.4438
48 2 4.52812 2.30451 18.5854
49 2 5.87327 3.2898 19.3578
50 2 5.64345 1.33117 19.3366
51 4 3.31567 0.57075 2.83286
52 1 4.6349 18.0957 2.55104
53 2 5.63932 17.734 2.40735
54 2 5.05972 18.0054 3.5642
55 2 3.98338 17.2507 2.38001
56 1 21.7191 0.0313011 0.498035
57 2 21.004 18.4689 1.26808
58 2 5.32037 0.653299 3.60838
59 2 20.9898 18.9711 19.3905
60 4 12.2857 17.7851 2.58823
61 3 11.444 17.4148 1.32469
62 1 13.2719 1.67452 4.69458
63 2 13.93 2.29788 4.29113
64 2 13.0819 1.99412 5.71831
65 2 13.743 0.662123 4.73346
66 1 14.3458 17.2739 1.61739
67 2 11.1395 5.56791 0.513922
68 2 14.8546 16.4335 1.88989
69 2 12.7199 1.45734 3.8128
70 4 10.4819 16.2063 1.80496
71 3 10.8253 14.874 0.744326
72 1 8.82103 16.9869 1.40276
73 2 11.5108 2.13036 0.987804
74 2 8.40011 17.8099 1.97577
75 2 8.62529 17.1248 0.167826
76 1 10.5404 15.7111 3.56162
77 2 9.89983 14.9703 4.04021
78 2 11.4731 15.1526 3.63477
79 2 10.9965 16.4353 4.23845
80 4 10.8764 13.639 19.82
81 3 11.1939 12.1311 0.591112
82 1 12.5353 14.1244 18.8871
83 2 12.5724 15.192 19.0882
84 2 13.6624 13.7847 18.8577
85 2 12.5412 13.9274 17.6696
86 1 9.65996 13.4139 18.4433
87 2 8.96074 12.6376 18.7483
88 2 8.96909 14.3276 18.3549
89 2 10.3999 13.0595 17.6976
90 4 11.0709 10.7507 1.53677
91 3 9.63082 9.76153 1.80857
92 1 11.3579 11.5039 3.35928
93 2 11.1901 10.6636 4.09497
94 2 12.2317 12.1384 3.57551
95 2 10.4693 12.1702 3.66361
96 1 12.8086 10.1843 0.894176
97 2 12.9095 10.1228 19.9279
98 2 13.5144 11.1089 1.36457
99 4 8.51573 8.91741 0.454393
100 3 9.60279 7.52134 19.4538
101 1 8.04228 9.78839 18.7957
102 2 8.34038 10.6081 18.3302
103 2 7.20403 10.4291 18.3921
104 2 7.74452 9.25722 17.4866
105 1 7.25112 8.42602 1.66256
106 2 6.25154 8.88778 1.46703
107 2 7.09645 7.34405 1.93636
108 2 7.50905 9.09816 2.56096
109 4 9.83491 5.79061 19.5034
110 1 11.2164 5.43124 17.9883
111 2 11.0763 5.46805 16.8588
112 2 11.9562 6.2218 18.1912
113 2 11.5673 4.40653 18.1276
114 1 8.2662 4.81904 19.1645
115 2 8.01634 4.15199 0.0722134
116 2 7.12354 5.16179 18.867
117 2 8.82275 4.38975 18.2443
118 4 16.0981 14.105 2.36304
119 3 16.8188 12.8675 2.89871
120 1 16.2947 14.3127 0.478718
121 2 15.9399 13.4391 19.7021
122 2 15.8461 15.1266 19.8623
123 2 17.306 14.5335 0.301573
124 1 14.1748 14.0008 2.7123
125 2 13.5193 15.0475 2.50012
126 2 13.8216 13.0685 2.06455
127 2 13.8185 13.896 3.5804
128 4 16.4101 11.6024 4.10178
129 3 17.5677 10.4522 3.95794
130 1 16.8005 15.5118 3.06115
131 2 17.076 15.2673 4.07524
132 2 17.6305 15.8389 2.43087
133 2 15.8978 16.2507 3.09277
134 1 10.3869 18.9241 6.75911
135 2 10.565 0.823641 6.0178
136 2 9.21454 18.9999 6.98536
137 2 10.6193 18.0611 5.90844
138 4 18.0252 9.22434 2.83716
139 3 16.5392 8.57937 2.40027
140 1 19.2794 9.85593 1.76228
141 2 19.9529 8.30532 0.980649
142 2 20.0399 10.6564 2.01899
143 2 18.8627 0.370732 11.2715
144 1 18.7533 7.77844 3.71022
145 2 18.5411 7.98034 4.75149
146 2 18.3347 6.78594 3.35408
147 2 19.8638 7.98561 3.71152
148 4 15.2963 8.37392 1.25306
149 3 15.2795 6.75504 1.08999
150 1 13.5338 9.05054 1.58521
151 2 12.7012 8.25936 1.33227
152 2 13.8853 9.50155 2.70696
153 1 15.7533 9.40328 19.7843
154 2 15.0638 10.2667 0.0440754
155 2 16.9147 9.70795 19.9047
156 2 15.6843 9.13435 18.6012
157 4 15.1769 5.0736 1.30944
158 3 16.1521 4.54139 0.120658
159 1 13.389 4.45444 1.46081
160 2 12.8952 4.59854 2.42182
161 2 12.7065 4.6724 0.619694
162 2 13.5481 3.3959 1.2143
163 1 16.1356 4.81224 3.0016
164 2 16.6752 5.61809 3.5992
165 2 15.4847 4.31002 3.72955
166 2 17.0082 4.07089 2.87574
167 4 16.497 3.60255 18.7816
168 1 15.2137 2.32888 18.2239
169 2 15.7811 1.695 17.5489
170 2 14.9484 1.61069 19.0907
171 2 14.406 2.93578 17.5395
172 1 18.249 2.84376 19.0259
173 2 18.8262 3.33449 17.9255
174 2 19.0751 3.12103 19.6406
175 2 18.311 1.70803 19.1245
176 4 2.7548 15.9001 10.4906
177 3 3.42473 16.0929 9.02691
178 1 3.92381 15.5242 11.9001
179 2 3.72993 14.5632 12.3344
180 2 4.94097 15.4389 11.5268
181 2 3.91889 16.227 12.7287
182 1 1.74598 17.4936 10.817
183 2 2.33533 18.4136 10.6089
184 2 0.834844 17.6473 10.2284
185 2 1.48051 17.501 11.9111
186 4 3.12493 15.1236 7.73174
187 3 4.01279 13.7427 7.61663
188 1 3.59355 15.9985 6.14742
189 2 3.25839 17.0296 6.02232
190 2 4.69405 15.9666 5.98027
191 2 3.10988 15.5326 5.27031
192 1 1.28274 14.7192 7.72358
193 2 1.11603 13.8165 7.06875
194 2 0.730735 14.5459 8.66704
195 2 0.568614 15.31 7.17915
196 4 5.03707 12.491 7.60491
197 3 4.40201 11.1346 8.20584
198 1 6.6374 12.8309 8.5062
199 2 6.96804 11.9358 9.05496
200 2 7.3986 13.2111 7.84399
201 2 6.41127 13.5785 9.28386
202 1 5.57604 12.4127 5.78062
203 2 6.10474 13.2941 5.43061
204 2 6.21097 11.4518 5.62943
205 2 4.70878 12.3057 5.05155
206 4 3.59364 9.661 7.78896
207 3 4.6153 8.30195 8.27265
208 1 2.18794 10.1119 9.0435
209 2 1.28709 9.49849 8.92706
210 2 2.51217 9.83203 10.0576
211 2 2.17559 11.2318 9.03535
212 1 2.93779 9.11675 6.13977
213 2 3.70969 8.67965 5.42842
214 2 2.21034 8.29972 6.33011
215 2 2.44839 9.89731 5.52802
216 4 4.97004 6.90176 7.38449
217 3 5.74324 5.9637 8.44816
218 1 3.94337 5.73926 6.44366
219 2 4.52318 4.81118 6.63214
220 2 2.86944 5.55287 6.63873
221 2 4.15171 5.94566 5.36836
222 1 6.22122 7.46855 6.10014
223 2 5.71453 7.92981 5.21919
224 2 6.88697 8.21785 6.53279
225 2 6.83851 6.63433 5.69967
226 4 6.76827 5.03021 9.34589
227 1 7.42169 3.94548 7.91051
228 2 8.46978 3.72955 7.94021
229 2 6.93434 2.95073 7.72592
230 2 7.11022 4.53578 7.02422
231 1 8.06215 6.04623 10.2655
232 2 8.82604 6.45676 9.54992
233 2 7.63983 6.84178 10.9069
234 4 11.6241 18.1579 8.16092
235 3 11.2635 16.6732 8.72963
236 1 13.2953 17.8911 7.20463
237 2 13.9368 18.7658 7.13442
238 2 13.9027 17.29 7.81035
239 2 13.1072 17.4679 6.24984
240 1 11.9283 0.522446 9.2872
241 2 11.0575 0.415627 10.0291
242 2 12.8084 0.824851 9.65323
243 2 11.4097 1.53175 8.87011
244 4 10.6667 15.1378 8.646
245 3 11.7933 14.0673 8.20853
246 1 10.0712 14.7354 10.3503
247 2 10.5828 13.8669 10.8177
248 2 10.0771 15.606 11.0406
249 2 9.04054 14.294 10.2462
250 1 9.37789 15.2461 7.26146
251 2 8.60179 16.0189 7.36485
252 2 10.001 15.3378 6.34628
253 2 8.94722 14.2463 7.03323
254 4 13.2479 13.3791 7.87303
255 3 13.1219 11.729 7.83372
256 1 14.5904 13.8872 9.08605
257 2 14.7962 14.9728 9.18744
258 2 14.4273 13.5866 10.1296
259 2 15.5593 13.5128 8.75849
260 1 13.6565 13.9405 6.16882
261 2 12.8677 13.8215 5.40747
262 2 14.249 14.8298 6.27687
263 2 14.3745 13.0693 5.99392
264 4 12.2974 10.6137 8.65939
265 3 12.3433 9.34135 7.62804
266 1 10.4389 11.0405 8.82069
267 2 10.01 10.2556 9.46176
268 2 10.1993 12.0057 9.28625
269 2 9.92779 10.8951 7.89476
270 1 13.3736 10.0696 10.1794
271 2 13.273 8.94817 10.3941
272 2 14.4006 10.3959 9.93038
273 2 13.1544 10.6437 11.0923
274 4 11.6109 7.99825 7.13376
275 3 12.7185 6.83574 6.73527
276 1 10.1709 8.355 5.95865
277 2 9.72517 9.37922 6.06596
278 2 10.4021 8.24901 4.88804
279 2 9.25663 7.76457 6.13875
280 1 10.9457 7.2848 8.75991
281 2 11.3864 7.9134 9.53165
282 2 9.85092 7.32928 8.75116
283 2 11.2495 6.25535 8.99901
284 4 12.8695 5.45971 5.93426
285 1 11.3698 4.83412 5.12772
286 2 11.2511 3.79134 4.91626
287 2 10.6488 5.56589 4.86273
288 1 14.3696 4.43228 6.42458
289 2 14.8746 3.93559 5.558
290 2 15.0539 5.05973 7.03328
291 2 13.9421 3.58843 7.05198
292 4 18.5139 10.6262 8.08518
293 3 18.5505 9.02302 8.40848
294 1 16.8415 11.2079 7.57638
295 2 16.365 12.1835 7.35197
296 2 16.4936 10.4406 6.82699
297 2 16.2546 10.7708 8.38924
298 1 18.6429 11.2019 9.91778
299 2 18.3192 12.3536 10.0185
300 2 18.077 10.4193 10.4491
301 2 19.7369 11.1221 10.155
302 4 19.5779 7.82309 8.74972
303 3 19.2067 6.49966 7.7749
304 1 21.271 8.22436 7.99731
305 2 21.9755 8.74099 8.73837
306 2 20.7901 9.58817 4.0377
307 2 21.7089 6.79739 7.24589
308 1 19.9787 7.17728 10.5564
309 2 19.2719 6.49687 11.0907
310 2 20.975 6.60915 10.7528
311 2 20.1459 8.08283 11.1826
312 4 19.4273 4.98397 7.6293
313 3 20.9263 4.31025 8.04227
314 1 18.1161 4.09407 8.83807
315 2 18.0582 3.128 8.40162
316 2 18.5594 4.21677 9.79674
317 2 17.0309 4.39716 8.98933
318 1 18.6947 4.30342 6.03642
319 2 18.8106 4.36091 4.98312
320 2 18.6355 3.22383 6.18635
321 2 17.6714 4.67958 6.28368
322 4 21.9041 3.04089 7.75804
323 3 20.9338 1.64434 7.38437
324 1 1.44036 3.01993 6.44753
325 2 1.46793 3.65702 5.56173
326 2 2.54387 3.16709 6.79386
327 2 1.3974 2.03392 5.93763
328 1 0.880985 2.74422 9.39394
329 2 0.476128 2.95636 10.4858
330 2 0.827096 1.6549 9.39793
331 2 1.98469 2.80124 9.47402
332 4 20.7456 0.912841 6.02464
333 3 19.2904 0.072951 6.00941
334 1 20.8391 2.30359 4.76102
335 2 20.2594 2.55809 3.82097
336 2 20.6595 3.20351 5.37467
337 2 21.8702 2.31806 4.36185
338 1 21.9638 18.6112 5.56528
339 2 21.6267 17.5069 5.47137
340 2 0.790764 18.8581 4.85134
341 2 0.566165 18.5075 6.48618
342 4 18.5795 17.5313 5.40183
343 1 16.7485 17.8546 5.72962
344 2 16.609 17.0434 6.50269
345 2 16.9985 18.5669 6.42644
346 2 15.8009 18.0936 5.01828
347 1 19.2338 15.9512 6.20201
348 2 20.3024 15.6402 6.46426
349 2 18.4536 15.4033 6.61499
350 2 19.4081 15.2798 5.44502
351 4 21.2144 14.057 17.1497
352 3 21.5225 12.349 16.7763
353 1 21.6695 15.1956 18.7729
354 2 1.05434 15.8744 17.7981
355 2 21.5241 14.7229 19.8331
356 2 2.05786 15.8013 1.43291
357 1 20.2029 14.5971 18.3142
358 2 20.4628 16.0462 17.9405
359 2 20.8798 17.3872 13.001
360 2 19.0905 14.472 18.3822
361 4 21.5978 11.2665 15.4577
362 3 1.12171 10.6512 15.1805
363 1 20.0761 10.8419 14.4842
364 2 19.3504 11.1689 15.1595
365 2 20.0854 11.7898 13.9122
366 2 19.7189 10.0623 13.7749
367 1 21.1488 14.9686 15.0071
368 2 0.227606 14.8746 14.6907
369 2 20.2069 14.4075 15.0025
370 2 20.43 15.8727 14.8961
371 4 2.642 10.294 14.4996
372 3 2.6026 9.21582 13.3506
373 1 3.89308 9.9815 15.8793
374 2 3.36862 10.04 16.8528
375 2 4.44408 9.06612 15.7186
376 2 4.71187 10.7556 15.8921
377 1 2.83033 11.835 13.4487
378 2 3.19232 11.6025 12.3862
379 2 1.94925 12.5506 13.2239
380 2 3.32167 12.5721 14.1462
381 4 3.66623 8.09047 12.6209
382 3 4.15912 6.94029 13.8425
383 1 5.21437 9.09599 12.1562
384 2 5.07949 10.0164 11.6014
385 2 5.93448 9.17272 12.9793
386 2 5.75029 8.56409 11.3445
387 1 2.62233 7.14876 11.3522
388 2 2.82403 7.57084 10.3832
389 2 3.16598 6.19806 11.2141
390 2 1.55057 7.03429 11.5879
391 4 4.26705 5.27359 13.6805
392 3 4.85772 4.61905 12.32
393 1 5.2668 4.73973 15.2165
394 2 6.32223 5.07011 14.981
395 2 4.86978 5.26205 16.0388
396 2 5.29163 3.61843 15.2691
397 1 2.49895 4.53531 13.7558
398 2 1.92324 4.71301 12.7224
399 2 2.38074 3.55711 14.3545
400 2 2.00762 5.16682 14.4017
401 4 5.6842 3.69051 11.083
402 1 4.64627 2.28934 10.337
403 2 5.36904 1.89602 9.61015
404 2 4.46648 1.41107 11.0294
405 2 3.67326 2.45015 9.88603
406 1 7.28241 2.866 11.8852
407 2 7.74305 2.31349 11.0331
408 2 6.93029 2.08774 12.5988
409 4 8.31993 16.3941 15.0648
410 3 7.90033 15.0009 14.3558
411 1 7.04929 17.6455 15.7455
412 2 6.85268 18.4674 15.0294
413 2 6.25311 17.1539 16.2949
414 2 7.65392 18.2018 16.4569
415 1 9.66486 17.4913 14.1795
416 2 9.22569 18.279 13.5011
417 2 10.0711 17.9955 15.0315
418 2 10.4304 16.8292 13.7185
419 4 7.48963 13.3408 14.1852
420 3 8.73556 12.3221 13.9329
421 1 6.55691 13.1534 15.8043
422 2 6.23419 14.2181 15.868
423 2 5.67231 12.5082 15.7915
424 2 7.25527 12.8616 16.583
425 1 6.46962 13.5929 12.6211
426 2 7.13697 13.9482 11.8246
427 2 6.01955 12.695 12.1668
428 2 5.79951 14.4201 12.8059
429 4 10.2933 11.9871 13.7233
430 3 10.5711 10.7558 14.7386
431 1 11.5246 13.4842 13.622
432 2 11.0557 14.0751 12.8538
433 2 11.9081 14.1501 14.4068
434 2 12.4405 13.0854 13.16
435 1 10.2131 11.2731 11.9693
436 2 9.99408 10.1944 12.2083
437 2 9.34332 11.5083 11.3769
438 2 11.0642 11.2666 11.2381
439 4 11.3975 9.40712 15.1248
440 3 10.6477 8.11622 14.3386
441 1 11.3033 9.04389 16.8953
442 2 12.2423 8.58314 17.1893
443 2 11.331 9.98042 17.4692
444 2 10.5257 8.4256 17.366
445 1 13.2075 9.41399 14.7219
446 2 13.273 8.45268 14.2063
447 2 13.3985 10.1332 13.9039
448 4 10.2049 6.52468 14.0745
449 3 9.58687 6.31392 12.5765
450 1 8.81522 5.99448 15.1971
451 2 7.91864 6.54983 14.9388
452 2 8.60678 4.99995 14.8301
453 2 8.85774 6.02237 16.3049
454 1 11.856 5.41492 14.0343
455 2 12.408 5.77701 13.1299
456 2 12.3865 5.48104 15.0092
457 2 11.6779 4.35623 13.8779
458 4 9.10683 5.08001 11.5267
459 1 8.19819 3.85406 12.5339
460 2 7.49122 4.4335 13.1527
461 2 8.88706 3.31335 13.1919
462 1 10.7099 4.38134 10.859
463 2 11.2092 3.57861 11.4515
464 2 10.5595 3.79034 9.94165
465 2 11.4543 5.20786 10.7842
466 4 20.2488 15.8559 12.7448
467 3 18.6472 16.049 12.8532
468 1 20.4781 14.7619 11.2471
469 2 20.2295 13.6608 11.1039
470 2 19.9106 15.2291 10.4537
471 2 21.5474 14.6198 11.2285
472 1 18.3357 1.38861 11.405
473 2 18.1971 1.23139 12.4415
474 2 17.6118 1.63679 10.7026
475 2 19.2473 2.09997 11.4112
476 4 17.3809 15.3902 13.8652
477 3 17.3204 13.6574 13.8726
478 1 17.7583 16.047 15.6083
479 2 17.4297 15.4779 16.5219
480 2 18.8276 16.1856 15.7443
481 2 17.2614 17.0556 15.7767
482 1 15.821 16.0016 13.0561
483 2 15.5953 17.0826 13.2502
484 2 16.0229 15.8354 11.964
485 2 14.9487 15.3905 13.2983
486 4 16.004 12.5603 14.0659
487 3 16.5268 11.0005 14.3961
488 1 14.7184 12.984 15.3217
489 2 14.125 13.8441 14.9691
490 2 14.0436 12.0786 15.403
491 2 15.1129 13.3232 16.2968
492 1 15.1965 12.5335 12.3759
493 2 14.9524 11.4835 12.1924
494 2 14.2421 13.0947 12.3125
495 2 15.9603 12.9071 11.6882
496 4 15.9183 9.46239 14.8434
497 3 17.0561 8.79736 15.918
498 1 14.2163 9.44981 15.823
499 2 14.1638 8.54684 16.4415
500 2 14.1153 10.3027 16.4913
501 1 15.5791 8.38143 13.3366
502 2 14.8886 8.93744 12.6095
503 2 16.4942 8.12035 12.8614
504 2 15.1258 7.46128 13.6922
505 4 18.3245 7.804 16.363
506 3 17.5644 6.47993 17.0225
507 1 19.6437 7.31791 15.0664
508 2 20.2772 8.19117 14.6885
509 2 20.3989 6.69196 15.5439
510 2 19.2291 6.70716 14.2284
511 1 19.1383 8.58793 17.9396
512 2 19.7215 7.74771 18.4194
513 2 19.8079 9.42471 17.7653
514 2 18.3508 8.8803 18.6231
515 4 16.8069 5.05697 16.7454
516 1 15.2486 5.66224 15.5128
517 2 14.2652 5.43619 15.9826
518 2 15.2069 6.74634 15.3633
519 2 15.245 5.20336 14.5249
520 1 17.8191 3.81581 15.62
521 2 17.2122 3.49386 14.7542
522 2 18.6843 4.29644 15.1082
523 2 18.179 2.88529 16.1026
ITEM: TIMESTEP
5500
ITEM: NUMBER OF ATOMS
523
ITEM: BOX BOUNDS pp pp pp
2.0391929953161636e-02 2.1979608070046943e+01
1.7685330409317856e-02 1.9062277669590770e+01
1.8538118139218795e-02 1.9981461881860785e+01
ITEM: ATOMS id type x y z
1 4 21.8081 11.2681 2.5024
2 3 21.8728 10.0743 1.33366
3 1 20.62 12.7441 2.44706
4 2 19.9197 12.8923 1.44652
5 2 19.4819 12.9082 2.97184
6 2 20.8723 13.507 2.8352
7 1 19.2565 10.6537 7.02848
8 2 18.7303 11.5624 6.70712
9 2 20.1624 10.7551 6.34453
10 2 19.6365 11.1836 7.9323
11 4 1.26535 9.25493 0.665526
12 3 1.63637 7.68217 0.755758
13 1 2.64308 10.525 0.0834241
14 2 3.3797 10.8198 0.847461
15 2 3.81513 10.1814 19.8675
16 2 2.19418 11.3579 19.7315
17 1 0.107879 9.49504 19.1011
18 2 0.820557 0.677223 13.2994
19 2 21.2256 10.265 19.132
20 2 10.2656 15.6068 16.8769
21 4 3.18284 7.25556 0.832143
22 3 2.74637 5.26697 1.20842
23 1 3.9138 8.07988 2.20555
24 2 4.97058 8.29087 2.12397
25 2 3.62432 9.11049 2.16966
26 2 3.50272 7.56725 3.05072
27 1 3.94477 7.56773 18.8433
28 2 5.01183 7.12343 18.7737
29 2 3.07605 7.14586 18.2528
30 2 3.9835 8.62901 18.5085
31 4 1.82158 4.03019 1.35249
32 3 2.62263 2.51794 1.75401
33 1 1.5284 3.1262 17.6052
34 2 1.26978 4.01317 17.5437
35 2 1.93856 2.91913 16.6008
36 2 0.573597 2.93576 17.224
37 1 0.120174 3.68242 1.04121
38 2 1.53239 2.58909 18.5125
39 2 21.628 4.75668 1.34205
40 2 21.9934 2.80738 1.50185
41 4 4.19279 2.41848 1.00808
42 3 4.90981 0.712676 2.14357
43 1 5.05843 3.35792 2.28612
44 2 6.17833 3.08907 2.42832
45 2 4.97375 4.47101 2.29178
46 2 4.72505 2.98104 3.23124
47 1 4.62467 1.49044 19.4097
48 2 5.54847 0.9986 19.8234
49 2 4.08173 0.372998 19.4391
50 2 4.71611 1.97323 18.5724
51 4 6.20843 18.9172 2.35481
52 1 5.18204 17.6081 3.63037
53 2 4.29376 17.6457 3.24603
54 2 5.84178 16.4517 3.25763
55 2 5.28644 17.9989 4.61684
56 1 20.7076 1.54391 15.9703
57 2 21.6582 1.5183 16.5289
58 2 7.82171 0.215178 2.34429
59 2 20.7946 0.974116 15.0125
60 4 11.5913 17.0803 19.4511
61 3 12.1835 17.5372 0.884709
62 1 13.8234 2.58734 5.91152
63 2 14.42 3.28485 5.34548
64 2 12.9781 3.22811 6.44995
65 2 14.1816 1.84136 6.74991
66 1 13.1155 18.0046 19.7141
67 2 9.32963 4.78656 3.93579
68 2 9.20218 4.3632 4.09074
69 2 13.2615 1.83032 5.20121
70 4 10.9975 16.6249 1.97689
71 3 11.1375 15.1378 1.27056
72 1 9.43109 17.2959 2.03377
73 2 10.26 5.55926 2.18119
74 2 8.62407 17.0245 1.56705
75 2 9.43433 17.7537 2.97396
76 1 11.7326 16.1932 3.52656
77 2 11.2904 15.8589 4.48131
78 2 12.6266 15.5261 3.40157
79 2 12.4969 17.0357 4.00334
80 4 10.4895 13.8742 0.211757
81 3 10.7191 12.1549 0.266243
82 1 11.3808 13.7251 18.3217
83 2 10.4736 14.2131 17.8775
84 2 11.8627 14.7213 18.5394
85 2 12.2174 13.0139 17.8133
86 1 8.47356 13.9019 0.441909
87 2 8.49065 14.0203 1.48563
88 2 7.95279 14.4292 19.741
89 2 7.8024 12.8258 0.438757
90 4 11.1104 10.8011 1.08614
91 3 10.1175 9.70013 0.293057
92 1 10.9035 11.113 2.8727
93 2 11.8655 11.5902 3.14361
94 2 10.1607 11.7662 3.34854
95 2 10.8588 10.0831 3.3332
96 1 13.0032 10.368 0.954816
97 2 12.1192 10.941 18.4984
98 2 13.9567 10.7136 1.40168
99 4 8.33056 8.8692 0.418281
100 3 8.56338 7.42589 19.7808
101 1 6.68416 9.62294 19.4421
102 2 6.93593 9.03985 18.2282
103 2 7.33489 10.4197 -0.00100393
104 2 5.46587 9.38625 19.477
105 1 7.56799 9.50662 2.27439
106 2 7.31632 10.5376 2.54481
107 2 6.60688 8.92033 2.47952
108 2 8.3215 9.01015 2.87655
109 4 9.31827 6.06443 0.380488
110 1 11.1318 6.57456 19.6998
111 2 10.8796 7.5815 19.6013
112 2 12.1846 6.33869 19.8088
113 2 10.6092 5.93235 18.7677
114 1 8.36324 4.86948 19.0378
115 2 8.69655 5.60561 18.3611
116 2 9.01259 3.95654 18.8921
117 2 7.32394 4.81679 19.2878
118 4 16.6595 14.6118 2.41345
119 3 15.6805 13.3843 2.62859
120 1 17.5663 14.1401 0.756231
121 2 18.5341 14.5247 0.23393
122 2 17.0512 13.5594 19.9513
123 2 17.0715 14.677 0.076735
124 1 15.6983 16.2968 2.12577
125 2 14.7338 15.8887 2.06872
126 2 15.6848 17.1298 3.04539
127 2 16.2699 17.0525 1.32317
128 4 15.6872 12.039 3.48715
129 3 17.1448 11.306 3.3655
130 1 17.8905 14.9004 3.6338
131 2 17.5553 14.8569 4.67365
132 2 18.8452 14.3997 3.53796
133 2 17.9932 15.9745 3.18793
134 1 10.4494 0.696503 7.3423
135 2 10.6425 1.73896 7.72534
136 2 9.32029 1.04351 7.4653
137 2 10.79 0.395916 6.45748
138 4 17.1742 9.72418 2.74526
139 3 15.6981 9.31291 2.12866
140 1 18.8534 9.40203 1.79748
141 2 19.4074 10.5866 1.97598
142 2 20.0435 8.95746 1.72002
143 2 15.8485 0.722255 12.4594
144 1 16.8299 8.74648 4.20441
145 2 16.687 7.74747 3.90219
146 2 17.7216 8.81747 4.86719
147 2 15.9934 9.13162 4.73957
148 4 15.1743 8.31037 0.938236
149 3 15.1124 6.69618 1.27067
150 1 13.3096 8.89706 1.1123
151 2 12.6796 8.11596 0.607024
152 2 13.5707 8.52854 2.26204
153 1 15.6681 9.17431 19.24
154 2 14.9478 10.0602 19.4427
155 2 16.6196 9.39772 19.1686
156 2 15.5608 8.4625 18.4337
157 4 15.6364 5.16948 1.63255
158 3 16.4114 4.65908 0.179658
159 1 14.345 3.95166 2.01049
160 2 14.8763 2.94278 2.0889
161 2 14.0876 4.03064 3.06776
162 2 13.6022 3.90621 1.20719
163 1 16.8745 5.06994 3.13691
164 2 17.748 4.63603 2.55928
165 2 17.3078 6.0141 3.61512
166 2 16.5231 4.18042 3.67537
167 4 16.893 3.6244 18.8136
168 1 15.7431 2.08329 18.596
169 2 16.4671 1.56051 17.9471
170 2 15.4353 1.36973 19.5352
171 2 14.8107 2.20029 17.9727
172 1 18.8775 3.11467 18.8449
173 2 19.399 3.92198 18.8015
174 2 19.4452 2.54788 19.6283
175 2 19.1069 2.40248 17.9457
176 4 2.09197 15.9679 10.5925
177 3 2.67539 14.8472 9.53539
178 1 3.24069 15.9466 12.1192
179 2 2.98808 15.2501 12.9131
180 2 4.27645 15.7049 11.8473
181 2 3.21394 16.9265 12.5677
182 1 2.54048 17.781 10.0668
183 2 3.51756 17.8762 10.5536
184 2 2.63487 18.1699 9.04806
185 2 2.00263 18.4355 10.7456
186 4 2.69413 14.532 7.91771
187 3 3.76083 13.3256 7.5984
188 1 3.23202 16.008 6.89455
189 2 2.56641 16.8426 7.05667
190 2 4.30561 16.2121 7.04203
191 2 3.08003 15.7233 5.8382
192 1 0.946327 13.8898 7.40167
193 2 0.303866 14.7279 7.79358
194 2 0.886613 13.7887 6.29919
195 2 0.872266 12.9262 7.94625
196 4 5.3519 12.9142 7.49416
197 3 5.34425 11.2655 7.44871
198 1 6.38757 13.2802 9.06272
199 2 7.36313 13.7816 8.91613
200 2 5.82804 13.8032 9.84006
201 2 6.5884 12.2682 9.48913
202 1 5.91235 13.2392 5.74298
203 2 6.67797 14.0119 5.63713
204 2 6.12868 12.1992 5.36159
205 2 5.10932 13.5848 5.04258
206 4 4.33284 9.98822 7.69363
207 3 5.0448 8.44917 7.8889
208 1 3.13362 10.1308 9.22178
209 2 2.28793 9.42323 9.0252
210 2 3.62532 9.80622 10.1364
211 2 2.67076 11.1536 9.34013
212 1 3.42799 9.80424 6.07381
213 2 4.20427 9.38222 5.4168
214 2 2.76151 8.91239 6.17652
215 2 3.00488 10.6379 5.49599
216 4 5.79302 7.05949 7.41889
217 3 5.78101 6.11918 8.77009
218 1 4.5944 6.45606 6.18297
219 2 5.10062 6.43415 5.23022
220 2 4.02558 5.52457 6.28515
221 2 3.77532 7.16897 6.28896
222 1 7.36576 7.43396 6.74522
223 2 7.64111 6.71367 5.9536
224 2 7.29502 8.43233 6.33956
225 2 8.15142 7.4713 7.50492
226 4 6.83089 5.05916 9.40673
227 1 7.26654 3.91079 7.93253
228 2 6.80316 2.98628 8.23279
229 2 6.84859 4.25662 6.95909
230 2 8.34126 3.75578 7.85674
231 1 8.21927 6.0705 10.0467
232 2 8.75542 6.42774 9.16104
233 2 7.8577 6.89892 10.6807
234 4 11.6202 18.6593 8.4247
235 3 10.7242 17.33 8.81165
236 1 13.135 18.092 7.22802
237 2 13.3988 18.7743 6.45706
238 2 14.049 18.0532 7.80908
239 2 12.7169 17.2132 6.69699
240 1 12.1818 0.767393 10.1379
241 2 11.1597 0.684895 10.4401
242 2 12.8728 0.292858 10.4756
243 2 12.4905 1.4752 9.43956
244 4 10.3326 15.7461 8.67309
245 3 11.8215 15.076 8.41619
246 1 9.41752 15.4208 10.3064
247 2 9.96239 16.0563 11.0228
248 2 8.40369 15.7748 10.1669
249 2 9.66794 14.4506 10.8136
250 1 9.16218 15.4514 7.13546
251 2 8.37872 16.1752 7.14764
252 2 9.65757 15.4353 6.16695
253 2 8.84362 14.435 7.24641
254 4 13.1253 14.0926 8.51717
255 3 12.6243 12.5086 8.53889
256 1 14.087 14.3404 9.99333
257 2 14.7781 13.497 9.99165
258 2 14.6525 15.2786 9.81355
259 2 13.5103 14.3064 10.9317
260 1 14.1861 14.4352 7.02183
261 2 13.7804 15.1253 6.26338
262 2 15.1898 14.6847 7.35722
263 2 14.2918 13.5202 6.35432
264 4 11.406 11.4147 8.76792
265 3 11.8548 10.1257 7.73341
266 1 9.72839 12.0584 8.18417
267 2 9.05211 11.2371 8.19765
268 2 9.38746 12.8265 8.90491
269 2 9.73529 12.554 7.22624
270 1 11.4566 10.9018 10.5298
271 2 11.0928 9.84915 10.7383
272 2 12.4476 11.0594 10.9415
273 2 10.7729 11.5058 11.118
274 4 11.2992 8.7533 6.99255
275 3 12.651 8.17757 6.17657
276 1 10.0703 9.2006 5.57409
277 2 9.15931 8.63307 5.77633
278 2 9.96499 10.281 5.57784
279 2 10.5809 8.7904 4.71244
280 1 10.8637 7.33788 8.11106
281 2 10.4739 7.71278 9.08676
282 2 10.0706 6.66519 7.72162
283 2 11.7215 6.67074 8.39496
284 4 13.1868 6.73564 5.62433
285 1 12.224 5.85331 4.48746
286 2 12.55 4.79523 4.36167
287 2 11.28 6.128 3.99507
288 1 14.882 6.38908 6.37222
289 2 15.1014 5.32989 6.52712
290 2 15.6 6.80517 5.64227
291 2 15.0541 6.88437 7.31639
292 4 18.2222 9.41733 7.95476
293 3 19.0163 7.92363 8.06963
294 1 16.322 9.29662 7.319
295 2 15.9503 10.2012 6.97096
296 2 16.1233 8.38205 6.73427
297 2 15.6699 9.24944 8.27911
298 1 18.0558 10.1679 9.89502
299 2 17.9179 11.2625 10.0414
300 2 17.4443 9.49381 10.6058
301 2 19.0928 10.3794 10.2526
302 4 19.7721 6.60245 8.78475
303 3 18.6971 5.55186 8.07672
304 1 21.4152 6.66269 9.36647
305 2 2.11376 8.45846 3.48582
306 2 1.4361 8.34216 4.04957
307 2 22.0104 7.66472 9.2718
308 1 19.5391 6.92197 10.707
309 2 19.7914 7.99041 10.8663
310 2 18.6509 6.63007 11.3091
311 2 20.4554 6.21889 11.0285
312 4 18.7083 4.03946 7.56113
313 3 20.111 3.1345 7.74066
314 1 17.5906 2.86756 8.62122
315 2 17.0059 3.74228 8.93911
316 2 16.8646 2.18326 8.24788
317 2 17.9063 2.67939 9.68195
318 1 18.0474 4.21922 5.81442
319 2 18.6446 4.61192 5.00153
320 2 17.4719 3.2696 5.60872
321 2 17.2198 4.98472 6.08006
322 4 21.7575 2.95519 7.63718
323 3 21.8775 1.78985 6.72049
324 1 0.776356 4.65903 7.29155
325 2 1.00766 5.14322 8.22168
326 2 1.67803 4.68135 6.6522
327 2 0.0602338 5.39942 7.05388
328 1 0.227753 2.18455 9.35015
329 2 21.8831 1.09643 9.54069
330 2 1.24503 2.21031 9.94288
331 2 21.4835 2.88082 9.93665
332 4 21.8239 0.34076 5.73781
333 3 20.1388 18.8903 5.83274
334 1 0.789864 0.431943 4.00743
335 2 1.93812 0.704514 3.80237
336 2 0.793479 18.3086 3.97354
337 2 21.8559 0.684305 3.39445
338 1 0.475676 17.7438 6.64499
339 2 21.5259 17.278 6.89821
340 2 1.02867 17.4537 5.64717
341 2 1.04442 18.0731 7.27629
342 4 18.5872 18.5965 6.04725
343 1 17.5488 18.9323 4.22909
344 2 17.8403 0.394072 3.39326
345 2 17.2886 17.9628 3.67874
346 2 16.6604 0.0117017 4.85591
347 1 17.3194 17.3731 7.37534
348 2 16.2452 17.6948 7.29658
349 2 17.563 16.5201 6.8935
350 2 17.4698 16.7479 8.36461
351 4 21.6077 13.6543 16.4861
352 3 0.413186 11.8687 15.6693
353 1 21.3591 13.8164 18.6352
354 2 19.8856 12.8279 15.059
355 2 21.4655 12.642 18.8356
356 2 0.34029 0.467113 13.3819
357 1 21.6002 15.0185 19.0778
358 2 20.2846 13.4165 14.8602
359 2 19.7183 15.8511 10.625
360 2 0.275878 15.7903 19.4958
361 4 0.633844 10.6226 14.8679
362 3 2.09574 9.67246 15.3155
363 1 21.4219 10.1156 13.5187
364 2 20.6737 10.9145 13.0022
365 2 21.586 9.38442 12.7412
366 2 20.6322 9.38699 14.1594
367 1 0.654054 15.0635 15.7603
368 2 21.9104 16.0175 15.7927
369 2 0.924211 15.6162 16.711
370 2 1.54754 14.8957 15.1928
371 4 3.56987 10.0398 14.556
372 3 3.59611 8.94323 13.3245
373 1 4.72235 9.66474 15.9674
374 2 4.70299 8.62909 16.5035
375 2 5.69447 9.89591 15.4557
376 2 4.4842 10.4594 16.6834
377 1 3.58096 11.8639 14.1958
378 2 4.45733 12.1879 13.575
379 2 2.83693 11.9132 13.2534
380 2 3.40656 12.51 15.0788
381 4 3.53007 7.4191 12.5551
382 3 3.74313 6.02992 13.4414
383 1 5.24493 7.72044 11.8122
384 2 5.1867 8.81312 11.587
385 2 6.05065 7.59213 12.5332
386 2 5.58097 6.96857 11.0835
387 1 1.93368 7.30923 11.4519
388 2 1.29852 8.20766 11.6042
389 2 2.40237 7.69139 10.5084
390 2 1.36049 6.43442 11.222
391 4 3.94408 4.41734 13.7297
392 3 4.69241 4.04326 12.2721
393 1 4.40667 4.40593 15.5669
394 2 3.59438 3.90791 16.1513
395 2 5.15178 3.72666 16.0091
396 2 4.52403 5.36727 15.9324
397 1 2.31309 3.53886 13.5973
398 2 1.82738 3.89171 12.7054
399 2 2.51273 2.46657 13.5595
400 2 1.56077 3.54634 14.5291
401 4 5.88961 3.65184 11.0846
402 1 5.15847 2.04873 10.0555
403 2 4.96642 2.34405 9.03688
404 2 5.95495 1.28181 10.1727
405 2 4.20843 1.67082 10.3818
406 1 7.50014 3.02625 11.7475
407 2 7.92422 2.51575 10.8577
408 2 7.25407 2.19561 12.4504
409 4 8.98904 16.5965 16.0229
410 3 8.06221 15.4931 15.1916
411 1 8.00729 17.4579 17.3268
412 2 6.93243 17.6581 17.1723
413 2 8.10222 16.8062 18.1917
414 2 8.29377 18.5168 17.5743
415 1 10.0739 17.6776 14.8993
416 2 10.6867 18.3259 15.5663
417 2 10.765 17.1205 14.3527
418 2 9.49159 18.295 14.2309
419 4 7.47438 13.9198 15.0033
420 3 8.63895 12.8121 14.7279
421 1 6.68323 13.3154 16.5309
422 2 6.08509 14.0939 17.0548
423 2 6.07949 12.3976 16.4532
424 2 7.51298 13.0242 17.1864
425 1 6.35492 14.0305 13.4465
426 2 6.82419 14.7249 12.7532
427 2 6.17636 13.0173 13.0365
428 2 5.35318 14.3894 13.7553
429 4 9.67358 11.985 13.8656
430 3 10.4794 10.9915 14.9025
431 1 10.885 13.258 13.1247
432 2 10.4775 13.9506 12.3778
433 2 11.2916 13.9798 13.8896
434 2 11.7261 12.6844 12.7238
435 1 8.65633 10.8308 12.6264
436 2 9.10504 9.82487 12.6644
437 2 7.61834 10.7505 12.8557
438 2 8.57801 11.2923 11.6235
439 4 11.2546 9.52772 14.9943
440 3 10.4631 8.40973 13.9975
441 1 11.1655 8.97239 16.7396
442 2 11.7101 8.01329 16.8472
443 2 11.8729 9.74395 17.1631
444 2 10.1884 8.92429 17.2659
445 1 13.1024 9.6611 14.4911
446 2 13.2543 8.81579 13.803
447 2 13.2931 10.6018 13.9257
448 4 10.1226 6.76168 14.0145
449 3 9.72895 6.36946 12.4351
450 1 8.5412 6.33182 15.1283
451 2 8.83373 6.34613 16.2009
452 2 7.67767 6.98349 15.0742
453 2 8.18718 5.31958 14.8473
454 1 11.6207 5.89758 14.6816
455 2 12.5268 5.80876 14.0727
456 2 11.8209 6.44727 15.6071
457 2 11.4599 4.906 15.1261
458 4 9.36276 5.23461 11.2242
459 1 8.42149 4.06376 12.3884
460 2 7.94269 4.54952 13.2393
461 2 9.26267 3.52685 12.8598
462 1 10.8066 4.16243 10.5623
463 2 10.6265 4.17316 9.49479
464 2 11.7736 4.63702 10.7469
465 2 10.7823 3.10791 10.9011
466 4 20.3119 15.5322 12.3453
467 3 18.7938 15.064 13.0284
468 1 21.384 14.1389 11.8933
469 2 0.0733861 13.5613 12.5004
470 2 20.8231 13.6834 11.0712
471 2 0.150418 14.6592 11.2418
472 1 16.3002 1.40354 11.8237
473 2 16.1252 2.51521 11.8068
474 2 16.0524 1.01479 10.9128
475 2 17.3726 1.51381 12.1577
476 4 17.4044 15.1334 13.8827
477 3 16.6561 13.76 14.2764
478 1 17.9228 16.3055 15.2834
479 2 18.868 15.7549 15.4924
480 2 18.152 17.3076 15.0577
481 2 17.3102 16.1793 16.1998
482 1 16.1894 16.1843 13.0181
483 2 16.6137 17.1839 13.2262
484 2 15.9465 16.1141 11.9568
485 2 15.2329 16.1603 13.5028
486 4 15.74 12.4276 14.1213
487 3 16.3941 10.9511 14.6293
488 1 14.1392 12.8049 15.036
489 2 13.9207 13.8526 15.0257
490 2 13.1987 12.2791 14.851
491 2 14.3662 12.6034 16.0679
492 1 15.7147 12.3596 12.1946
493 2 15.0139 11.6185 11.7944
494 2 15.198 13.3455 11.9938
495 2 16.6861 12.2057 11.7084
496 4 15.8905 9.43343 15.0004
497 3 17.0324 8.92619 16.149
498 1 14.1085 9.33011 15.6777
499 2 13.8834 8.30246 16.0195
500 2 14.0236 9.98195 16.5932
501 1 15.933 8.35477 13.4599
502 2 16.0815 8.92851 12.5341
503 2 16.8846 7.82947 13.5409
504 2 15.1933 7.55805 13.3833
505 4 18.1654 7.71798 16.598
506 3 17.4728 6.22676 16.784
507 1 19.2552 7.60649 14.9671
508 2 19.0053 8.27057 14.1798
509 2 20.2395 7.66753 15.3802
510 2 19.0887 6.58586 14.5622
511 1 19.0676 8.02909 18.2194
512 2 18.8607 7.14883 18.8858
513 2 20.1431 8.06587 18.0601
514 2 18.7426 8.92574 18.7563
515 4 16.7652 4.76776 16.6286
516 1 14.9983 5.14123 15.944
517 2 15.048 4.82582 14.8755
518 2 14.1966 4.60187 16.5125
519 2 14.8074 6.23744 16.0219
520 1 17.4923 3.49361 15.4629
521 2 18.1235 2.81099 16.0829
522 2 16.7529 2.8955 14.9133
523 2 18.1736 4.03549 14.7821
ITEM: TIMESTEP
6000
ITEM: NUMBER OF ATOMS
523
ITEM: BOX BOUNDS pp pp pp
2.7201218152317352e-02 2.1972798781847821e+01
2.3590828904591632e-02 1.9056372171095461e+01
2.4728380138467898e-02 1.9975271619861548e+01
ITEM: ATOMS id type x y z
1 4 21.2287 10.9975 2.06634
2 3 21.5534 9.50256 1.53696
3 1 21.8202 12.2878 0.665559
4 2 0.815575 13.032 0.81185
5 2 18.2954 10.9606 3.22281
6 2 21.739 12.3995 19.4103
7 1 19.774 9.30565 7.70409
8 2 19.7605 10.3687 7.20444
9 2 19.1073 8.62804 6.83613
10 2 20.8195 9.16433 7.62632
11 4 1.20295 8.70881 0.421888
12 3 2.33556 7.75242 1.13371
13 1 2.42861 10.4692 19.8919
14 2 2.21771 10.6908 18.8864
15 2 3.58305 10.648 19.9654
16 2 1.71417 10.7101 0.660133
17 1 0.758514 7.70006 18.9963
18 2 21.7714 13.8207 12.3657
19 2 1.15985 7.57822 18.0924
20 2 12.903 17.9062 17.3106
21 4 3.27045 6.42829 1.0127
22 3 2.36584 5.22322 1.72311
23 1 4.88029 6.60875 1.96889
24 2 5.52724 7.19824 1.27773
25 2 4.7231 6.9753 2.9886
26 2 5.30565 5.69053 2.27862
27 1 3.50021 5.59699 19.1598
28 2 3.72335 6.6049 18.7545
29 2 4.4519 5.00636 19.2409
30 2 2.64633 5.42048 18.4467
31 4 2.41091 4.01126 2.88858
32 3 3.97176 2.80805 2.6008
33 1 0.466408 2.9783 15.8528
34 2 0.632541 3.88563 16.6141
35 2 1.35729 2.02673 16.6374
36 2 1.43457 3.03267 15.2947
37 1 0.875674 3.68675 3.71253
38 2 21.4841 2.7235 15.2887
39 2 21.3657 6.2991 2.95326
40 2 1.23805 3.29222 4.75854
41 4 4.65419 1.70261 1.69458
42 3 4.31723 0.446825 3.14478
43 1 6.4662 2.31947 1.36994
44 2 7.27453 2.27583 2.02015
45 2 6.65411 1.79315 0.343168
46 2 6.12197 3.35127 1.05527
47 1 4.08017 1.80526 19.8249
48 2 3.60244 1.31811 18.9398
49 2 4.01484 2.83982 19.5492
50 2 4.95968 1.39316 19.37
51 4 4.94586 18.1644 2.484
52 1 5.97982 16.8422 3.67605
53 2 5.38477 16.4616 4.34615
54 2 6.39926 15.9206 3.20693
55 2 6.71098 17.2679 4.31261
56 1 17.978 0.0799578 11.4799
57 2 17.0746 0.841104 10.8433
58 2 3.94006 17.3766 1.85109
59 2 17.3799 18.8053 12.4322
60 4 12.3095 0.0395757 18.1489
61 3 12.5598 16.8097 0.0904391
62 1 13.4211 3.30911 5.25202
63 2 14.5223 3.64604 5.43306
64 2 12.5929 4.05661 5.04139
65 2 13.1372 2.68062 6.1534
66 1 12.3026 18.0977 0.116562
67 2 10.5317 6.16038 5.82975
68 2 9.62609 5.20853 5.72981
69 2 13.7372 2.72524 4.39049
70 4 11.8396 16.6115 1.77014
71 3 11.4142 14.8814 1.93093
72 1 10.3519 17.5015 2.34296
73 2 5.19248 1.08342 16.9885
74 2 10.6117 18.7179 2.51475
75 2 9.38186 17.1125 2.30975
76 1 13.3717 16.8183 2.73982
77 2 13.1841 16.9629 3.84832
78 2 14.0314 15.9502 2.39626
79 2 14.1121 17.5292 2.56747
80 4 10.3265 14.2495 0.746209
81 3 10.2885 12.5531 1.26132
82 1 11.1617 13.997 19.1485
83 2 10.4967 14.3651 18.3324
84 2 11.8967 14.1187 18.5218
85 2 10.9788 12.9938 18.6379
86 1 8.63909 14.5075 0.458766
87 2 8.2187 15.3816 0.685124
88 2 8.49275 14.6188 19.2297
89 2 7.84523 13.6979 0.508889
90 4 10.9849 11.5139 2.07066
91 3 9.92399 10.2058 2.54595
92 1 11.8173 12.3531 3.40461
93 2 12.3681 13.2477 3.11169
94 2 10.874 12.8084 3.80168
95 2 12.3142 11.8516 4.29036
96 1 12.1099 10.0073 0.855864
97 2 10.5187 11.9478 16.7255
98 2 12.1892 10.0493 19.7143
99 4 8.99434 9.15639 1.89396
100 3 9.63139 8.37133 0.553856
101 1 7.44558 10.593 1.22335
102 2 7.00401 9.68884 0.888445
103 2 8.53801 10.827 0.945198
104 2 7.0967 11.5778 1.73391
105 1 8.31557 7.69428 3.02559
106 2 8.5369 7.46258 4.05886
107 2 7.2307 7.94662 2.96067
108 2 8.73944 7.07571 2.20463
109 4 9.35918 6.80114 0.0405125
110 1 7.86616 7.23441 19.0199
111 2 8.01233 6.38954 18.3013
112 2 6.84725 7.07612 19.5657
113 2 8.11698 8.13274 18.3667
114 1 5.39326 1.16993 15.8269
115 2 4.30328 0.668653 15.436
116 2 6.02704 1.93203 15.5022
117 2 6.27377 0.527958 15.4488
118 4 17.3653 15.2367 1.52247
119 3 16.2874 14.1563 2.28382
120 1 17.9593 14.444 19.7995
121 2 19.0365 14.6857 19.3158
122 2 18.885 13.9253 0.378854
123 2 17.7114 14.4385 18.816
124 1 16.816 16.9352 0.620805
125 2 17.5292 16.9081 20.0123
126 2 15.9433 16.6813 20.0581
127 2 16.5664 17.6278 1.48253
128 4 15.0387 13.1048 2.8416
129 3 16.0055 11.6093 2.57449
130 1 18.5797 15.8451 2.86743
131 2 18.5487 16.8052 3.47559
132 2 18.6961 15.1044 3.7027
133 2 19.5084 15.8397 2.36685
134 1 10.6419 1.99451 7.86951
135 2 10.9769 3.02357 7.08741
136 2 10.2274 2.54101 8.86624
137 2 9.55869 1.92313 7.62269
138 4 16.2091 9.99057 2.43922
139 3 15.3563 9.18815 1.36677
140 1 18.2787 10.1272 2.06095
141 2 18.1082 9.2277 2.72806
142 2 19.1184 10.0229 1.43159
143 2 16.9255 16.9096 10.4329
144 1 16.0768 9.29143 4.17079
145 2 15.513 9.85334 4.86109
146 2 16.4118 8.34076 4.28113
147 2 16.889 9.85079 4.67373
148 4 14.1887 8.36126 0.458623
149 3 14.315 6.7336 0.721476
150 1 12.5214 8.66484 1.33365
151 2 11.9742 7.80239 1.09335
152 2 12.7969 8.6447 2.43216
153 1 14.6586 8.8012 18.7179
154 2 13.4612 8.83733 18.5737
155 2 15.2199 9.6893 18.8229
156 2 15.4521 8.08279 18.4242
157 4 15.3025 5.52377 1.23507
158 3 16.3972 5.00193 0.186839
159 1 14.3266 3.97009 1.68359
160 2 14.3398 3.10328 1.04626
161 2 14.8994 3.71314 2.5652
162 2 13.3492 4.02456 2.03072
163 1 16.3625 5.84557 2.83234
164 2 16.9048 4.94493 3.07485
165 2 17.203 6.55911 2.75949
166 2 15.8617 6.15451 3.70931
167 4 16.9995 3.92294 18.9136
168 1 16.2239 2.24935 18.8697
169 2 16.8066 1.43017 18.1983
170 2 16.4108 1.97029 19.7963
171 2 14.9871 2.09435 18.7042
172 1 18.8141 4.01271 19.4509
173 2 19.2623 2.96626 19.5829
174 2 19.3706 4.27809 18.5495
175 2 19.0514 4.90277 0.230755
176 4 2.02562 15.6567 10.405
177 3 2.72765 15.6108 8.93528
178 1 2.65823 14.2323 11.4011
179 2 2.26749 13.2507 11.0746
180 2 3.77492 14.2407 11.3079
181 2 2.4179 14.3803 12.4497
182 1 2.24858 17.3657 11.0891
183 2 3.32839 17.4833 11.3656
184 2 1.91257 18.2782 10.6372
185 2 1.86669 17.2708 12.0908
186 4 3.09085 14.4654 7.66858
187 3 4.45529 13.7418 8.25864
188 1 3.78364 15.7761 6.43787
189 2 3.40956 16.7742 6.65854
190 2 4.8773 15.8227 6.62196
191 2 3.65528 15.728 5.35048
192 1 1.58427 13.4559 7.21826
193 2 0.961711 14.0953 6.5482
194 2 1.72751 12.5547 6.64283
195 2 0.94256 12.9887 7.97858
196 4 5.73249 12.6944 8.30908
197 3 5.23383 11.1248 8.4361
198 1 6.56515 12.9402 9.95855
199 2 6.27588 13.867 10.4731
200 2 6.23283 12.0611 10.5096
201 2 7.67277 12.946 9.85112
202 1 6.81877 13.0303 6.77846
203 2 6.51643 12.5723 5.82901
204 2 6.92447 14.1073 6.68568
205 2 7.77379 12.5272 6.8882
206 4 4.04005 9.97297 8.01891
207 3 4.776 8.48907 8.12014
208 1 2.69021 10.0082 9.32233
209 2 2.17779 9.03744 9.37638
210 2 3.1756 10.2733 10.2467
211 2 1.74287 10.5641 9.2045
212 1 3.48777 10.3322 6.25253
213 2 4.36759 10.2679 5.65056
214 2 2.77757 9.54684 6.00813
215 2 3.00343 11.2891 6.06648
216 4 5.72939 7.27344 7.46339
217 3 5.9934 6.23774 8.74897
218 1 5.08529 6.80489 5.84545
219 2 4.53496 7.71037 5.57352
220 2 5.84097 6.74615 5.03619
221 2 4.48299 5.89107 5.79543
222 1 7.39273 7.9766 7.15225
223 2 7.29237 8.6484 6.28666
224 2 7.66441 8.4864 8.06165
225 2 8.14049 7.34928 6.91286
226 4 6.97523 4.89881 9.29311
227 1 7.58198 4.0885 7.64393
228 2 8.35474 3.33003 7.7461
229 2 6.74698 3.54928 7.1259
230 2 7.9716 4.70395 6.82046
231 1 8.12553 5.85639 10.4892
232 2 8.66786 6.56176 9.84853
233 2 7.42099 6.4322 11.1007
234 4 11.4968 0.329601 8.5924
235 3 10.2739 18.4321 8.30938
236 1 13.2643 18.924 7.7959
237 2 14.0346 0.279484 8.51665
238 2 13.1845 17.8992 7.6805
239 2 13.7883 0.306611 6.89744
240 1 11.874 0.617825 10.379
241 2 10.7455 0.985628 10.6448
242 2 11.845 18.8107 10.8539
243 2 12.3748 1.36987 10.8948
244 4 9.99859 16.7448 8.22331
245 3 11.2752 15.8683 7.90178
246 1 9.14216 16.1899 9.84655
247 2 9.58828 16.5657 10.7581
248 2 8.09789 16.4589 10.0455
249 2 9.40921 15.1481 10.0335
250 1 8.82522 16.6267 6.74002
251 2 7.75094 16.813 6.90086
252 2 9.12966 17.4018 5.99396
253 2 9.00511 15.7148 6.16026
254 4 12.2288 14.5335 7.87018
255 3 11.3177 13.2453 8.38202
256 1 13.4927 15.0395 9.01478
257 2 14.1755 14.2009 9.21594
258 2 14.0619 15.8852 8.58014
259 2 13.0426 15.4257 9.95782
260 1 12.9382 14.0706 6.1897
261 2 13.4279 14.948 5.74849
262 2 13.6459 13.2219 6.33225
263 2 12.0564 13.8401 5.53776
264 4 11.4169 11.5441 8.40373
265 3 12.0086 10.9139 6.95513
266 1 9.74723 10.7865 8.7504
267 2 9.36149 10.0687 7.99458
268 2 9.9662 10.1734 9.65283
269 2 8.91392 11.4566 9.00253
270 1 12.5521 11.2048 9.84566
271 2 13.0418 10.2141 9.96262
272 2 13.3435 11.948 9.85246
273 2 11.8799 11.3466 10.6977
274 4 11.8399 9.24791 6.6174
275 3 13.2167 8.82423 5.67514
276 1 10.3547 9.13655 5.57941
277 2 9.66555 9.99527 5.77383
278 2 10.433 9.17367 4.48859
279 2 9.80098 8.22707 5.69795
280 1 11.9014 8.14981 8.20856
281 2 11.0882 8.53572 8.84472
282 2 11.6259 7.10012 8.04723
283 2 12.9148 8.19604 8.67041
284 4 13.9666 7.48427 5.32264
285 1 13.5021 6.52129 4.00764
286 2 13.9076 5.51551 3.93988
287 2 12.5466 6.7463 3.52323
288 1 15.0754 7.00635 6.7585
289 2 14.8195 5.97716 7.00507
290 2 16.1541 7.0291 6.57382
291 2 14.8162 7.65222 7.58157
292 4 19.4283 8.91425 9.37882
293 3 19.3202 7.17031 9.71205
294 1 17.609 9.69285 9.58667
295 2 17.8639 10.5774 10.2455
296 2 17.1804 9.61267 8.57407
297 2 17.0346 9.11475 10.2771
298 1 20.8834 9.72948 10.5096
299 2 20.3512 10.4561 11.2581
300 2 21.5871 9.03134 11.04
301 2 21.4036 10.559 9.96688
302 4 19.7799 5.62292 9.31236
303 3 18.3595 5.10646 8.46
304 1 21.0026 5.65478 7.92082
305 2 19.3288 5.5078 1.48286
306 2 19.1411 5.30019 2.04251
307 2 2.29484 9.76076 4.20144
308 1 19.9141 4.79571 11.1308
309 2 20.8331 5.25451 11.5883
310 2 19.1213 5.0881 11.8027
311 2 20.0993 3.72593 10.9695
312 4 18.0429 3.4656 8.14919
313 3 19.3761 2.67981 8.69161
314 1 16.334 2.78902 8.97979
315 2 16.3011 1.67821 9.13005
316 2 15.7864 3.3183 9.81415
317 2 15.8411 3.02791 8.12823
318 1 17.9079 4.19046 6.38465
319 2 18.7644 4.92069 6.26107
320 2 17.763 3.45206 5.56115
321 2 16.9816 4.81458 6.26443
322 4 21.1887 2.72646 8.24943
323 3 21.0403 2.02848 6.86839
324 1 0.0787884 4.49186 7.87503
325 2 0.830314 4.22678 6.98627
326 2 1.51394 9.34839 4.62217
327 2 21.3426 6.6938 7.20202
328 1 21.8599 1.81705 9.53078
329 2 21.6062 2.49956 10.446
330 2 21.2289 0.816203 9.64581
331 2 0.819972 2.00233 8.84772
332 4 21.1658 0.348699 6.51617
333 3 20.0101 18.9985 5.33644
334 1 2.17744 0.44575 5.1754
335 2 1.99277 18.213 4.98231
336 2 2.62301 0.99439 4.42913
337 2 2.65437 0.51027 6.17077
338 1 21.0013 17.5858 7.4893
339 2 20.5388 18.2047 8.22519
340 2 19.8435 17.1508 7.64454
341 2 21.7282 16.8802 7.38794
342 4 18.5609 0.75538 5.55124
343 1 17.8234 1.30896 4.08984
344 2 16.9076 1.42093 3.5471
345 2 18.0474 2.51455 4.04993
346 2 18.536 1.06055 3.26167
347 1 17.1899 18.352 6.41133
348 2 16.702 17.7023 5.58354
349 2 17.2262 17.6196 7.25196
350 2 16.1914 19.1331 7.06221
351 4 1.85886 13.5565 16.6082
352 3 0.834242 12.2859 15.7896
353 1 0.466624 14.7794 18.883
354 2 17.0007 13.1729 7.47775
355 2 0.30221 15.9353 19.0573
356 2 17.5559 18.042 11.5773
357 1 1.47711 14.4974 17.9366
358 2 17.8205 13.2477 7.09402
359 2 19.9927 16.2334 10.5779
360 2 2.3766 15.3128 17.6324
361 4 1.15257 10.818 15.3672
362 3 2.8302 10.4974 15.3166
363 1 0.688149 10.1776 13.5569
364 2 1.16705 10.6053 12.6101
365 2 21.7383 9.57857 13.06
366 2 21.7938 11.0102 13.4685
367 1 3.64278 13.5955 16.1972
368 2 4.30024 13.1618 17.0489
369 2 4.11689 12.9911 15.3972
370 2 4.0395 14.5645 16.2808
371 4 4.10208 9.35334 15.0273
372 3 3.33304 8.4488 13.71
373 1 4.58571 7.90924 16.0862
374 2 3.78213 7.34401 16.597
375 2 4.96729 7.10117 15.4096
376 2 5.45577 7.96915 16.7761
377 1 5.74773 10.2652 14.4717
378 2 6.68702 9.76095 14.9257
379 2 5.57044 10.0793 13.4043
380 2 6.02744 11.3607 14.7081
381 4 3.44615 7.33254 12.5107
382 3 3.78578 5.94713 13.2091
383 1 4.62902 7.7176 11.1581
384 2 5.45304 8.19173 11.745
385 2 4.99014 6.78609 10.6796
386 2 4.28322 8.55499 10.4908
387 1 1.66594 7.31797 11.799
388 2 0.893162 6.70213 12.2667
389 2 1.30582 8.3323 12.1563
390 2 1.67509 7.32625 10.7267
391 4 4.21764 4.41217 13.0149
392 3 5.44705 3.94452 12.0519
393 1 4.54313 4.25578 14.8854
394 2 4.22815 5.13969 15.3237
395 2 3.87488 3.44251 15.3767
396 2 5.55672 4.06095 15.0617
397 1 2.62825 3.5494 12.6085
398 2 2.61266 2.92091 11.8077
399 2 2.49026 2.81616 13.3665
400 2 1.7528 4.35181 12.6241
401 4 6.07929 3.24721 10.7187
402 1 4.7649 2.23239 9.78915
403 2 4.13777 2.87501 9.13252
404 2 5.3013 1.51989 9.0917
405 2 4.06101 1.68803 10.444
406 1 7.6221 2.35644 11.364
407 2 8.27765 2.07275 10.5256
408 2 7.45409 1.39483 11.8853
409 4 8.98326 16.6339 15.8403
410 3 9.1581 15.0065 15.5386
411 1 8.44613 17.0108 17.6943
412 2 7.54259 17.6281 17.7421
413 2 8.09353 15.9998 17.9489
414 2 9.36835 17.4693 18.1736
415 1 8.74178 17.3887 14.1211
416 2 9.84227 17.3505 13.7692
417 2 8.13399 16.7947 13.4691
418 2 8.41797 18.4696 14.131
419 4 7.77648 13.9133 15.4854
420 3 8.4106 12.5224 14.9226
421 1 6.76793 13.7079 17.1267
422 2 6.06087 14.5376 17.2927
423 2 6.28867 12.7377 16.981
424 2 7.35973 13.6062 18.0351
425 1 6.55601 14.3881 14.1219
426 2 5.78459 13.6228 14.0348
427 2 6.19847 15.423 14.2536
428 2 6.96823 14.4611 13.0966
429 4 9.27177 11.8383 13.6752
430 3 10.1976 10.5737 14.159
431 1 10.1916 13.3395 12.9782
432 2 10.6113 14.0882 13.7499
433 2 10.9809 12.9231 12.3369
434 2 9.49771 13.7767 12.2707
435 1 8.22814 11.0012 12.3814
436 2 8.68781 11.1796 11.4097
437 2 8.08985 9.93844 12.5007
438 2 7.21769 11.4233 12.4809
439 4 10.9732 9.30186 14.8403
440 3 10.3666 7.9489 14.169
441 1 11.1146 9.16701 16.6121
442 2 10.1993 9.25099 17.2198
443 2 11.2536 11.6433 16.4304
444 2 12.0987 9.30011 17.0594
445 1 12.6743 9.53415 13.8482
446 2 12.4128 9.18018 12.8398
447 2 12.8808 10.6232 13.7719
448 4 9.57271 6.54143 14.5165
449 3 9.25759 5.96609 12.9916
450 1 7.82238 6.94319 15.2414
451 2 7.011 6.77821 14.4858
452 2 7.57815 6.41131 16.1383
453 2 7.81494 8.07385 15.4045
454 1 10.746 5.73206 15.602
455 2 11.751 5.64161 15.1794
456 2 10.8185 6.57028 16.3266
457 2 10.3327 4.88316 16.1908
458 4 9.19356 4.95321 11.6845
459 1 8.44144 3.32183 12.2771
460 2 7.91434 3.51485 13.2257
461 2 9.32249 2.80866 12.6895
462 1 10.8195 4.58206 10.8698
463 2 11.5331 4.04342 11.4859
464 2 10.5964 3.9781 9.97938
465 2 11.2983 5.45782 10.455
466 4 20.0762 14.9883 11.8831
467 3 18.8849 14.8664 12.9371
468 1 19.6596 13.5855 10.5667
469 2 19.4089 12.6516 11.2852
470 2 18.8444 13.8863 9.7401
471 2 20.5004 12.9535 10.0699
472 1 15.8097 17.0462 10.6312
473 2 15.2035 17.4411 9.82456
474 2 16.0752 17.9959 11.1491
475 2 15.365 16.0984 11.2223
476 4 17.7966 14.7848 14.5328
477 3 16.8884 13.5003 14.2204
478 1 18.4729 14.6136 16.2152
479 2 18.7121 13.5095 16.2629
480 2 19.2958 15.1787 16.6441
481 2 17.6184 14.8467 16.9232
482 1 16.8807 16.5063 14.449
483 2 17.5779 17.3202 14.805
484 2 16.4835 16.7881 13.461
485 2 16.1666 16.4298 15.2659
486 4 15.3921 12.8258 14.4661
487 3 15.3888 11.1934 14.6
488 1 14.881 13.5704 16.1157
489 2 13.8247 13.3031 16.2663
490 2 15.4345 12.9994 16.9169
491 2 15.1802 14.6105 16.3077
492 1 14.2268 13.3261 13.0405
493 2 13.2863 12.7997 13.1155
494 2 14.0135 14.4195 13.1485
495 2 14.5175 13.2158 11.9868
496 4 15.6013 9.54122 14.1448
497 3 16.606 8.95142 15.3765
498 1 13.9374 8.74822 14.2095
499 2 13.9317 7.75198 13.6808
500 2 13.837 8.52073 15.2916
501 1 16.4688 9.48897 12.4217
502 2 15.9099 8.8482 11.7076
503 2 16.4931 10.5384 12.0448
504 2 17.5205 9.13534 12.464
505 4 17.7445 7.83 15.8032
506 3 17.031 6.60291 16.5793
507 1 18.6247 7.15251 14.2704
508 2 18.0639 6.42131 13.691
509 2 18.7892 8.00683 13.6077
510 2 19.7104 6.86355 14.3238
511 1 18.9227 8.9903 16.7186
512 2 18.455 9.96147 16.9044
513 2 19.425 8.58098 17.5659
514 2 19.7373 9.26114 15.9918
515 4 16.5126 5.03103 16.8186
516 1 14.5394 4.9206 16.9509
517 2 14.1039 5.90361 16.7038
518 2 13.9746 4.20198 16.3218
519 2 14.3224 4.72981 18.0304
520 1 17.4545 3.73894 15.712
521 2 18.0334 2.99324 16.3051
522 2 16.7193 3.21199 15.0767
523 2 18.2104 4.14713 15.0012
ITEM: TIMESTEP
6500
ITEM: NUMBER OF ATOMS
523
ITEM: BOX BOUNDS pp pp pp
3.0961472532945677e-02 2.1969038527467212e+01
2.6851988652442316e-02 1.9053111011347596e+01
2.8146793211766052e-02 1.9971853206788229e+01
ITEM: ATOMS id type x y z
1 4 0.437999 10.6019 2.07718
2 3 1.77925 9.49792 2.52254
3 1 1.27587 12.2661 2.09165
4 2 0.650747 12.6704 3.02648
5 2 20.8755 10.3714 2.66984
6 2 1.87111 12.6158 1.32042
7 1 20.4584 9.40741 7.03322
8 2 21.4235 9.95079 7.10092
9 2 19.6544 9.82621 6.46291
10 2 20.7224 8.30457 6.68793
11 4 1.32376 8.25413 1.41606
12 3 1.32163 6.65319 1.62612
13 1 2.3988 8.65381 18.7324
14 2 2.58822 9.89962 0.0933865
15 2 2.79999 9.29766 18.0112
16 2 2.51465 7.63283 18.8551
17 1 1.22103 8.56566 19.3726
18 2 21.1044 13.8151 12.3346
19 2 21.494 4.75438 0.985435
20 2 14.7414 0.562284 18.1236
21 4 2.96058 5.90996 2.07969
22 3 2.13274 4.9321 3.32338
23 1 4.52978 6.6706 3.05078
24 2 3.94931 7.17354 3.87404
25 2 5.03868 5.78996 3.49537
26 2 5.18331 7.36424 2.49334
27 1 3.50327 5.0551 0.498902
28 2 3.21699 4.09872 0.177656
29 2 3.7482 5.88612 19.853
30 2 4.30294 4.38546 0.842866
31 4 2.97988 3.68352 3.66729
32 3 3.58502 2.42756 1.86202
33 1 21.1631 3.27699 16.5127
34 2 21.9253 5.72539 11.3495
35 2 20.7511 2.32236 16.6623
36 2 20.9643 4.28011 16.8671
37 1 3.49781 3.4819 5.38547
38 2 21.4841 3.23332 15.4245
39 2 21.1262 14.0451 19.5014
40 2 2.986 3.6247 6.41604
41 4 4.67736 1.06619 1.51742
42 3 4.25233 0.0488523 2.837
43 1 6.35753 0.908986 0.452207
44 2 7.21873 1.52871 0.859882
45 2 6.56954 18.9417 19.8749
46 2 5.85764 1.75572 19.7995
47 1 4.92228 18.6786 17.7378
48 2 5.03178 18.0823 18.4244
49 2 4.33292 18.5429 16.7067
50 2 5.8597 18.9487 17.5096
51 4 4.82048 17.627 3.57072
52 1 6.23437 16.4842 3.04822
53 2 6.83624 16.3243 3.96873
54 2 5.85739 15.5962 2.6529
55 2 6.89739 16.7181 2.10182
56 1 16.2124 0.338121 14.2624
57 2 18.1898 0.66478 13.7547
58 2 3.58731 16.8995 3.89074
59 2 17.6068 18.665 14.4663
60 4 13.7767 1.23547 19.1573
61 3 12.6941 17.5978 19.9172
62 1 13.4222 2.1779 3.60651
63 2 13.4932 1.43438 2.77453
64 2 12.4729 2.60524 3.73132
65 2 13.8647 3.10702 3.28311
66 1 13.2923 18.5439 19.5695
67 2 12.7671 5.13436 6.4384
68 2 12.9129 4.65439 6.51799
69 2 13.8488 1.84275 4.45538
70 4 10.9428 16.9692 1.89394
71 3 10.9603 15.2112 1.60305
72 1 9.69092 18.1846 1.82706
73 2 1.20531 17.6995 15.4509
74 2 9.50008 0.0420234 2.42204
75 2 9.86479 18.9036 0.88923
76 1 12.3799 17.3046 3.22876
77 2 13.1976 17.8447 2.805
78 2 12.1524 18.0232 4.00232
79 2 12.4399 16.3051 3.6226
80 4 10.0843 13.8732 1.19942
81 3 11.0156 12.7612 2.04828
82 1 10.6879 13.896 19.4674
83 2 9.54337 13.7304 18.9376
84 2 10.7817 14.8816 19.2624
85 2 10.9102 13.4029 18.5365
86 1 8.31265 13.6091 1.64343
87 2 7.88023 12.73 1.37393
88 2 8.16619 14.1061 2.49524
89 2 7.86303 14.1197 1.15419
90 4 10.7582 11.1721 1.89898
91 3 9.27622 10.6652 1.9595
92 1 11.6902 10.2656 3.27451
93 2 12.6381 10.587 3.65577
94 2 11.0509 10.4189 4.14237
95 2 11.8947 9.21145 3.06411
96 1 11.8671 10.4075 0.60271
97 2 12.1732 12.2237 15.2814
98 2 11.9149 10.7585 19.4545
99 4 8.23983 9.64217 2.46254
100 3 7.67251 9.30107 0.84487
101 1 6.88411 10.1805 3.59534
102 2 6.80733 9.1447 4.09516
103 2 6.21419 10.7779 3.07661
104 2 7.24709 10.4818 4.61981
105 1 9.01853 8.25502 3.4419
106 2 9.28751 8.39588 4.58812
107 2 8.3138 7.34887 3.65807
108 2 9.99813 7.81697 3.0361
109 4 6.73001 8.02645 0.128568
110 1 6.34719 9.10157 18.3822
111 2 5.60895 8.7348 17.6631
112 2 6.05884 10.1422 18.5985
113 2 7.3455 9.07981 18.3572
114 1 2.32501 17.6041 15.3196
115 2 2.61675 16.7489 15.7127
116 2 2.52569 17.29 14.2751
117 2 2.69399 18.5311 15.8578
118 4 18.9208 15.32 19.9436
119 3 17.8901 14.2393 1.0865
120 1 20.1725 13.8225 19.5132
121 2 19.2338 13.7508 18.8696
122 2 20.0282 13.2381 0.904254
123 2 0.755812 14.1368 17.4324
124 1 17.927 16.5959 19.3376
125 2 18.2768 17.8854 19.6885
126 2 18.5128 16.3789 17.7571
127 2 16.8872 16.2993 18.9522
128 4 16.351 13.6067 0.702264
129 3 15.9321 12.3864 1.5244
130 1 20.3179 16.1738 0.969553
131 2 19.9868 16.8913 1.68837
132 2 21.2282 15.7078 1.51794
133 2 20.8749 16.7886 0.271256
134 1 10.4479 1.84 7.91107
135 2 11.5727 2.06168 7.30892
136 2 10.1662 2.74125 8.5391
137 2 9.53418 1.9706 6.92616
138 4 16.6651 10.8022 2.196
139 3 15.5143 9.36072 1.62897
140 1 18.2103 10.3025 1.35351
141 2 18.4705 9.38119 1.70127
142 2 18.9424 11.0463 0.951761
143 2 16.8375 16.8924 11.056
144 1 16.5603 10.86 4.13088
145 2 17.386 10.3707 4.55935
146 2 15.9829 11.7153 4.66226
147 2 15.7918 10.0327 4.31299
148 4 14.2364 8.58131 0.899843
149 3 14.3493 7.06676 1.01593
150 1 12.4882 9.05947 0.786576
151 2 12.5941 8.66138 19.7654
152 2 11.9333 8.18755 1.13757
153 1 15.0081 9.35289 19.0697
154 2 14.5419 9.18987 17.9934
155 2 14.8293 10.3888 18.9063
156 2 16.0592 9.20855 19.1116
157 4 15.0453 5.56222 0.743111
158 3 16.1094 5.77544 19.4073
159 1 13.3976 4.56806 0.640309
160 2 12.7692 4.628 19.6604
161 2 13.7402 3.49618 0.517908
162 2 12.8715 4.63821 1.59621
163 1 16.2202 5.27077 2.24049
164 2 16.4342 4.20074 2.21014
165 2 17.141 5.90959 2.02284
166 2 15.8021 5.62573 3.174
167 4 16.9676 5.04869 18.2028
168 1 16.8128 3.04589 18.0424
169 2 16.4048 2.60192 17.2503
170 2 17.7302 2.56705 18.2696
171 2 16.0975 2.77174 18.9568
172 1 18.767 5.4059 18.3038
173 2 18.9536 6.27098 17.5388
174 2 19.2116 5.6351 19.2479
175 2 19.2467 4.53546 17.7996
176 4 1.21445 14.5987 10.2104
177 3 2.41219 14.9148 9.1352
178 1 1.7918 13.0911 11.223
179 2 2.80636 12.7821 10.832
180 2 2.08054 13.6383 12.1543
181 2 1.12374 12.2383 11.3999
182 1 0.608345 16.1576 11.1539
183 2 0.526052 15.6895 12.1956
184 2 1.42109 16.9083 11.1425
185 2 21.5872 16.6087 11.0305
186 4 3.14041 14.81 7.63437
187 3 4.17283 13.6174 7.65216
188 1 4.2318 16.2359 7.03633
189 2 3.50938 17.0263 6.85617
190 2 4.96425 16.5132 7.82119
191 2 4.75019 15.9262 6.108
192 1 2.05641 14.5801 6.1667
193 2 2.00487 13.4909 5.95872
194 2 1.1062 15.0592 6.28313
195 2 2.50718 15.1586 5.34986
196 4 5.38922 12.8504 8.41242
197 3 4.84272 11.2598 8.33334
198 1 5.55549 13.5177 10.1875
199 2 4.79349 14.257 10.4492
200 2 5.5211 12.7157 10.9278
201 2 6.5099 14.0719 10.3431
202 1 6.86141 12.6984 7.27229
203 2 7.38939 13.6799 7.202
204 2 7.56892 12.0361 7.73696
205 2 6.54306 12.2926 6.31671
206 4 4.02784 10.1365 7.4273
207 3 4.46824 8.60321 8.03703
208 1 2.19048 10.2591 7.52919
209 2 1.96918 10.0849 8.60448
210 2 1.80757 11.2502 7.31123
211 2 1.81403 9.46669 6.85386
212 1 4.33749 10.281 5.51128
213 2 5.0185 11.0224 5.07644
214 2 4.64052 9.32059 5.01968
215 2 3.32228 10.442 5.06564
216 4 5.42838 7.26199 7.73085
217 3 6.12113 6.5532 9.06022
218 1 4.45117 6.02436 6.79574
219 2 4.9902 5.4983 5.99134
220 2 3.95722 5.26547 7.45198
221 2 3.70984 6.62783 6.20336
222 1 6.95609 7.96949 6.90252
223 2 6.69461 8.32969 5.94826
224 2 7.18143 8.76073 7.63498
225 2 7.84671 7.42866 6.7229
226 4 7.09925 5.28521 9.55092
227 1 7.96437 4.56786 7.9407
228 2 7.4205 3.66193 7.68122
229 2 7.85988 5.29544 7.09854
230 2 9.00235 4.31534 8.15143
231 1 8.29912 5.76262 10.8889
232 2 9.07794 6.44735 10.4685
233 2 7.70517 6.41229 11.5524
234 4 11.073 0.323398 8.9045
235 3 10.1449 18.0864 8.31351
236 1 12.9215 0.367989 8.75523
237 2 13.3796 1.22564 9.22432
238 2 13.3843 18.3154 8.72489
239 2 13.016 0.540823 7.70679
240 1 10.9567 0.337968 10.6913
241 2 11.4217 0.723442 11.4864
242 2 9.68987 0.986936 10.8563
243 2 10.3045 18.4909 11.2549
244 4 9.2933 16.7697 7.79
245 3 10.4613 15.7823 7.13102
246 1 8.23994 15.8362 9.11306
247 2 8.41739 16.3277 10.0669
248 2 7.16782 16.0223 8.91887
249 2 8.54716 14.7996 9.13058
250 1 7.99211 17.1523 6.47842
251 2 7.11059 17.7942 6.76444
252 2 8.55107 17.6512 5.61498
253 2 7.64594 16.1655 6.09464
254 4 11.7151 14.7175 6.92571
255 3 11.4636 13.2977 7.76629
256 1 13.2705 15.5913 7.6546
257 2 13.6601 14.8678 8.39523
258 2 13.9926 15.7752 6.81454
259 2 13.1159 16.5415 8.18056
260 1 12.012 14.1192 5.19876
261 2 12.0234 14.8894 4.45664
262 2 12.964 13.5905 5.05763
263 2 11.3449 13.2702 4.8919
264 4 11.721 12.0293 8.93315
265 3 12.3752 10.6952 8.28762
266 1 9.90089 11.6514 9.24482
267 2 9.43983 11.4903 8.22954
268 2 9.8997 10.6695 9.7516
269 2 9.25071 12.3748 9.76719
270 1 12.7689 12.4235 10.3421
271 2 12.8175 13.4816 10.6221
272 2 12.4839 11.8283 11.2193
273 2 13.81 12.293 10.0478
274 4 12.3875 9.07653 8.13183
275 3 13.5576 8.58676 6.99048
276 1 10.7962 8.18452 7.63085
277 2 9.94361 8.76146 8.04575
278 2 10.7115 8.22699 6.53564
279 2 10.9368 7.19213 8.05441
280 1 12.9375 8.39746 9.75677
281 2 13.3062 7.38241 9.57564
282 2 13.7951 8.89769 10.2012
283 2 12.1714 8.41272 10.5205
284 4 14.0708 7.79455 5.69415
285 1 13.2533 7.02075 4.37849
286 2 13.8038 6.39438 3.69499
287 2 12.1741 6.81704 4.45536
288 1 15.9042 7.50101 5.57763
289 2 16.3179 6.9055 6.43942
290 2 15.9897 6.88761 4.67327
291 2 16.475 8.42078 5.44175
292 4 19.8811 8.84716 8.81797
293 3 20.4128 7.16031 8.95315
294 1 17.8318 8.82057 9.11778
295 2 17.7345 8.15351 9.97104
296 2 17.8421 9.71403 9.82133
297 2 16.8674 8.69867 8.41919
298 1 20.9834 9.67109 10.2122
299 2 20.906 9.15111 11.1773
300 2 0.324269 9.28375 10.0994
301 2 21.0493 10.8021 10.2902
302 4 20.5701 5.58865 9.51462
303 3 19.1676 5.01906 10.0774
304 1 0.17994 4.7776 9.17715
305 2 19.7936 6.1218 5.1628
306 2 20.486 7.07523 4.77428
307 2 6.09981 13.8705 4.41943
308 1 21.5493 5.73764 12.3834
309 2 0.191407 6.33514 13.0805
310 2 21.5366 4.9575 13.1801
311 2 20.6891 6.32259 12.6617
312 4 18.354 3.90759 9.09564
313 3 19.3096 2.70524 8.72544
314 1 16.9846 3.41956 10.0312
315 2 16.5278 2.48057 9.80252
316 2 17.1391 3.56676 11.0621
317 2 16.3358 4.24047 9.75486
318 1 17.8797 4.76562 7.51358
319 2 18.2731 5.82496 7.77032
320 2 18.4035 4.34683 6.63481
321 2 16.8849 4.90126 7.16194
322 4 20.7711 2.01697 8.49414
323 3 20.7417 1.06128 7.22432
324 1 21.7778 3.68021 8.23332
325 2 0.297705 3.48027 7.28177
326 2 6.15429 14.039 3.40588
327 2 1.56407 5.0848 9.4172
328 1 21.2488 1.0648 10.1194
329 2 0.328586 1.41011 10.507
330 2 20.364 1.48204 10.5302
331 2 20.8698 0.0594171 9.37032
332 4 19.6958 18.9765 6.748
333 3 18.7263 0.421512 5.43779
334 1 3.95932 2.20745 5.9544
335 2 3.26181 1.7832 6.92233
336 2 3.83011 1.45313 5.11484
337 2 5.26844 2.27752 5.85672
338 1 19.4649 17.6459 7.84896
339 2 19.4149 16.8473 7.18593
340 2 20.462 17.6493 8.54455
341 2 18.7005 17.6762 8.58967
342 4 17.6889 0.228507 3.94253
343 1 18.8886 1.03046 2.54111
344 2 19.9704 0.75127 2.64552
345 2 18.5986 0.270903 1.93012
346 2 18.5504 2.1152 2.43471
347 1 16.5652 17.8661 3.52846
348 2 17.2923 17.2499 2.69247
349 2 16.6269 16.8243 4.00686
350 2 15.5004 18.0924 3.02488
351 4 2.96738 14.3444 16.9767
352 3 2.83823 12.6195 16.2871
353 1 0.602837 15.5514 16.6807
354 2 18.7076 11.7039 5.9988
355 2 0.984606 16.5197 17.1423
356 2 16.213 1.26868 13.4055
357 1 21.6601 15.1867 15.78
358 2 19.1793 12.518 6.01655
359 2 18.9793 15.2869 10.9881
360 2 21.7343 15.673 14.7968
361 4 1.64307 11.6122 15.737
362 3 1.52526 9.83921 16.1444
363 1 1.47587 11.616 14.0425
364 2 1.6159 12.4255 13.5261
365 2 0.661329 11.1666 13.3532
366 2 2.53809 11.4788 14.1769
367 1 3.60422 14.3581 18.7912
368 2 4.24041 13.5466 19.1478
369 2 4.10947 15.3224 18.5306
370 2 3.16458 14.7029 19.7471
371 4 2.69337 8.93397 15.3752
372 3 2.78224 8.63444 13.6585
373 1 2.70115 7.07806 16.1263
374 2 2.09952 6.9334 17.0597
375 2 2.43866 6.26644 15.4472
376 2 3.75252 6.96733 16.3232
377 1 4.41357 10.0844 15.3363
378 2 4.85167 10.8271 16.0087
379 2 5.16036 9.23428 15.5397
380 2 4.17691 10.5076 14.3323
381 4 3.69699 7.56794 12.66
382 3 4.07893 6.02188 13.2399
383 1 5.25576 8.35595 12.0657
384 2 5.09836 9.09734 11.3173
385 2 5.99913 8.60898 12.8248
386 2 5.84588 7.57762 11.5055
387 1 2.7875 7.37717 11.0462
388 2 2.92795 8.21729 10.3762
389 2 3.06981 6.41341 10.5221
390 2 1.70137 7.24839 11.1747
391 4 4.18653 4.46428 13.0001
392 3 5.33254 4.04872 11.8965
393 1 4.8391 3.46654 14.503
394 2 4.92536 2.42751 14.4114
395 2 5.92346 3.75197 14.5947
396 2 4.36166 3.73499 15.4593
397 1 2.43578 3.85632 12.565
398 2 1.77005 4.45258 12.0092
399 2 2.66507 2.99725 11.8334
400 2 1.84141 3.59784 13.5303
401 4 6.14915 3.46455 10.5358
402 1 5.27724 1.99142 9.73344
403 2 4.80022 2.1633 8.76471
404 2 5.96677 1.20296 9.36213
405 2 4.60479 1.54548 10.4758
406 1 7.63118 2.46312 11.1819
407 2 8.40827 2.2757 10.4163
408 2 7.42144 1.4159 11.4603
409 4 9.879 15.6709 15.0506
410 3 8.32373 15.1667 15.3101
411 1 10.4903 16.5332 16.607
412 2 11.3296 17.1818 16.2935
413 2 9.78058 17.2884 16.9845
414 2 10.7135 15.7316 17.3637
415 1 9.8443 17.0294 13.7869
416 2 9.84441 16.6076 12.7674
417 2 8.88891 17.5526 13.9928
418 2 10.6812 17.772 13.8586
419 4 7.42796 13.774 15.4032
420 3 8.36545 12.6942 14.6372
421 1 7.56564 13.3469 17.2358
422 2 6.88713 14.0195 17.8056
423 2 7.37568 12.3013 17.5444
424 2 8.58423 13.5468 17.5949
425 1 5.57997 13.9239 14.76
426 2 5.05466 14.8809 14.9175
427 2 5.39708 13.3916 13.8159
428 2 5.09929 13.2845 15.5372
429 4 8.99013 11.8113 13.4722
430 3 9.92256 10.6106 14.0341
431 1 10.0691 13.0181 12.4859
432 2 9.85452 12.9489 11.3991
433 2 9.70366 14.0296 12.7123
434 2 11.1528 13.0724 12.595
435 1 7.72026 10.8086 12.509
436 2 8.0407 9.76526 12.4057
437 2 6.72322 10.8282 12.9985
438 2 7.59306 11.1997 11.4824
439 4 10.7912 9.33395 14.569
440 3 9.81169 8.0868 13.9258
441 1 11.0522 9.00024 16.3764
442 2 11.611 9.8176 16.8525
443 2 11.7487 12.214 14.5829
444 2 10.3253 8.51126 17.0117
445 1 12.4678 9.38151 13.6192
446 2 12.2977 8.89077 12.6309
447 2 12.5974 10.4515 13.3775
448 4 9.50152 6.5459 14.4788
449 3 9.79274 5.61302 13.153
450 1 7.58703 6.74685 14.8237
451 2 7.05 7.35939 14.0495
452 2 7.06932 5.79051 14.8265
453 2 7.48658 7.29134 15.812
454 1 10.4754 5.77673 15.8236
455 2 11.5365 5.78433 15.562
456 2 10.4398 6.42735 16.7014
457 2 10.0669 4.76813 16.0668
458 4 9.42907 4.65005 11.8663
459 1 8.33984 3.16984 12.3452
460 2 7.65578 3.56828 13.1093
461 2 8.9548 2.42376 12.8531
462 1 10.9449 4.34123 10.8188
463 2 11.6385 3.63242 11.2914
464 2 10.7901 3.94711 9.79336
465 2 11.4543 5.3 10.6568
466 4 19.7586 13.9851 11.506
467 3 19.3694 14.1987 13.1927
468 1 19.0073 11.9775 11.2719
469 2 19.2378 11.5532 12.2591
470 2 17.9867 12.0363 11.1304
471 2 19.3383 11.2993 10.4647
472 1 15.9411 16.3364 10.7281
473 2 15.1228 16.0319 11.3885
474 2 16.146 15.3092 10.2619
475 2 15.2639 17.05 10.2914
476 4 18.8105 13.7457 14.58
477 3 17.1428 13.2696 14.662
478 1 19.774 12.2511 15.1521
479 2 19.5634 11.4328 14.436
480 2 20.7535 12.7773 15.1582
481 2 19.668 11.9865 16.188
482 1 18.7869 15.4349 15.3982
483 2 19.7379 15.9793 15.476
484 2 18.2355 16.0339 14.6599
485 2 18.2561 15.4954 16.3302
486 4 15.7601 12.8122 15.4517
487 3 15.0652 11.6178 14.565
488 1 16.1485 11.8322 16.9481
489 2 17.2074 11.528 17.1033
490 2 15.7266 12.3118 17.8978
491 2 15.5889 10.8679 16.938
492 1 14.6636 14.365 15.5461
493 2 13.9288 14.0434 16.2663
494 2 15.1975 15.3167 15.8149
495 2 14.1805 14.5876 14.5812
496 4 15.3484 10.1075 13.9664
497 3 16.8048 9.61929 14.5579
498 1 13.7999 8.87775 14.3109
499 2 14.0663 7.93733 13.8373
500 2 13.6768 8.65693 15.3646
501 1 15.3727 10.0925 12.1264
502 2 14.4949 9.58099 11.7697
503 2 15.64 11.0973 11.6729
504 2 16.1819 9.35454 11.86
505 4 17.6699 8.27005 15.131
506 3 16.6742 7.08304 15.5367
507 1 18.997 7.7376 13.9166
508 2 18.4501 7.60967 12.9632
509 2 19.7884 8.5171 13.8089
510 2 19.431 6.84092 14.4185
511 1 18.6411 8.82969 16.6599
512 2 18.2329 9.67029 17.193
513 2 18.8127 8.0136 17.3903
514 2 19.6687 8.97754 16.2694
515 4 16.0279 5.60116 15.991
516 1 14.1494 5.53632 16.0082
517 2 13.7232 6.50819 15.7656
518 2 13.7527 4.73787 15.4004
519 2 13.8098 5.37697 17.0434
520 1 16.6525 4.39156 14.7164
521 2 17.5113 4.70089 14.121
522 2 17.0033 3.43741 15.0837
523 2 15.8399 4.25428 13.9903
ITEM: TIMESTEP
7000
ITEM: NUMBER OF ATOMS
523
ITEM: BOX BOUNDS pp pp pp
3.5400772462429231e-02 2.1964599227537732e+01
3.0702064943364249e-02 1.9049260935056658e+01
3.2182520420390048e-02 1.9967817479579587e+01
ITEM: ATOMS id type x y z
1 4 1.58885 11.0127 3.1769
2 3 1.26798 9.53518 3.51892
3 1 0.159076 11.928 3.13492
4 2 21.7942 11.0312 2.42553
5 2 2.76974 11.4911 3.86103
6 2 0.122 12.7028 2.47215
7 1 20.1885 8.352 6.83558
8 2 19.2638 8.50918 6.38828
9 2 20.9384 7.85856 6.25102
10 2 20.6424 9.25672 7.07527
11 4 3.14706 8.65359 2.66622
12 3 3.27785 6.97521 2.85748
13 1 3.61235 10.7575 1.62904
14 2 2.83564 8.65186 4.35439
15 2 4.06651 11.6674 2.12045
16 2 3.23878 10.9814 0.831118
17 1 4.27082 9.40544 1.90596
18 2 17.4463 11.4958 10.8205
19 2 17.9256 2.89807 17.8906
20 2 12.4943 0.922109 18.6249
21 4 3.69471 5.36028 2.28679
22 3 2.11787 4.14322 2.6352
23 1 5.13886 4.89429 3.22261
24 2 5.99647 4.84104 2.48611
25 2 5.39504 5.52485 4.07251
26 2 5.18892 3.79157 3.52452
27 1 3.87033 5.01589 0.430589
28 2 4.70906 4.24173 0.499977
29 2 3.04493 4.84329 19.7071
30 2 4.44706 5.97316 0.0621532
31 4 2.82822 3.39518 4.17108
32 3 4.278 2.32262 2.70671
33 1 20.35 2.0568 17.7579
34 2 21.9327 6.43369 13.5924
35 2 20.9182 1.25108 18.3425
36 2 20.3247 3.25892 17.912
37 1 2.47557 1.75202 5.14379
38 2 20.2231 1.87359 16.7367
39 2 18.5625 10.5055 3.09736
40 2 1.3663 1.15686 5.30771
41 4 4.47231 0.966197 1.91862
42 3 4.97891 18.6786 2.89758
43 1 4.69128 0.435609 0.197294
44 2 5.49938 19.0482 19.5295
45 2 4.15954 1.19543 19.4243
46 2 4.1056 18.427 0.499852
47 1 6.25901 18.2125 16.7153
48 2 5.52173 17.4619 17.1559
49 2 6.89837 18.4141 16.1301
50 2 6.14561 18.8145 17.653
51 4 5.11434 17.0438 2.86058
52 1 5.97291 15.9026 4.0405
53 2 5.69265 14.9699 3.6123
54 2 7.13359 16.0466 4.27245
55 2 5.42062 15.5358 5.04111
56 1 14.7498 18.6114 15.0024
57 2 21.6755 0.936953 12.9208
58 2 5.86475 16.9963 1.71088
59 2 14.5774 0.28193 16.1655
60 4 13.6843 19.0079 18.8981
61 3 12.1878 17.4304 19.1669
62 1 13.7229 1.99123 2.31266
63 2 13.584 1.12225 3.08825
64 2 13.6161 3.0468 2.67573
65 2 13.2902 1.83145 1.37891
66 1 12.851 17.9498 0.157701
67 2 17.7106 18.4754 16.4738
68 2 17.5095 18.8471 16.0876
69 2 14.7282 1.73102 2.06644
70 4 10.973 16.5555 2.28638
71 3 11.2604 14.9272 2.24865
72 1 9.89154 17.848 1.72812
73 2 3.31026 0.0213302 13.6435
74 2 8.49175 13.6562 0.594397
75 2 8.70334 17.7157 2.00793
76 1 12.3951 17.2333 3.40208
77 2 11.9408 18.173 3.80537
78 2 12.5576 16.4612 4.12833
79 2 13.329 17.4194 2.97198
80 4 10.5207 13.9973 0.756221
81 3 10.4327 12.569 1.50713
82 1 11.971 14.5295 19.3253
83 2 12.6079 15.4272 19.7209
84 2 12.5164 13.6045 19.7208
85 2 11.6992 14.6047 18.1021
86 1 8.56806 14.69 0.116498
87 2 9.54622 14.8092 19.4146
88 2 7.74553 14.9171 19.3857
89 2 10.4261 17.7057 0.541593
90 4 10.5432 10.9371 1.81035
91 3 9.0112 10.5359 1.97588
92 1 11.6371 10.3987 3.30405
93 2 11.4005 9.31828 3.48474
94 2 12.5919 10.5735 2.81528
95 2 11.3712 11.0487 4.16046
96 1 11.345 10.2847 0.458598
97 2 11.9942 12.8466 16.569
98 2 10.796 10.0235 19.4501
99 4 7.52142 10.3838 2.8111
100 3 6.47366 10.6827 1.60675
101 1 7.7121 11.0748 4.42333
102 2 6.9298 10.5922 5.04277
103 2 7.41345 12.1364 4.65578
104 2 8.7372 11.0712 4.89061
105 1 7.18443 8.51943 2.89299
106 2 7.80324 8.33098 3.85085
107 2 6.06953 8.52534 3.14341
108 2 7.31278 7.54836 2.25701
109 4 5.83942 9.28794 0.941578
110 1 6.1787 8.57082 19.3136
111 2 5.56698 7.48664 19.1205
112 2 5.88352 8.88117 18.2721
113 2 7.37841 8.51604 19.4278
114 1 2.47376 18.6552 13.1171
115 2 1.85425 18.5489 13.9768
116 2 1.86436 0.0580876 12.4782
117 2 2.99186 17.6214 12.6651
118 4 19.2728 15.1542 0.401495
119 3 17.511 15.1001 0.527425
120 1 19.3643 13.3389 19.6001
121 2 20.458 13.1947 0.277248
122 2 19.4517 13.3853 18.3573
123 2 21.8004 16.0949 16.8448
124 1 19.3266 16.3891 19.1208
125 2 18.4819 16.4143 18.4012
126 2 18.6781 17.4169 0.0828082
127 2 20.2477 16.754 18.4579
128 4 17.9482 13.49 1.04226
129 3 16.6189 12.391 0.560706
130 1 20.7674 15.1757 1.4362
131 2 20.8428 16.2402 1.75236
132 2 20.6694 14.596 2.35776
133 2 21.4911 14.8871 0.654403
134 1 8.67275 0.954614 8.36855
135 2 9.00454 1.83826 7.79962
136 2 8.09757 1.3612 9.19287
137 2 8.484 0.595129 7.23486
138 4 16.4877 11.1218 1.7632
139 3 15.4072 10.0245 0.912209
140 1 17.7133 9.86466 2.32284
141 2 18.4377 9.98106 1.61634
142 2 17.0117 9.19824 3.07539
143 2 17.115 16.7152 12.433
144 1 15.4437 11.7681 3.20164
145 2 14.9711 11.0759 3.88013
146 2 15.4984 12.7466 3.61229
147 2 14.6025 11.8004 2.54031
148 4 14.2668 8.97568 0.206621
149 3 14.8472 7.49903 0.770384
150 1 12.5114 9.15006 0.420316
151 2 12.0391 8.93686 19.3279
152 2 12.3749 8.57092 1.28314
153 1 14.2696 9.43702 18.4298
154 2 13.8528 8.75278 17.8776
155 2 14.4283 10.4689 17.7444
156 2 15.3382 9.22555 18.6671
157 4 14.9601 5.87368 0.451996
158 3 15.977 5.81234 19.085
159 1 13.339 5.0699 0.292432
160 2 12.9427 5.03763 19.215
161 2 13.2994 4.03556 0.400491
162 2 12.6869 5.64255 0.866999
163 1 15.8629 5.08123 1.86264
164 2 16.0208 3.98307 1.69354
165 2 16.9518 5.42045 1.90848
166 2 15.3526 5.00181 2.84829
167 4 17.1024 5.21635 18.0346
168 1 16.6808 3.31708 18.1786
169 2 21.8728 0.609476 13.6151
170 2 15.7861 2.93807 18.7566
171 2 16.1708 3.44235 17.3009
172 1 18.8136 5.90606 18.4871
173 2 19.6671 4.95958 18.966
174 2 18.9986 6.15436 17.4606
175 2 19.0756 6.73735 19.0853
176 4 0.82303 15.1815 9.40174
177 3 2.25119 15.6416 8.66028
178 1 0.793978 13.3371 9.19442
179 2 1.75604 13.0003 8.77067
180 2 0.666373 12.8521 10.1775
181 2 21.8316 13.407 8.53973
182 1 0.310757 16.0654 11.0432
183 2 1.11864 16.0862 11.7973
184 2 0.19034 17.2363 10.8638
185 2 21.3622 15.6905 11.6599
186 4 3.24349 15.248 7.25358
187 3 3.77284 13.6487 7.34239
188 1 4.47436 16.438 7.87552
189 2 3.99156 17.4253 7.92329
190 2 4.66994 16.2891 8.96108
191 2 5.47694 16.5853 7.44604
192 1 2.4804 15.5085 5.58174
193 2 1.37049 15.5828 5.67279
194 2 2.71862 16.4981 5.14922
195 2 2.89075 14.6568 4.96986
196 4 5.15001 13.0219 7.97894
197 3 4.97594 11.3973 8.32674
198 1 5.57696 13.8354 9.68718
199 2 5.66008 13.0746 10.4645
200 2 6.57028 14.2715 9.57641
201 2 4.84617 14.5939 9.99762
202 1 6.66511 13.0636 6.93976
203 2 7.44527 13.465 7.65966
204 2 6.99263 12.0836 6.58278
205 2 6.69796 13.5854 5.96041
206 4 4.1656 10.1742 7.49377
207 3 4.84926 8.76022 7.95343
208 1 2.46594 10.1458 8.2536
209 2 2.47956 9.57986 9.2203
210 2 1.92314 11.075 8.47885
211 2 1.77191 9.68917 7.5464
212 1 4.12643 10.3137 5.66562
213 2 5.00577 10.0958 5.02155
214 2 3.17121 9.5905 5.49089
215 2 3.74113 11.4001 5.67983
216 4 5.63481 7.35259 7.80224
217 3 6.63442 6.85309 9.03461
218 1 4.20779 6.07375 7.79635
219 2 4.26501 5.25341 7.08606
220 2 3.9727 5.7448 8.81653
221 2 3.31763 6.62096 7.36926
222 1 6.48715 7.07064 6.18531
223 2 5.81395 6.63839 5.45363
224 2 7.13284 7.82029 5.79941
225 2 7.1121 6.25584 6.41881
226 4 7.6019 5.75017 9.82963
227 1 8.6548 4.75465 8.5191
228 2 7.93817 3.98374 8.20109
229 2 8.99398 5.33133 7.63436
230 2 9.44218 4.23797 9.0662
231 1 8.79068 6.49627 11.0285
232 2 9.6431 6.98782 10.5451
233 2 8.29057 7.29429 11.6143
234 4 10.502 0.0803562 8.77761
235 3 10.5917 17.7253 8.06548
236 1 11.7422 1.2971 8.20018
237 2 12.2024 0.972633 7.28288
238 2 11.2019 2.24442 7.83406
239 2 12.2693 1.55253 9.08842
240 1 10.6646 0.178497 10.6646
241 2 10.2895 18.4667 11.1149
242 2 12.0888 0.489285 10.8926
243 2 10.7465 1.20168 10.8911
244 4 10.0561 16.2047 7.84695
245 3 11.1897 15.0115 7.90784
246 1 8.85823 15.5917 9.11374
247 2 8.03279 16.2503 9.47186
248 2 8.46309 14.6021 8.76204
249 2 9.3883 15.2547 10.0264
250 1 9.35613 16.342 6.07798
251 2 8.57118 17.0837 5.92663
252 2 10.1492 16.5707 5.34389
253 2 8.89109 15.4072 5.83078
254 4 11.9573 14.1413 6.70614
255 3 12.5233 12.6228 7.2007
256 1 13.5735 14.9932 6.18206
257 2 14.256 14.9592 7.04161
258 2 13.8798 14.3731 5.32148
259 2 13.4828 16.0638 5.94674
260 1 10.7407 13.6586 5.34895
261 2 10.667 14.2022 4.41648
262 2 11.0406 12.6229 5.12656
263 2 9.69485 13.5495 5.76518
264 4 12.0525 11.7439 8.5401
265 3 12.6175 10.2631 8.25084
266 1 10.2375 11.5379 8.65557
267 2 9.94299 10.4803 8.65094
268 2 9.84142 12.0006 9.5395
269 2 9.72132 12.0647 7.86578
270 1 12.9601 12.7486 9.89862
271 2 12.8868 13.776 9.56137
272 2 12.5584 12.7417 10.9321
273 2 14.0346 12.5186 9.82674
274 4 12.8619 8.62586 8.41207
275 3 13.8027 8.03033 7.19213
276 1 11.2259 7.77807 8.25831
277 2 10.3995 8.20061 8.8082
278 2 10.8192 7.83541 7.23589
279 2 11.1815 6.73537 8.59944
280 1 13.7916 8.24988 9.93346
281 2 14.0524 7.17546 10.0322
282 2 14.6903 8.86734 9.91605
283 2 13.0923 8.51378 10.7393
284 4 14.32 7.966 5.6034
285 1 13.0631 7.16273 4.69283
286 2 13.039 6.48669 3.85562
287 2 12.0857 7.6792 4.88555
288 1 16.1305 7.81005 5.40364
289 2 16.3938 7.82242 4.31708
290 2 16.6297 8.70115 5.86837
291 2 16.6143 6.967 5.94059
292 4 19.8463 7.81103 8.67069
293 3 20.292 6.29525 8.35377
294 1 18.1845 8.28124 9.10116
295 2 17.8946 8.08208 10.2499
296 2 17.9671 9.3876 9.02512
297 2 17.2908 7.79776 8.73435
298 1 21.0427 8.92629 9.68674
299 2 20.7092 10.1506 9.62206
300 2 20.4803 8.31485 10.7258
301 2 0.0955264 8.66025 9.50153
302 4 20.5793 4.67038 8.11497
303 3 18.8851 4.28174 7.95573
304 1 21.7437 3.33117 8.30791
305 2 17.5018 1.98131 3.57295
306 2 20.2024 0.284678 3.36545
307 2 3.61553 14.1383 1.45165
308 1 21.3854 5.76758 14.1643
309 2 20.5535 6.28824 14.8633
310 2 0.265593 5.09408 14.6848
311 2 20.7457 4.91186 13.7994
312 4 17.9775 3.95295 9.30451
313 3 18.6217 2.44952 9.74274
314 1 18.4898 4.71713 10.8025
315 2 18.0113 3.90664 11.3754
316 2 19.5055 4.78017 11.1373
317 2 17.979 5.75041 11.0343
318 1 16.1117 3.88225 9.28549
319 2 15.6437 3.02994 9.79504
320 2 15.9118 4.75193 9.94364
321 2 15.6137 3.87737 8.32258
322 4 19.7071 1.32561 9.13689
323 3 19.0421 0.652419 7.64078
324 1 21.3111 2.06794 8.34177
325 2 0.0439092 1.14898 8.37616
326 2 4.46329 14.0654 1.89173
327 2 0.59982 3.86853 8.08208
328 1 20.1883 18.7036 9.96906
329 2 20.7147 17.8935 9.47348
330 2 20.8634 0.814187 10.0857
331 2 19.2995 18.3198 10.7197
332 4 17.7547 0.164338 6.71946
333 3 18.4495 0.618674 4.99432
334 1 3.02266 1.43056 6.75894
335 2 4.11028 0.903395 7.1028
336 2 3.36176 2.53241 7.17325
337 2 2.28807 0.996291 7.37955
338 1 17.4 17.4492 7.41373
339 2 16.36 16.5677 7.3973
340 2 18.4509 16.8132 6.89876
341 2 17.4767 17.2159 8.35528
342 4 18.4805 0.549486 3.33606
343 1 19.9035 0.918051 2.27674
344 2 20.7907 1.40472 2.25097
345 2 20.4557 0.112024 1.72254
346 2 18.8677 1.41524 1.8852
347 1 17.0833 18.2999 2.69671
348 2 17.9545 17.824 2.82884
349 2 16.6267 17.1507 3.09185
350 2 17.0108 18.4091 1.43605
351 4 2.09618 13.3006 18.2438
352 3 1.92873 12.7408 16.5957
353 1 0.599723 15.333 17.3306
354 2 18.3261 12.2796 7.97728
355 2 21.5957 14.7634 16.6369
356 2 15.6801 18.217 14.0608
357 1 1.5518 15.1076 18.0334
358 2 18.2321 11.3166 8.09689
359 2 19.707 12.7111 9.99341
360 2 1.66865 15.8041 19.0233
361 4 1.58808 12.1188 15.1131
362 3 1.51118 10.4729 14.9542
363 1 2.43166 13.0576 13.2051
364 2 1.58844 13.387 12.6989
365 2 2.61733 11.9837 12.8543
366 2 3.25392 13.7495 12.4772
367 1 4.09645 12.7999 18.7161
368 2 4.57772 11.8754 19.0952
369 2 4.35686 12.5222 17.6398
370 2 4.74603 13.7963 19.008
371 4 2.64547 9.10738 14.7685
372 3 2.78397 8.72587 13.1695
373 1 1.52042 7.59143 15.2687
374 2 0.451296 7.85008 14.899
375 2 1.94847 6.67134 14.7737
376 2 1.61209 7.12664 16.2896
377 1 4.33806 9.78166 15.5067
378 2 4.26375 10.9201 15.4112
379 2 4.31661 9.62038 16.6002
380 2 5.18116 9.2121 15.0475
381 4 3.3444 7.38672 12.2318
382 3 3.21687 5.89483 13.0431
383 1 5.14219 7.91815 11.8945
384 2 5.57246 8.58231 12.6803
385 2 5.704 7.01823 11.6177
386 2 5.12492 8.48084 10.9209
387 1 1.94158 7.17104 11.0565
388 2 2.25341 6.94521 10.0098
389 2 1.37214 6.35398 11.4466
390 2 1.3406 8.09735 11.0103
391 4 4.20785 4.51735 13.3001
392 3 5.43978 4.32693 12.2282
393 1 5.01963 4.29051 14.9783
394 2 5.97751 4.86638 15.1747
395 2 4.39153 4.51094 15.7889
396 2 5.40206 3.23589 14.904
397 1 3.06194 3.11894 12.7219
398 2 2.34651 3.54501 12.0123
399 2 3.83253 2.47027 12.1332
400 2 2.40263 2.51021 13.3749
401 4 6.34459 3.97962 10.8858
402 1 5.4559 2.67513 9.68282
403 2 4.51249 2.98267 9.27653
404 2 6.12281 2.28864 8.87459
405 2 5.37355 1.79505 10.317
406 1 7.74902 2.7992 11.6769
407 2 8.38135 2.16152 11.0174
408 2 7.2458 1.97959 12.2458
409 4 10.4045 15.5913 15.0824
410 3 8.80212 15.2608 15.3494
411 1 11.0095 17.0063 16.2717
412 2 11.177 16.7884 17.3166
413 2 12.0024 17.2631 15.9284
414 2 10.2129 17.7779 16.2359
415 1 10.4875 16.521 13.4723
416 2 9.68323 17.2671 13.4299
417 2 11.5345 16.9616 13.451
418 2 10.3758 15.8812 12.5947
419 4 7.76416 13.9827 15.3173
420 3 8.38699 12.6283 14.5063
421 1 7.48446 13.8277 17.1951
422 2 6.46205 14.2453 17.3016
423 2 7.58203 12.8871 17.7248
424 2 8.17386 14.5716 17.5716
425 1 6.32805 14.8057 14.5816
426 2 6.70608 15.6189 13.9166
427 2 5.46251 14.2337 14.2182
428 2 5.993 15.4763 15.3734
429 4 8.82111 11.2953 13.5522
430 3 9.19366 10.0107 14.5706
431 1 10.109 11.9543 12.2355
432 2 10.3691 11.0449 11.6263
433 2 9.59578 12.6476 11.5251
434 2 10.9876 12.3757 12.7102
435 1 7.2412 10.8939 12.4626
436 2 6.29846 11.3352 12.7983
437 2 7.48173 11.3022 11.4275
438 2 7.13161 9.81368 12.4447
439 4 10.7893 9.49625 15.1815
440 3 10.9551 7.87719 15.1033
441 1 10.9553 10.2604 16.7973
442 2 11.9774 10.5086 17.0868
443 2 11.365 13.2096 16.2192
444 2 10.2445 10.4066 17.5863
445 1 12.1196 10.1614 14.0892
446 2 11.9011 10.0971 13.041
447 2 12.1156 11.2308 14.33
448 4 9.97946 6.50268 15.0745
449 3 9.75838 6.17324 13.4855
450 1 8.34109 6.76428 15.8571
451 2 7.94913 7.79984 15.7755
452 2 7.48743 6.20855 15.3854
453 2 8.43666 6.57442 16.9145
454 1 10.7536 5.24755 16.2138
455 2 11.7734 4.89449 15.9366
456 2 10.8456 5.62352 17.2284
457 2 10.1071 4.34921 16.243
458 4 9.60759 5.1898 12.1821
459 1 8.58037 3.64972 12.7072
460 2 7.92924 4.09692 13.4737
461 2 9.28771 2.95737 13.2142
462 1 11.401 4.74954 11.6692
463 2 11.9003 4.39836 12.6033
464 2 11.5234 3.83628 11.0554
465 2 11.8286 5.65355 11.2462
466 4 18.2289 12.8352 10.6105
467 3 18.5018 13.0781 12.3198
468 1 16.8546 14.0412 10.036
469 2 17.1812 14.2985 9.05179
470 2 15.7943 13.5463 10.0609
471 2 17.3051 14.9546 10.6081
472 1 16.6998 17.5003 11.7123
473 2 17.5358 18.1695 11.3678
474 2 16.0563 18.1872 12.3036
475 2 16.3792 16.9274 10.7188
476 4 18.5513 13.7494 13.8149
477 3 16.922 13.7693 14.4275
478 1 19.8441 13.1317 15.186
479 2 19.5415 12.2444 15.7577
480 2 20.8001 12.7653 14.7876
481 2 20.0992 13.8277 15.9455
482 1 19.0482 15.5099 13.4216
483 2 18.708 15.8605 12.416
484 2 18.8686 16.341 14.1459
485 2 20.1421 15.4954 13.3607
486 4 15.6671 13.7294 15.3789
487 3 15.0903 12.1826 15.4649
488 1 16.1447 13.9988 17.2069
489 2 16.8149 13.2759 17.725
490 2 16.733 14.9595 17.2334
491 2 15.184 14.1008 17.7651
492 1 14.3921 14.7628 14.5247
493 2 13.4322 14.2839 14.6498
494 2 14.2374 15.8599 14.6893
495 2 14.6294 14.6464 13.4443
496 4 15.04 10.8462 14.4507
497 3 16.1987 9.84899 15.0779
498 1 13.5177 9.6346 14.4774
499 2 13.8207 8.747 13.8801
500 2 13.5103 9.23043 15.5064
501 1 15.7065 11.4309 12.8006
502 2 15.4908 10.8002 11.9613
503 2 15.4639 12.4851 12.5453
504 2 16.7822 11.5385 12.8719
505 4 17.3701 8.67946 14.8712
506 3 16.8736 7.21311 15.4534
507 1 17.7559 8.52984 12.9938
508 2 16.8796 8.21096 12.413
509 2 18.1973 9.40873 12.4856
510 2 18.362 7.6237 12.9078
511 1 18.9455 9.18121 15.8082
512 2 18.7705 10.0828 16.4104
513 2 19.3152 8.43212 16.5013
514 2 19.832 9.29516 15.1362
515 4 16.6366 5.56172 15.7993
516 1 14.7695 5.35078 15.6356
517 2 14.5233 4.34322 15.2483
518 2 14.2598 5.52845 16.5901
519 2 14.4018 6.1339 14.9642
520 1 17.6049 4.45477 14.6552
521 2 17.6185 4.89353 13.6595
522 2 18.6678 4.21894 14.8159
523 2 16.9886 3.54717 14.6967
ITEM: TIMESTEP
7500
ITEM: NUMBER OF ATOMS
523
ITEM: BOX BOUNDS pp pp pp
4.3725312435688224e-02 2.1956274687564484e+01
3.7921697428876300e-02 1.9042041302571189e+01
3.9750284032431082e-02 1.9960249715967592e+01
ITEM: ATOMS id type x y z
1 4 1.00583 8.58766 3.05244
2 3 1.99217 7.6555 4.18499
3 1 21.7545 8.08065 1.18775
4 2 21.3508 9.12578 1.38958
5 2 21.286 6.89256 1.23942
6 2 22.0004 8.2403 0.27381
7 1 20.2462 7.6648 5.94652
8 2 19.893 6.76811 5.16503
9 2 21.3252 7.91618 5.68617
10 2 20.0041 8.64397 5.4024
11 4 3.71056 7.67817 3.67376
12 3 4.4818 6.41816 2.93557
13 1 3.34188 9.74807 1.41805
14 2 5.18997 7.64036 4.79406
15 2 2.95175 10.6766 2.07177
16 2 2.67631 9.1747 0.738575
17 1 4.21491 8.92548 2.20505
18 2 17.1315 11.4923 11.1443
19 2 14.7251 3.70458 17.9817
20 2 15.3227 18.3567 0.343769
21 4 4.38742 5.1899 1.53493
22 3 4.8141 3.86286 2.47036
23 1 6.05383 5.01195 0.538936
24 2 5.9549 5.67186 19.6364
25 2 6.73701 5.20852 1.31508
26 2 5.95476 3.89286 0.374272
27 1 2.65385 5.53891 1.10636
28 2 2.17054 6.38951 1.71051
29 2 2.67362 6.23716 0.15816
30 2 2.03646 4.637 0.8367
31 4 3.65536 2.94024 3.23277
32 3 3.42347 1.33853 2.81571
33 1 20.9005 18.7107 18.3644
34 2 20.9408 3.25395 13.2473
35 2 21.4319 17.9701 17.6468
36 2 20.4744 0.290644 17.3782
37 1 3.02402 4.14642 4.5072
38 2 20.5833 18.5326 19.3321
39 2 18.7304 10.061 2.30794
40 2 2.48069 5.21452 4.17411
41 4 3.545 0.195273 1.67369
42 3 4.93766 18.4695 2.2563
43 1 4.45683 0.874137 0.08333
44 2 4.25897 18.8217 19.5787
45 2 4.9824 1.87521 19.496
46 2 2.82007 2.0069 18.7895
47 1 5.93867 2.11798 16.099
48 2 6.10715 2.29535 17.068
49 2 5.49091 1.1604 16.3516
50 2 6.08537 1.8796 15.2164
51 4 5.93494 17.0818 1.76549
52 1 6.61895 16.6074 3.47457
53 2 5.74203 16.6956 4.27601
54 2 7.17351 15.6749 3.28861
55 2 7.43872 17.0265 3.98417
56 1 13.5755 0.915941 17.7079
57 2 18.8249 0.877954 14.8156
58 2 7.13262 17.2832 0.749893
59 2 3.39285 1.04169 20.1336
60 4 13.8446 18.9797 19.5081
61 3 11.8671 16.9274 18.603
62 1 11.979 3.68548 3.79721
63 2 11.6855 3.96128 2.72849
64 2 11.1649 3.06771 4.14417
65 2 12.2947 4.46137 4.37745
66 1 12.4864 17.511 0.00327825
67 2 16.4015 17.564 15.9806
68 2 12.1181 1.09187 16.3125
69 2 12.7815 2.97157 3.72715
70 4 12.163 16.7692 1.56194
71 3 11.1777 15.4014 1.64134
72 1 10.9863 18.0287 1.65319
73 2 5.98089 16.0965 13.1022
74 2 7.11884 14.8336 0.524119
75 2 10.3525 18.6458 1.04567
76 1 13.678 16.6104 2.78419
77 2 14.5125 17.1725 2.45686
78 2 13.1558 16.9849 3.67072
79 2 13.8014 15.5341 2.9752
80 4 10.2649 14.4705 0.781666
81 3 10.8917 12.8231 1.10503
82 1 11.1303 14.5362 18.9892
83 2 12.1545 14.3626 18.6266
84 2 10.5668 13.8937 18.3093
85 2 11.3572 15.7058 18.8454
86 1 8.37048 14.4603 1.10971
87 2 8.12102 13.4841 1.88436
88 2 8.31397 15.5302 1.25117
89 2 13.0922 17.3312 18.3336
90 4 10.8318 11.2397 1.52175
91 3 9.24264 10.9513 1.79449
92 1 11.4891 11.152 3.2383
93 2 11.1533 11.603 4.18749
94 2 11.5267 10.0565 3.47881
95 2 12.5677 11.272 3.40899
96 1 12.0928 10.4484 0.427714
97 2 11.2145 14.5458 15.6918
98 2 12.0002 11.2399 19.4758
99 4 8.12289 10.562 2.90371
100 3 6.50831 10.4823 2.1053
101 1 7.51561 11.9087 4.00252
102 2 6.72367 11.3175 4.43851
103 2 7.04145 12.7536 3.55795
104 2 8.15625 12.347 4.68538
105 1 8.3412 8.81534 3.42553
106 2 9.07164 8.74821 4.29728
107 2 7.26463 8.43128 3.67624
108 2 8.84991 8.31484 2.52314
109 4 5.93214 8.8514 1.42149
110 1 5.94781 9.61383 19.3576
111 2 5.51514 9.5269 18.4372
112 2 5.71019 10.6238 19.836
113 2 7.07262 9.4651 19.127
114 1 5.17787 16.6524 12.4856
115 2 5.11061 17.751 12.7544
116 2 5.25629 16.8826 11.3531
117 2 4.3826 16.0301 12.8323
118 4 18.2475 15.3375 0.606847
119 3 18.5819 13.86 1.43225
120 1 20.1042 11.1951 0.730157
121 2 18.6747 15.2616 17.6241
122 2 21.179 11.0964 0.862315
123 2 3.6099 17.1166 18.2154
124 1 19.1291 15.6525 18.4475
125 2 19.0385 16.8109 18.2552
126 2 20.1673 15.6949 18.096
127 2 20.1127 14.4964 16.7217
128 4 18.764 12.5095 0.628153
129 3 17.1824 12.0222 0.55947
130 1 18.4205 16.973 1.69913
131 2 17.6686 17.6377 1.24529
132 2 18.0986 16.9332 2.76306
133 2 19.4576 17.2672 1.40035
134 1 8.71081 0.600447 8.78661
135 2 8.93166 1.76964 9.39348
136 2 7.82575 18.9652 9.21159
137 2 8.09479 1.13043 7.79566
138 4 16.9505 11.1443 1.95557
139 3 15.8883 9.82931 1.65753
140 1 18.1311 10.2151 3.03239
141 2 17.6535 9.36345 3.4963
142 2 18.6907 10.6123 3.87719
143 2 14.2051 18.9641 10.539
144 1 16.3938 12.3926 3.08524
145 2 16.7969 13.3 3.57355
146 2 15.7693 12.8341 2.25501
147 2 15.5709 11.8073 3.47892
148 4 14.8652 9.36006 0.349799
149 3 15.4327 7.79544 0.65677
150 1 13.0333 9.61451 0.644217
151 2 11.1829 10.15 19.8389
152 2 12.576 8.9645 1.56801
153 1 15.508 9.48603 18.433
154 2 15.2733 8.6666 17.4923
155 2 14.6362 10.1097 17.889
156 2 16.2825 10.2046 18.2795
157 4 15.3138 6.1573 0.558127
158 3 16.3352 5.72789 19.1974
159 1 13.6668 5.27254 0.426617
160 2 13.5888 4.20489 0.706811
161 2 12.9354 5.50404 1.17232
162 2 13.247 5.47941 19.4292
163 1 16.1701 5.25769 1.93454
164 2 16.2482 4.22581 1.61257
165 2 17.2107 5.49736 2.1984
166 2 15.527 5.15019 2.8329
167 4 16.7658 4.89676 17.85
168 1 15.5998 3.39342 17.9186
169 2 18.9158 0.321696 15.3775
170 2 15.5714 2.7819 16.9384
171 2 15.5575 2.71949 18.7483
172 1 18.538 4.52255 17.9598
173 2 18.559 4.51755 19.0962
174 2 18.9918 3.68293 17.5136
175 2 19.0883 5.34951 17.861
176 4 0.43679 15.302 9.15049
177 3 1.9737 15.298 8.35468
178 1 20.6884 14.8775 8.3893
179 2 20.1154 14.1683 9.05958
180 2 19.8406 15.4163 7.76627
181 2 20.8613 14.0791 7.64623
182 1 0.850148 16.1361 10.6537
183 2 21.7938 16.4056 10.9818
184 2 1.20179 15.7218 11.545
185 2 1.63478 16.7864 10.1271
186 4 3.64218 15.2703 7.86956
187 3 4.85651 14.4813 8.75347
188 1 4.2825 16.9069 7.34448
189 2 3.82047 16.9175 6.35206
190 2 3.8641 17.7728 7.87098
191 2 5.35652 16.9158 7.26906
192 1 3.71551 14.1847 6.28931
193 2 4.65285 14.043 5.72975
194 2 3.42164 13.1654 6.57736
195 2 2.97723 14.5524 5.53804
196 4 5.34044 13.1072 9.70403
197 3 4.91387 11.8159 8.84182
198 1 4.73584 12.8253 11.4245
199 2 3.86006 13.4524 11.6246
200 2 4.4727 11.7762 11.5985
201 2 5.48941 13.1069 12.1954
202 1 7.2459 13.4792 9.60566
203 2 7.74639 12.607 10.0096
204 2 7.48308 13.784 8.59861
205 2 7.50588 14.2988 10.2721
206 4 4.4343 10.3106 8.34192
207 3 5.59229 9.16364 8.65084
208 1 2.76529 9.84569 9.17908
209 2 2.82817 8.87732 9.68407
210 2 2.39908 10.7099 9.75458
211 2 2.04749 9.70999 8.36624
212 1 4.00614 10.636 6.57395
213 2 4.96928 10.7988 6.12806
214 2 3.46503 9.78004 6.32721
215 2 3.29151 11.3796 6.87293
216 4 5.95714 7.65189 8.06075
217 3 6.70609 6.63589 9.02311
218 1 4.38537 6.87982 7.29936
219 2 4.25178 5.87542 7.71317
220 2 3.54051 7.36118 7.80866
221 2 4.24905 6.7983 6.22606
222 1 7.23917 8.01464 6.73166
223 2 6.97883 9.0504 6.37186
224 2 8.24922 8.16848 6.98484
225 2 7.07445 7.2522 5.94968
226 4 7.76167 5.60014 9.87697
227 1 8.98253 5.09589 8.57842
228 2 8.7772 4.26865 7.89028
229 2 8.97448 5.94408 7.87206
230 2 10.0111 4.88862 8.91829
231 1 8.52938 6.50579 11.3335
232 2 9.09169 7.38509 10.9655
233 2 7.64899 6.90988 11.8658
234 4 10.6218 0.259884 8.61995
235 3 10.9903 17.6645 8.4991
236 1 10.9938 1.09751 6.96653
237 2 12.0022 0.68481 6.94782
238 2 10.559 0.543793 6.05502
239 2 11.04 2.20733 6.76328
240 1 11.66 1.29177 9.83131
241 2 12.7801 1.20768 9.70568
242 2 11.2093 2.02763 10.1132
243 2 11.5442 0.863676 10.7483
244 4 10.6257 16.1393 8.33634
245 3 11.9325 15.3092 7.70242
246 1 10.5471 15.5595 10.2151
247 2 9.94707 16.1426 10.9243
248 2 10.2154 14.5019 10.1912
249 2 11.551 15.5899 10.6036
250 1 9.02197 15.8355 7.20986
251 2 9.19136 16.1122 6.18051
252 2 8.89986 14.7505 7.3276
253 2 8.10401 16.3144 7.51879
254 4 12.5495 14.0692 6.67913
255 3 12.5763 12.8445 7.77124
256 1 14.3325 14.5128 6.22641
257 2 14.8456 14.8577 7.13733
258 2 15.0171 13.721 5.84958
259 2 14.372 15.3718 5.52955
260 1 11.3663 13.7873 5.2391
261 2 10.9086 14.7268 4.89564
262 2 11.957 13.4416 4.37402
263 2 10.4495 13.2035 5.44424
264 4 12.0389 11.4587 8.48928
265 3 13.1413 10.2877 7.98955
266 1 10.3072 11.055 8.05584
267 2 9.79471 10.267 8.65437
268 2 9.74218 11.9957 8.22834
269 2 10.3256 10.8166 6.97469
270 1 12.5406 11.4765 10.3047
271 2 11.8829 12.0539 10.9543
272 2 12.5241 10.4627 10.7731
273 2 13.5905 11.7991 10.3967
274 4 13.3204 8.65977 8.38878
275 3 14.3173 8.05396 7.12495
276 1 11.7228 7.72357 8.17499
277 2 11.0153 8.24655 8.79297
278 2 11.5367 7.65565 7.09444
279 2 11.8222 6.65942 8.4736
280 1 13.9736 8.31702 10.0901
281 2 14.2067 7.24971 10.3336
282 2 14.9151 8.84925 10.2681
283 2 13.2152 8.60893 10.8427
284 4 14.2599 7.16963 5.76088
285 1 12.8582 6.85779 4.85549
286 2 12.9168 5.89661 4.38422
287 2 11.9103 7.38652 4.68011
288 1 15.6106 5.95066 5.63563
289 2 15.0209 4.99759 5.79952
290 2 16.0282 5.88739 4.6525
291 2 16.4187 6.0985 6.34468
292 4 19.5133 7.67111 7.75273
293 3 18.4563 6.10512 7.68766
294 1 18.2619 9.32304 7.38177
295 2 17.2227 9.19829 7.80575
296 2 18.6973 10.2718 7.74897
297 2 18.0928 9.36 6.33787
298 1 20.8721 8.10014 9.21537
299 2 20.4284 13.0317 4.65807
300 2 20.9026 12.506 4.60456
301 2 21.6801 8.46158 9.48548
302 4 19.0323 4.73016 8.54545
303 3 17.8357 4.60364 9.51719
304 1 19.8443 3.46457 7.77483
305 2 18.3086 18.7563 3.87449
306 2 20.4275 1.11073 2.37523
307 2 0.521256 0.934533 5.33926
308 1 20.0577 3.10351 12.6533
309 2 19.5319 4.06096 13.1044
310 2 19.3851 2.14572 12.8406
311 2 20.0508 3.292 11.6713
312 4 16.8786 3.23857 9.72715
313 3 17.6887 1.85616 9.58107
314 1 16.3338 3.18827 11.4786
315 2 16.2156 2.14066 11.8544
316 2 17.1531 3.46432 12.1517
317 2 15.4758 3.90327 11.6864
318 1 15.5795 3.40063 8.46768
319 2 15.7166 4.38561 8.0823
320 2 15.6743 2.81689 7.50079
321 2 14.5606 3.30775 8.9701
322 4 18.8661 0.897008 8.8264
323 3 18.1071 0.12957 7.55598
324 1 19.6657 2.09469 7.7243
325 2 20.1758 1.48838 6.69599
326 2 0.132676 0.309055 5.6851
327 2 20.3887 3.73383 6.99161
328 1 20.0874 0.0890628 9.97814
329 2 20.286 18.1251 9.65144
330 2 21.2723 0.464935 9.6012
331 2 19.5521 18.3173 10.4585
332 4 17.4755 18.3682 6.28181
333 3 16.6457 0.191655 5.12863
334 1 2.88005 3.79826 5.95846
335 2 1.91271 4.01003 6.53161
336 2 3.20304 2.70163 5.99771
337 2 3.48314 4.20255 6.83461
338 1 16.9569 16.612 6.81737
339 2 16.72 15.8055 6.28158
340 2 17.958 16.2815 7.30561
341 2 16.5003 17.1005 8.04048
342 4 17.5362 0.929323 3.82155
343 1 20.7245 2.1355 1.87409
344 2 21.7942 1.60455 1.79484
345 2 20.7986 3.13391 1.16255
346 2 20.7509 2.70664 3.01936
347 1 15.4112 0.660291 2.7205
348 2 14.6183 0.277667 2.07705
349 2 15.5596 1.73206 2.68535
350 2 15.6863 17.9305 16.2682
351 4 2.68324 13.5566 17.5814
352 3 1.96782 13.5416 16.1455
353 1 3.39814 16.1535 18.8744
354 2 16.6418 10.71 5.17123
355 2 2.36688 15.632 19.5085
356 2 12.2862 1.46517 17.0512
357 1 3.92937 15.1035 18.1937
358 2 16.3839 10.4413 5.70575
359 2 18.8882 12.2837 10.1359
360 2 4.94672 14.5568 18.1425
361 4 1.29531 12.4164 14.9364
362 3 2.1831 11.0486 15.1133
363 1 1.89541 13.0817 13.1565
364 2 3.04299 13.569 13.4613
365 2 1.10947 14.0164 13.2898
366 2 1.34579 12.3319 12.3944
367 1 1.74958 12.7962 18.9641
368 2 2.54857 12.4723 19.6997
369 2 0.920217 13.4985 19.5806
370 2 1.34382 12.2304 18.1451
371 4 2.8507 9.50529 15.8157
372 3 2.75633 8.30522 14.7403
373 1 1.62214 9.23684 17.2836
374 2 0.60021 9.37584 16.9209
375 2 1.73282 8.27104 17.8168
376 2 1.98831 10.024 17.9645
377 1 4.65078 9.62438 16.2247
378 2 5.14671 9.91531 15.3061
379 2 4.80678 10.379 16.9963
380 2 5.26997 8.78651 16.5543
381 4 2.71974 7.67698 13.2
382 3 3.82265 6.43697 13.1459
383 1 3.50104 9.14485 12.4548
384 2 4.38572 9.39158 13.0467
385 2 3.79729 9.04493 11.3999
386 2 2.76263 9.96077 12.3773
387 1 1.05195 7.12543 12.5703
388 2 0.254991 6.78796 13.2574
389 2 0.67266 7.82172 11.8369
390 2 1.30363 6.19989 11.9706
391 4 4.5437 4.89202 13.3113
392 3 5.79607 4.68468 12.2161
393 1 5.16523 5.16542 15.0927
394 2 4.26892 5.54206 15.7184
395 2 5.4442 4.09849 15.3659
396 2 5.94246 5.91253 15.3468
397 1 3.61301 3.27255 13.1947
398 2 3.58672 2.98207 12.1812
399 2 4.19405 2.54765 13.8452
400 2 2.60438 3.26946 13.5649
401 4 6.66206 3.95878 10.9574
402 1 5.74141 2.84927 9.67085
403 2 5.0553 3.4494 9.07477
404 2 6.57378 2.36931 9.13117
405 2 5.14366 1.96747 10.0031
406 1 8.19145 3.04516 11.4948
407 2 8.96728 3.09335 10.7462
408 2 8.00474 1.94967 11.6262
409 4 10.3485 15.7579 14.9611
410 3 9.00961 15.0732 14.4369
411 1 10.144 16.954 16.2859
412 2 9.34827 16.7617 17.0146
413 2 11.0635 17.1776 16.8615
414 2 9.84293 17.9359 15.8308
415 1 11.6613 16.2455 13.75
416 2 11.3894 16.0342 12.7165
417 2 12.034 17.2897 13.8453
418 2 12.5679 15.5929 13.9334
419 4 8.12236 13.6923 14.6714
420 3 8.41776 12.6594 13.4405
421 1 8.16194 13.4957 16.5543
422 2 7.13323 13.034 16.6522
423 2 8.89003 12.8431 17.0413
424 2 8.13108 14.5123 16.9505
425 1 6.34006 13.993 14.4315
426 2 5.80437 13.0547 14.2682
427 2 5.94616 14.5291 15.2938
428 2 6.06923 14.5291 13.5178
429 4 8.59204 11.0456 12.9807
430 3 9.85815 10.2432 13.765
431 1 8.94691 10.9982 11.1696
432 2 9.66726 10.3136 10.6559
433 2 8.02495 10.8313 10.5554
434 2 9.24877 12.0313 10.955
435 1 7.0755 10.1719 13.3297
436 2 6.28812 10.3162 12.6148
437 2 7.11987 9.06813 13.4914
438 2 6.79766 10.6659 14.2469
439 4 10.6385 9.86395 15.1871
440 3 10.833 8.24189 15.2959
441 1 9.62846 10.7544 16.3515
442 2 8.67841 10.3302 16.6649
443 2 11.8794 14.0073 15.6504
444 2 9.96976 11.4584 17.1351
445 1 12.3799 10.5568 14.9039
446 2 12.3068 10.4489 13.7926
447 2 12.3816 11.6582 14.9899
448 4 9.84928 6.86891 15.4078
449 3 9.61543 6.26528 13.9319
450 1 8.28674 7.38611 16.1513
451 2 7.76388 8.13864 15.5459
452 2 7.65567 6.47888 15.924
453 2 8.28264 7.63047 17.1788
454 1 10.7715 5.57062 16.3587
455 2 11.6505 5.37495 15.7067
456 2 10.9992 5.88044 17.3661
457 2 10.2143 4.61695 16.387
458 4 9.53415 5.42912 12.527
459 1 8.9391 3.58318 12.7608
460 2 8.34714 3.35712 13.6666
461 2 9.91269 3.0581 12.7266
462 1 11.3801 5.12373 12.0512
463 2 11.945 4.71986 12.9375
464 2 11.4216 4.25961 11.3594
465 2 11.9103 5.93151 11.5271
466 4 17.5422 12.7326 10.5153
467 3 17.8867 13.8401 11.6852
468 1 16.7777 13.3739 9.13993
469 2 17.4906 13.0878 8.1343
470 2 15.6596 13.3136 8.99049
471 2 17.0911 14.4303 9.38617
472 1 13.983 0.274843 11.467
473 2 15.1516 0.573326 11.5747
474 2 13.7007 18.7381 12.3195
475 2 13.8128 1.31917 11.3701
476 4 18.3329 14.7062 13.0315
477 3 17.0421 14.3793 14.1084
478 1 19.7374 13.8181 14.0111
479 2 19.3899 12.782 13.9502
480 2 20.7479 13.9375 13.6592
481 2 19.5943 14.1985 15.0349
482 1 18.8554 16.4399 12.398
483 2 18.237 16.3095 11.5088
484 2 18.7732 17.3686 12.9657
485 2 19.8723 16.2696 12.1527
486 4 15.5783 13.7414 14.3138
487 3 15.6809 12.1754 14.5455
488 1 14.6684 14.4313 15.7633
489 2 13.6563 14.8042 15.4474
490 2 14.259 13.5733 16.3514
491 2 15.1502 15.0802 16.5421
492 1 14.4286 14.155 12.921
493 2 14.5389 15.2032 12.6701
494 2 14.6381 13.6299 11.9584
495 2 13.5001 13.9369 13.4539
496 4 15.313 10.5473 14.3278
497 3 16.5127 9.67509 14.9449
498 1 13.7405 10.0559 15.3094
499 2 13.6863 8.95363 15.3004
500 2 13.8376 10.2886 16.3775
501 1 14.6734 10.1068 12.6253
502 2 13.6867 9.6167 12.7637
503 2 14.5405 11.0206 11.9638
504 2 15.4384 9.42003 12.2136
505 4 17.6665 8.61732 14.779
506 3 17.4467 7.49465 16.0598
507 1 17.2216 7.67455 13.1713
508 2 16.2626 7.17367 13.3208
509 2 17.0316 8.30493 12.295
510 2 17.885 6.90313 12.8102
511 1 19.3776 9.334 14.7224
512 2 19.8047 9.0716 13.7471
513 2 19.3216 10.4064 14.9235
514 2 20.0061 8.81995 15.4805
515 4 16.4226 6.17363 16.0799
516 1 14.5285 6.62404 16.0692
517 2 13.8678 5.87167 16.5723
518 2 14.3183 7.54386 16.6328
519 2 14.0397 6.74508 15.0843
520 1 16.9947 4.78127 14.9097
521 2 16.4353 3.82392 14.9254
522 2 17.0909 5.13732 13.8981
523 2 17.9922 4.47649 15.2819
ITEM: TIMESTEP
8000
ITEM: NUMBER OF ATOMS
523
ITEM: BOX BOUNDS pp pp pp
4.8207605942515386e-02 2.1951792394057627e+01
4.1809060804558484e-02 1.9038153939195443e+01
4.3825096311355338e-02 1.9956174903688698e+01
ITEM: ATOMS id type x y z
1 4 3.14019 5.66147 3.31422
2 3 4.17571 6.9725 2.82592
3 1 21.4211 6.01864 1.15945
4 2 0.403163 6.36195 0.654488
5 2 21.4403 4.92667 1.80164
6 2 20.5606 6.26481 0.345183
7 1 19.9785 8.01834 7.20846
8 2 20.3255 7.12444 6.70822
9 2 20.9326 8.60726 7.52428
10 2 19.475 8.56657 6.31771
11 4 5.05367 7.08703 1.49143
12 3 4.63957 6.03744 0.497881
13 1 3.59888 9.9684 1.20351
14 2 6.5545 6.50055 2.09104
15 2 3.149 9.42988 0.203819
16 2 3.36643 10.9148 1.45605
17 1 4.58984 9.1153 1.36821
18 2 17.6722 11.7243 10.1288
19 2 15.5542 3.1125 17.5149
20 2 12.5891 16.0304 4.40626
21 4 3.95997 4.36664 0.448964
22 3 3.29808 4.17074 2.06809
23 1 5.54156 3.4909 0.112417
24 2 5.44365 3.11464 19.0359
25 2 6.50355 4.06754 0.124121
26 2 5.53584 2.42941 0.228016
27 1 2.55718 4.34485 18.9865
28 2 2.14311 3.38213 18.1058
29 2 1.80034 5.15373 19.027
30 2 3.03415 4.96353 18.2875
31 4 4.59201 2.88363 2.7873
32 3 3.98728 1.42257 2.32269
33 1 0.2816 18.2472 18.6343
34 2 20.5162 4.23092 12.6694
35 2 21.366 18.816 18.6302
36 2 2.10055 0.0769933 18.4544
37 1 4.44906 3.2161 4.56809
38 2 0.595973 18.7392 19.4094
39 2 19.3761 9.7977 4.6413
40 2 5.28416 3.50197 5.18502
41 4 3.65666 18.8244 2.37329
42 3 4.94281 17.9458 2.57754
43 1 3.01165 18.8906 0.325396
44 2 2.45979 18.2707 3.76014
45 2 2.09107 0.761572 0.810571
46 2 19.6961 9.61615 17.6395
47 1 6.09284 1.8059 15.3147
48 2 6.6538 2.10489 14.4538
49 2 6.50742 1.29088 16.0151
50 2 5.79935 3.26998 15.4944
51 4 6.53405 17.3945 2.9271
52 1 6.36604 15.8089 3.71686
53 2 7.12036 14.9395 3.53676
54 2 6.56062 16.1856 4.85463
55 2 5.39669 15.6772 4.19054
56 1 15.4898 1.79326 2.62376
57 2 20.1151 15.447 15.7864
58 2 7.41616 17.6619 1.84878
59 2 3.10164 17.9783 19.8654
60 4 14.0736 0.227129 2.79105
61 3 13.5497 18.6612 16.8294
62 1 9.60801 5.83951 6.13075
63 2 9.54589 6.61223 5.24033
64 2 8.8013 5.07828 6.02484
65 2 9.72389 6.4901 7.01132
66 1 12.4358 0.0795012 17.0458
67 2 16.2405 11.9697 18.2402
68 2 19.4234 17.7603 16.1241
69 2 10.5632 5.35304 6.07059
70 4 12.8837 15.9564 2.65533
71 3 12.0062 15.7254 1.06572
72 1 12.7991 18.0472 2.7093
73 2 7.65439 0.0699025 11.0031
74 2 8.20274 15.6972 19.5922
75 2 11.9624 18.3323 3.49737
76 1 14.8539 15.0673 2.67236
77 2 15.4015 15.6117 3.36611
78 2 14.9716 14.1513 3.10733
79 2 15.1584 14.9097 1.70195
80 4 10.5745 14.6226 0.608659
81 3 11.2418 13.0778 1.11577
82 1 10.5781 15.1124 18.4278
83 2 11.5401 14.9463 18.8045
84 2 10.5403 14.2234 17.8793
85 2 10.6448 16.104 17.9218
86 1 8.92179 14.9887 0.646173
87 2 6.39393 13.5381 5.53386
88 2 8.23691 14.221 0.865428
89 2 8.39752 16.7478 16.5674
90 4 11.5123 11.6517 1.85814
91 3 10.5803 10.3157 1.26742
92 1 11.6617 12.0031 3.78981
93 2 10.7392 12.253 4.32641
94 2 11.8274 10.9541 4.00337
95 2 12.4911 12.6755 3.89435
96 1 13.3398 11.021 1.50731
97 2 11.7116 14.2717 15.2619
98 2 13.293 12.1517 1.68628
99 4 9.47442 8.92929 1.73383
100 3 7.73269 9.59068 1.58008
101 1 7.008 13.2526 6.44058
102 2 7.20617 12.2587 6.52983
103 2 6.71105 13.4068 7.35865
104 2 8.12616 13.7228 6.16663
105 1 9.73875 8.71295 3.6446
106 2 9.38563 9.67601 4.09818
107 2 8.89139 8.02572 4.05896
108 2 10.7537 8.43352 4.15028
109 4 6.42147 9.42281 0.7631
110 1 6.60291 10.413 19.1402
111 2 5.91172 11.3242 19.0933
112 2 7.67866 10.7545 19.2215
113 2 6.30335 10.3099 18.0199
114 1 6.76497 18.4513 11.0396
115 2 6.14076 18.5511 11.9195
116 2 6.00354 18.9487 10.2019
117 2 7.22091 17.5049 10.5375
118 4 18.1783 14.4673 19.3775
119 3 18.3111 12.9195 19.7714
120 1 21.4395 12.2932 0.211917
121 2 17.0574 15.1671 17.0298
122 2 21.5668 11.0952 0.547896
123 2 4.34783 16.6479 18.2714
124 1 17.3105 14.6461 17.953
125 2 16.9795 13.7302 17.4289
126 2 16.2666 14.6004 18.292
127 2 21.7969 8.18502 17.9028
128 4 19.5342 12.0894 0.663941
129 3 18.8012 12.1363 2.14695
130 1 17.5004 15.5758 0.677704
131 2 16.4307 15.4958 0.202128
132 2 17.1839 15.3899 1.78656
133 2 17.7011 16.7192 0.694972
134 1 8.46098 0.118067 7.25004
135 2 8.0022 0.484737 6.25451
136 2 8.39331 0.746529 8.13025
137 2 8.63475 17.8823 7.48081
138 4 17.7222 11.1064 2.85887
139 3 17.1113 10.0299 1.64603
140 1 18.6946 9.74141 3.9633
141 2 19.0564 9.28821 3.07671
142 2 17.8461 9.08579 4.40377
143 2 13.6328 16.9192 13.4308
144 1 16.2192 12.1426 3.39113
145 2 16.5799 12.8655 4.04439
146 2 16.0558 12.7601 2.50682
147 2 15.3264 11.5538 3.61013
148 4 15.806 9.3525 0.975466
149 3 14.9907 7.7886 0.956659
150 1 14.2152 10.0271 1.87727
151 2 6.76108 18.639 3.92066
152 2 13.7435 9.18477 2.4578
153 1 15.8888 9.7567 19.0943
154 2 16.7493 10.4568 18.9696
155 2 15.5894 9.35637 18.0033
156 2 15.0266 10.6096 19.0745
157 4 15.2901 6.26243 0.476474
158 3 16.0973 6.11708 18.9751
159 1 13.6191 5.2857 0.688783
160 2 12.9377 5.5389 1.53913
161 2 12.829 5.45757 19.5501
162 2 13.7943 4.23538 0.728389
163 1 16.3633 5.374 1.80416
164 2 15.9231 4.4369 2.18506
165 2 17.3725 5.15587 1.41446
166 2 16.4626 6.09067 2.67267
167 4 16.5653 5.19796 17.8134
168 1 15.9909 3.21719 18.43
169 2 20.2755 14.7595 16.0715
170 2 16.7844 2.2776 18.6793
171 2 15.4671 3.41009 19.3927
172 1 18.325 4.85719 17.9673
173 2 18.5002 4.06405 17.2228
174 2 19.1371 5.53018 18.3039
175 2 18.5572 4.47807 18.9847
176 4 0.580855 15.6486 8.72979
177 3 1.90797 15.2614 8.01865
178 1 21.0046 16.326 7.84286
179 2 20.8514 17.4647 7.84624
180 2 20.7695 16.1273 6.85524
181 2 20.1381 15.7533 8.33622
182 1 0.992705 16.84 10.3985
183 2 21.8362 17.003 10.5908
184 2 1.35406 16.3373 11.3237
185 2 1.10487 17.9349 10.5547
186 4 3.61207 15.1831 7.5151
187 3 4.28017 14.1204 8.60461
188 1 4.47353 16.771 8.01924
189 2 4.45188 17.6337 7.31423
190 2 3.8886 17.1117 8.91356
191 2 5.46801 16.4641 8.38437
192 1 3.58735 14.5773 5.76325
193 2 4.66346 14.4231 5.60549
194 2 2.93907 13.7472 5.5385
195 2 3.31605 15.3999 5.08673
196 4 4.86996 13.1168 9.78527
197 3 4.58351 11.5946 9.26766
198 1 4.10341 13.0748 11.4987
199 2 3.28493 12.3844 11.3666
200 2 4.88017 12.7015 12.163
201 2 3.66625 14.0229 11.8865
202 1 6.67236 13.7151 9.82128
203 2 7.40722 13.2395 10.5063
204 2 7.20998 13.646 8.85963
205 2 6.75343 14.7633 10.1817
206 4 3.94839 10.5746 8.11215
207 3 4.46404 9.05585 8.43342
208 1 2.04284 10.5706 8.32241
209 2 1.40962 10.8722 7.45485
210 2 1.65795 9.69366 8.91589
211 2 1.79461 11.4753 8.95281
212 1 4.3396 11.013 6.30871
213 2 5.2587 10.6152 5.76944
214 2 3.6127 10.6932 5.59773
215 2 4.50682 12.117 6.13393
216 4 5.69333 7.89638 8.40833
217 3 6.47636 7.66455 9.94042
218 1 4.56901 6.55164 7.82626
219 2 5.09281 5.84704 7.16507
220 2 4.03722 6.03292 8.63974
221 2 3.7901 7.06373 7.25006
222 1 6.81824 8.20402 6.91489
223 2 6.1116 8.7909 6.33308
224 2 7.55331 8.95032 6.99428
225 2 7.07984 7.28318 6.32517
226 4 7.50442 6.37804 10.4663
227 1 8.13319 5.50397 8.92058
228 2 7.56969 5.80614 8.0252
229 2 9.2109 5.65679 8.7916
230 2 7.93733 4.4251 9.16003
231 1 9.03383 6.79925 11.563
232 2 9.8356 7.09335 10.857
233 2 8.88795 7.65425 12.2342
234 4 10.5875 0.174829 7.02331
235 3 11.0114 17.7379 7.75045
236 1 11.0992 0.158243 5.50731
237 2 10.4218 0.176947 4.77745
238 2 11.9857 0.576796 5.1245
239 2 11.1643 18.0243 5.52182
240 1 11.0599 1.74929 7.8665
241 2 11.9146 2.25248 7.39693
242 2 10.4669 2.61873 8.06594
243 2 11.4303 1.73594 8.99933
244 4 10.7618 16.395 8.64069
245 3 11.8627 15.2948 8.20734
246 1 11.2109 16.7067 10.4923
247 2 12.2279 16.2791 10.6006
248 2 11.3291 17.7354 10.8684
249 2 10.5191 16.1595 11.1442
250 1 8.86247 15.6753 8.60203
251 2 8.42626 15.3198 7.65138
252 2 9.04081 14.7435 9.19741
253 2 8.1804 16.3032 9.20189
254 4 12.4486 14.3683 6.98788
255 3 12.213 12.7961 7.08546
256 1 14.2695 14.7478 6.68605
257 2 14.8933 14.6353 7.57256
258 2 14.6291 13.8811 6.12191
259 2 14.3524 15.7269 6.19595
260 1 11.2501 14.9383 5.72228
261 2 11.338 16.0349 5.59709
262 2 11.4031 14.3751 4.80264
263 2 10.2147 14.6045 5.97612
264 4 11.8596 11.5033 7.99219
265 3 13.0129 10.4615 7.52929
266 1 10.0924 11.0662 7.55425
267 2 9.87072 10.1112 8.10563
268 2 9.35795 11.8486 7.77295
269 2 9.89359 10.7555 6.49052
270 1 12.0932 11.6192 9.75584
271 2 11.4476 12.3971 10.1824
272 2 11.8756 10.6354 10.2236
273 2 13.1505 11.8028 9.98305
274 4 13.432 8.83611 7.64129
275 3 13.4906 7.99829 6.23586
276 1 11.9557 7.97857 8.45729
277 2 11.6758 8.59054 9.33963
278 2 11.0803 7.8483 7.79437
279 2 12.1548 6.98021 8.88603
280 1 15.0069 8.69641 8.69733
281 2 15.6023 7.84874 8.33364
282 2 15.6069 9.60369 8.66882
283 2 14.6608 8.49847 9.71948
284 4 14.2219 7.16756 5.03451
285 1 13.1407 6.91991 3.65346
286 2 13.3715 6.13834 2.96555
287 2 12.263 7.52589 3.41784
288 1 15.5004 5.88836 5.64015
289 2 15.0594 4.90721 5.44099
290 2 16.3962 5.93968 4.99528
291 2 15.8309 6.06852 6.65469
292 4 19.2292 7.33446 8.78193
293 3 17.6586 6.71966 8.05737
294 1 19.4476 8.92195 9.95823
295 2 19.9876 8.72823 10.9286
296 2 19.8875 9.63779 9.25507
297 2 18.5848 9.41234 10.2483
298 1 19.7767 5.52769 9.48284
299 2 21.7051 2.18479 2.75325
300 2 0.437082 1.58361 2.48313
301 2 19.082 6.01086 10.3893
302 4 17.9699 5.10828 8.634
303 3 16.6009 4.50369 9.29527
304 1 18.8467 3.92222 7.54081
305 2 21.2033 15.2146 1.51064
306 2 17.7075 2.35496 1.44102
307 2 0.210804 3.42628 9.58692
308 1 19.7929 3.61299 12.0491
309 2 18.8357 4.19631 11.8494
310 2 19.4918 2.5694 12.1368
311 2 20.1679 3.32547 10.9279
312 4 15.7147 2.92612 9.65409
313 3 16.5677 1.43732 9.2379
314 1 15.3288 2.64952 11.5235
315 2 14.2591 2.92111 11.6812
316 2 15.7255 1.6659 11.6969
317 2 15.8759 3.17621 12.2656
318 1 14.3378 2.77351 8.43363
319 2 14.5255 1.83983 7.91466
320 2 13.3168 2.77571 8.84339
321 2 14.3386 3.64776 7.66924
322 4 18.0058 1.06394 8.34796
323 3 17.2623 0.266651 7.26456
324 1 18.9382 2.61735 7.54893
325 2 19.8515 2.30565 7.04531
326 2 0.410535 2.83027 9.43909
327 2 19.532 4.50103 6.70526
328 1 18.8616 0.194449 9.6834
329 2 18.651 18.4342 10.3672
330 2 20.6003 15.5162 0.575124
331 2 19.7918 0.221722 8.76412
332 4 17.2042 18.0862 6.0154
333 3 17.5277 18.9138 4.47945
334 1 3.2002 2.40194 5.60519
335 2 3.08167 1.61828 4.82144
336 2 3.48325 2.21125 6.50271
337 2 2.30992 3.01829 5.70021
338 1 17.8791 16.1379 5.63444
339 2 18.9959 16.1793 5.49798
340 2 17.7708 15.2872 6.1535
341 2 17.6553 16.0343 4.67945
342 4 16.1682 0.592902 3.9681
343 1 18.8869 3.09535 1.13986
344 2 19.5163 2.17929 1.52184
345 2 19.3183 2.85245 -0.00314079
346 2 19.1464 3.80714 2.28778
347 1 15.5301 2.96591 3.75921
348 2 14.8295 2.32225 4.59636
349 2 16.4744 3.75744 3.8364
350 2 15.7403 12.738 18.3583
351 4 2.60681 14.3589 17.3994
352 3 2.84089 12.6942 17.1939
353 1 4.99709 15.8661 18.1274
354 2 16.3913 11.5225 6.64867
355 2 6.12357 16.1499 17.9413
356 2 19.3043 17.8921 16.9759
357 1 4.46038 14.6958 17.8654
358 2 15.7912 11.3807 5.97244
359 2 19.9737 11.7903 9.74936
360 2 4.88965 13.8639 18.2897
361 4 2.59173 12.1362 15.4173
362 3 1.73537 10.7106 15.8646
363 1 1.37175 13.0177 14.2439
364 2 1.43049 14.0581 14.5369
365 2 0.335742 12.6923 13.87
366 2 1.85412 12.8084 13.4155
367 1 1.19468 14.7256 18.405
368 2 1.06856 14.3216 19.4142
369 2 1.31951 15.7889 19.0422
370 2 0.224026 14.6253 18.0103
371 4 2.51155 9.37555 16.5342
372 3 2.01022 8.10374 15.6519
373 1 0.641625 8.4391 18.5312
374 2 0.274486 8.54989 19.6174
375 2 1.71789 8.04955 18.7399
376 2 0.79346 9.64987 18.5273
377 1 4.04944 9.25861 17.5101
378 2 4.36753 10.2018 17.9084
379 2 3.93372 8.47339 18.2867
380 2 4.79771 9.16993 16.774
381 4 1.94959 7.72948 13.9159
382 3 2.56409 6.20624 13.4562
383 1 2.89866 9.02379 12.8834
384 2 3.67835 9.4496 13.4966
385 2 3.45231 8.51599 12.1171
386 2 2.23224 9.73812 12.3868
387 1 0.114516 7.65098 13.7108
388 2 21.6374 8.47992 13.1839
389 2 21.8641 6.7213 13.1836
390 2 21.5386 7.56625 14.7387
391 4 3.98244 5.5281 13.9973
392 3 5.03736 5.52138 12.6923
393 1 4.60527 6.3995 15.5219
394 2 3.91981 6.06225 16.3823
395 2 5.68635 6.09414 15.8945
396 2 4.45416 7.51491 15.6711
397 1 3.23168 3.86909 14.1853
398 2 2.66981 3.67267 13.2594
399 2 3.98252 3.09469 14.3491
400 2 2.62297 3.97803 15.0761
401 4 6.15158 5.04645 11.6227
402 1 4.95155 4.20071 10.3785
403 2 4.04111 4.82489 10.4388
404 2 5.16525 4.16768 9.30753
405 2 4.63473 3.24072 10.8289
406 1 7.15392 3.66703 12.5419
407 2 7.71534 3.0741 11.789
408 2 6.52857 2.96573 13.0906
409 4 8.43115 16.6426 15.2309
410 3 8.60916 14.9784 15.023
411 1 6.68016 17.3475 14.565
412 2 6.16981 17.2297 15.5356
413 2 6.9464 18.4435 14.3768
414 2 5.98803 16.9095 13.9033
415 1 9.90923 17.4987 14.4792
416 2 10.7316 16.8078 14.5261
417 2 9.61327 17.9247 13.4876
418 2 10.1878 18.3748 15.1045
419 4 7.53483 13.7262 14.757
420 3 8.43735 12.6009 13.8902
421 1 7.03221 13.1661 16.3996
422 2 5.94034 13.0553 16.4514
423 2 7.37881 12.2991 16.9796
424 2 7.2095 14.0554 17.0516
425 1 6.04411 14.3874 13.7521
426 2 5.4823 13.4766 13.4699
427 2 5.3298 14.865 14.4253
428 2 6.27235 14.9475 12.7967
429 4 8.40096 10.9061 13.8554
430 3 9.62402 10.5493 14.9065
431 1 8.95878 10.6264 12.1505
432 2 8.20956 10.8946 11.4016
433 2 9.78864 11.3217 12.1158
434 2 9.29683 9.58638 12.0946
435 1 6.85122 9.97815 14.1675
436 2 6.1674 10.4361 13.4285
437 2 6.92586 8.91429 14.0041
438 2 6.44671 10.119 15.1579
439 4 11.0322 9.87837 15.4967
440 3 10.9577 8.24072 15.382
441 1 10.9827 10.6798 17.1558
442 2 10.9858 10.1993 18.1287
443 2 11.7314 15.1134 15.1197
444 2 10.9195 11.7912 17.0746
445 1 12.3915 10.6876 14.5331
446 2 11.9043 10.9611 13.5676
447 2 12.4415 11.6939 14.9362
448 4 10.257 6.68488 15.5329
449 3 10.2436 6.07151 14.0049
450 1 8.58781 6.63264 16.3461
451 2 8.02141 7.54899 16.1376
452 2 8.00654 5.74304 15.9954
453 2 8.7737 6.51856 17.3942
454 1 11.3604 5.55253 16.5
455 2 11.9621 4.9202 15.8089
456 2 11.901 5.8467 17.3992
457 2 10.6127 4.80211 16.8649
458 4 9.56174 5.28505 12.6914
459 1 8.09338 4.39478 13.5302
460 2 7.44577 5.15026 13.9909
461 2 8.48543 3.76229 14.3671
462 1 10.592 3.93904 11.8477
463 2 10.4858 2.95551 12.33
464 2 10.169 3.77281 10.8334
465 2 11.6688 4.13658 11.6926
466 4 18.8264 12.6376 9.6004
467 3 18.6652 13.9922 10.5794
468 1 18.7456 13.3311 8.02034
469 2 19.845 13.3148 7.51834
470 2 18.1888 12.5926 7.30406
471 2 18.4896 14.4725 7.93591
472 1 14.5225 17.3827 13.2318
473 2 14.3876 17.8199 12.2329
474 2 15.3394 16.6839 12.6829
475 2 15.094 18.0584 14.0234
476 4 18.3722 14.2624 12.1581
477 3 16.602 14.2211 12.2402
478 1 19.0215 13.0555 13.4488
479 2 18.9727 12.0455 13.0501
480 2 19.9775 13.2896 13.7046
481 2 18.3905 12.9809 14.419
482 1 18.9414 15.9621 12.6606
483 2 18.9342 16.1915 13.7615
484 2 20.0217 16.2143 12.4726
485 2 18.4241 16.7747 12.143
486 4 15.4305 13.5395 13.1835
487 3 15.9107 12.0731 13.7188
488 1 15.0227 14.4447 14.6841
489 2 15.7243 14.17 15.4695
490 2 15.1501 15.4606 14.473
491 2 14.0276 14.1599 14.8677
492 1 13.8888 13.3343 12.212
493 2 14.2595 12.8773 11.2901
494 2 13.016 12.7011 12.4064
495 2 13.5878 14.3382 11.8362
496 4 15.4365 10.4933 13.7582
497 3 16.3762 9.78577 14.8375
498 1 13.746 10.0635 14.5808
499 2 13.6426 8.96284 14.4701
500 2 14.0536 10.2056 15.6287
501 1 15.6693 9.90956 11.9978
502 2 15.2616 8.90143 11.9109
503 2 15.2064 10.4748 11.1535
504 2 16.7618 9.75066 11.8646
505 4 17.7233 9.02222 15.4492
506 3 17.3567 7.43688 15.5675
507 1 19.1604 9.23398 14.2007
508 2 18.596 9.34771 13.2436
509 2 19.8238 10.1278 14.3381
510 2 19.7922 8.3455 14.2079
511 1 18.57 9.99874 17.1648
512 2 18.1314 8.98383 17.5149
513 2 19.2535 10.5469 16.3807
514 2 17.8484 10.7147 17.6224
515 4 16.6031 5.9899 15.6881
516 1 14.9512 6.29329 14.8881
517 2 14.3328 5.38455 14.9283
518 2 14.4758 7.12296 15.4183
519 2 15.1902 6.6438 13.8651
520 1 17.538 4.69842 14.6643
521 2 16.9506 3.74945 14.727
522 2 17.4637 4.97982 13.5925
523 2 18.5788 4.4167 14.9207
ITEM: TIMESTEP
8500
ITEM: NUMBER OF ATOMS
523
ITEM: BOX BOUNDS pp pp pp
5.2732876690161135e-02 2.1947267123309970e+01
4.5733697096856929e-02 1.9034229302903135e+01
4.7938978809236588e-02 1.9952061021190815e+01
ITEM: ATOMS id type x y z
1 4 5.78523 4.14908 2.31561
2 3 7.0628 4.97614 1.71453
3 1 0.85522 7.11877 6.98585
4 2 1.58762 6.79156 6.22889
5 2 1.97481 10.1855 3.26
6 2 0.358775 6.0659 7.85912
7 1 20.6514 7.2963 9.21863
8 2 21.4587 7.14453 8.36972
9 2 21.3718 6.87385 9.94151
10 2 20.3832 8.32746 9.14139
11 4 6.16908 6.50987 1.61425
12 3 5.85932 6.05094 0.100754
13 1 5.70952 7.94859 2.69703
14 2 7.122 9.19119 19.0728
15 2 6.16151 7.73484 3.56274
16 2 4.75204 8.50638 2.78707
17 1 6.73729 8.13911 1.61101
18 2 20.4752 11.3475 8.86989
19 2 15.6911 3.17065 16.8458
20 2 15.1248 15.0434 2.80661
21 4 4.95699 4.60674 19.7088
22 3 4.81232 3.83028 1.11848
23 1 6.15232 3.74084 18.5307
24 2 6.59386 4.16338 17.6223
25 2 6.98359 3.41091 19.1099
26 2 5.66282 2.70974 18.321
27 1 3.12799 5.02325 18.8606
28 2 3.37645 6.21803 19.0673
29 2 3.35507 4.5732 17.8298
30 2 2.13865 4.55986 19.6784
31 4 5.09029 1.7261 2.7753
32 3 3.45672 1.31362 3.1283
33 1 20.7783 3.1765 19.0202
34 2 20.2556 0.525177 14.2827
35 2 20.1515 4.154 19.2229
36 2 17.5241 18.2185 4.42664
37 1 5.17463 3.35745 3.74507
38 2 21.2982 2.53276 19.8968
39 2 19.972 8.7603 3.11528
40 2 6.37438 3.19464 4.03027
41 4 3.70783 18.795 3.70505
42 3 5.44006 18.2775 4.03401
43 1 3.09544 17.1237 2.85597
44 2 3.37311 0.468984 5.28533
45 2 2.89765 15.7467 2.74373
46 2 0.168844 13.0576 19.5843
47 1 8.19688 1.06186 17.6919
48 2 7.2616 1.03397 18.0618
49 2 8.61462 1.94246 18.44
50 2 8.77106 0.168754 17.1933
51 4 6.44329 18.8801 2.98373
52 1 6.91489 16.9119 2.35087
53 2 7.95992 16.8874 2.8024
54 2 6.66071 16.0507 2.70267
55 2 7.30267 17.1405 1.25024
56 1 13.6951 1.06854 4.20814
57 2 19.1036 17.0343 14.7349
58 2 4.9734 19.1456 1.81672
59 2 2.63924 17.6842 1.811
60 4 14.4787 18.7864 3.4617
61 3 14.0169 1.00374 14.9682
62 1 10.3635 4.64643 5.88603
63 2 9.38743 4.10647 5.90773
64 2 10.7302 4.60931 6.92608
65 2 10.1546 5.58846 5.3507
66 1 13.3963 1.84164 14.8333
67 2 11.2806 14.8443 13.8042
68 2 3.64155 17.9688 13.0721
69 2 11.1502 4.21066 5.22644
70 4 14.4197 15.9318 1.4674
71 3 12.9683 15.4415 1.28797
72 1 13.8593 17.5274 2.19765
73 2 7.69721 1.53227 10.2198
74 2 9.92432 16.166 1.42295
75 2 13.6307 18.0505 1.17964
76 1 14.9428 15.6155 19.55
77 2 16.0467 15.8826 19.6618
78 2 15.2351 14.8223 19.0936
79 2 14.4487 16.4671 18.9716
80 4 11.7659 14.8834 0.495996
81 3 11.3425 13.5231 1.33328
82 1 12.1203 13.8909 18.9767
83 2 12.5986 14.8311 18.6209
84 2 13.0531 13.402 18.6165
85 2 11.6614 14.0442 17.9729
86 1 10.3719 16.2076 0.356978
87 2 7.80174 13.0985 4.27895
88 2 9.80322 16.3586 19.557
89 2 7.42863 17.2768 16.372
90 4 11.6138 12.3257 2.18296
91 3 10.2466 11.4104 2.52347
92 1 12.562 12.1212 3.71018
93 2 12.055 12.3686 4.66868
94 2 12.7707 11.0434 3.77715
95 2 13.5641 12.5209 3.77347
96 1 12.1336 10.7596 0.837187
97 2 11.1011 16.2565 16.2866
98 2 11.9604 10.7419 19.335
99 4 10.5808 10.0085 1.50836
100 3 9.23571 9.67343 0.641195
101 1 6.88626 13.4933 3.86103
102 2 6.19188 13.3204 4.60492
103 2 6.71307 12.7472 3.06867
104 2 6.93293 14.4217 3.50811
105 1 11.066 8.27456 1.98547
106 2 10.7884 8.01299 3.00082
107 2 10.3233 7.48332 1.54206
108 2 12.1304 7.92861 1.91957
109 4 7.54019 9.51798 0.611382
110 1 6.94315 11.1828 0.800464
111 2 6.48034 11.355 1.75652
112 2 7.75132 12.0324 0.983047
113 2 6.01714 11.4323 0.151896
114 1 8.15883 0.87709 11.0116
115 2 9.33985 0.8616 11.0407
116 2 7.36898 0.607233 11.8497
117 2 8.03068 18.9131 10.4943
118 4 19.4082 14.3292 19.2699
119 3 18.7227 13.7 0.984783
120 1 21.161 12.8494 19.1905
121 2 18.7538 13.6258 17.4698
122 2 20.8886 11.5788 18.679
123 2 3.59653 17.6371 19.0278
124 1 17.9174 14.1057 18.012
125 2 16.8714 13.5326 18.0485
126 2 17.8317 14.9983 17.0165
127 2 20.8306 7.43095 0.211141
128 4 18.816 12.0037 0.589674
129 3 18.4385 11.1802 1.81026
130 1 19.809 16.1522 0.0463606
131 2 20.648 16.9058 19.9472
132 2 18.7918 16.6833 19.4142
133 2 19.632 15.9963 1.14937
134 1 7.71278 0.164962 6.94508
135 2 7.79415 0.365869 5.89571
136 2 7.56394 1.36368 7.33198
137 2 6.81201 18.5219 7.2692
138 4 17.538 10.0887 2.77655
139 3 15.9349 9.5796 2.41872
140 1 18.6848 8.41757 2.71995
141 2 19.0966 7.93122 1.68313
142 2 18.0699 7.8517 3.49306
143 2 14.6908 17.2482 11.5339
144 1 17.6074 10.6151 4.58794
145 2 18.6471 10.642 4.87088
146 2 17.2951 11.6311 4.47922
147 2 17.0949 9.90599 5.25759
148 4 15.2081 9.60739 0.594315
149 3 15.5524 8.03937 0.527519
150 1 13.1937 9.81342 0.972004
151 2 7.71042 0.782886 3.63689
152 2 13.187 9.47301 1.9868
153 1 16.1742 10.8746 19.6921
154 2 15.5151 11.6027 18.8744
155 2 16.4972 11.7912 0.155003
156 2 17.17 10.6695 19.2989
157 4 15.0986 6.45106 0.0881264
158 3 16.2996 5.87159 18.7635
159 1 13.3898 6.15423 19.4339
160 2 13.0925 6.73634 0.143283
161 2 13.0787 6.52085 18.6139
162 2 12.9007 5.26618 19.602
163 1 16.1611 5.264 1.25261
164 2 16.7346 4.55101 0.571292
165 2 16.7698 5.78151 2.05243
166 2 15.4541 4.61235 1.85916
167 4 17.0479 5.3639 17.3478
168 1 16.8577 3.34564 16.9355
169 2 19.3404 16.3366 14.7775
170 2 17.4743 3.17456 16.1179
171 2 17.3859 2.87889 17.6961
172 1 18.7157 5.59349 18.2984
173 2 19.4491 5.47628 17.5921
174 2 18.9211 6.63273 18.576
175 2 18.7717 4.93176 19.1681
176 4 1.41189 17.3193 9.66432
177 3 2.71941 16.6814 8.83586
178 1 21.8122 16.9847 8.29073
179 2 0.483381 16.8274 7.38503
180 2 21.6369 16.0598 8.85961
181 2 21.0625 17.7448 8.12689
182 1 0.90976 15.9005 11.0061
183 2 1.73698 15.1812 11.1299
184 2 1.25277 16.2859 12.0043
185 2 0.140807 15.1617 10.7935
186 4 3.27177 15.5119 7.80682
187 3 3.63763 14.3115 8.77291
188 1 4.76341 16.5103 7.19441
189 2 4.48825 17.5596 6.98435
190 2 5.58147 16.5134 7.95121
191 2 5.29636 16.2049 6.28823
192 1 2.17955 15.2254 6.3223
193 2 2.54732 14.2579 5.89609
194 2 1.08549 15.3092 6.30184
195 2 2.59459 16.0189 5.63969
196 4 3.62083 12.7997 9.34233
197 3 3.77604 11.8187 8.01182
198 1 1.89429 12.6533 9.89355
199 2 1.75849 13.0136 10.9073
200 2 1.32388 13.2917 9.23111
201 2 1.3794 11.6797 9.85563
202 1 5.0043 12.4883 10.5816
203 2 5.95318 12.3903 9.99263
204 2 5.01526 13.4147 11.2396
205 2 4.64355 11.6194 11.2062
206 4 3.62557 10.2068 7.81448
207 3 5.05402 9.49618 8.20831
208 1 2.13597 9.73589 8.88796
209 2 1.82319 8.74605 8.51882
210 2 2.29847 9.65175 9.96313
211 2 1.35431 10.409 8.55126
212 1 3.57893 9.90322 5.91228
213 2 3.48765 10.9069 5.34761
214 2 4.4009 9.20206 5.62153
215 2 2.53045 9.57536 5.69802
216 4 5.64818 7.88024 8.12495
217 3 6.06947 7.03011 9.5918
218 1 4.33854 6.84319 7.32638
219 2 4.22985 7.02178 6.21993
220 2 4.4866 5.78225 7.63157
221 2 3.34237 7.12425 7.75381
222 1 7.29345 8.20793 7.38706
223 2 8.03936 7.92442 8.14591
224 2 7.45184 7.74901 6.39588
225 2 7.4068 9.35311 7.23419
226 4 6.68977 5.79026 10.4884
227 1 7.63575 4.69388 9.32887
228 2 7.00629 4.29643 8.52325
229 2 8.55994 5.10799 8.91101
230 2 8.10123 3.87681 9.92979
231 1 7.81574 6.57979 11.7432
232 2 8.40372 7.35069 11.2302
233 2 7.14617 7.09393 12.4528
234 4 9.55428 18.9225 7.20671
235 3 10.0666 17.8782 8.38929
236 1 9.96425 18.2781 5.47856
237 2 11.0823 18.5514 4.99868
238 2 10.0241 17.1541 5.61037
239 2 9.65309 18.666 4.51975
240 1 10.3184 1.65921 7.25148
241 2 9.99561 2.66379 8.12941
242 2 10.3853 1.24756 8.37802
243 2 11.3136 1.89496 6.82792
244 4 10.5223 16.7471 9.52781
245 3 11.2481 15.2725 9.02717
246 1 11.9462 17.5023 10.6036
247 2 11.6352 17.1993 11.6145
248 2 12.86 16.9438 10.3402
249 2 12.132 18.5792 10.5355
250 1 9.0695 16.3483 10.7167
251 2 8.65014 17.184 11.2975
252 2 8.20266 16.2715 10.0625
253 2 9.21616 15.388 11.2768
254 4 11.3155 14.4637 7.63084
255 3 11.8456 12.8792 7.85317
256 1 12.4393 15.1872 6.38262
257 2 13.4862 14.8291 6.48612
258 2 12.1539 14.8697 5.36038
259 2 12.551 16.3024 6.34462
260 1 9.57971 14.468 6.88385
261 2 9.10969 15.3087 6.36209
262 2 9.74204 13.7908 6.02688
263 2 8.96703 14.0973 7.70794
264 4 11.4105 11.2878 7.92836
265 3 12.266 10.3063 6.85169
266 1 9.64142 10.9436 7.3713
267 2 9.06454 11.7651 6.92124
268 2 9.5584 10.1282 6.65821
269 2 9.10895 10.5367 8.26009
270 1 11.4879 10.9568 9.78257
271 2 10.66 11.4885 10.2634
272 2 11.4349 9.89581 10.0836
273 2 12.3141 11.4569 10.2861
274 4 13.5022 9.15118 7.01076
275 3 13.5478 8.315 5.49479
276 1 13.3243 7.99695 8.54056
277 2 13.3789 8.45931 9.56156
278 2 12.375 7.4394 8.53386
279 2 14.1948 7.33313 8.41103
280 1 15.078 10.0349 7.20241
281 2 15.8705 9.29661 6.98657
282 2 15.2854 10.9657 6.67357
283 2 15.2281 10.3039 8.26476
284 4 13.8241 6.76013 5.04724
285 1 12.9413 6.10499 3.69101
286 2 13.4858 6.02013 2.77433
287 2 11.9694 5.65332 3.69886
288 1 15.6668 6.53707 5.35056
289 2 15.8769 6.03203 6.31104
290 2 16.2184 5.87384 4.608
291 2 16.1067 7.53868 5.30512
292 4 19.0835 6.51005 9.26459
293 3 18.3462 6.02987 7.74048
294 1 17.574 7.35672 9.81333
295 2 17.4575 6.91546 10.8192
296 2 17.811 8.38819 10.1807
297 2 16.7004 7.47567 9.12034
298 1 18.9461 4.62715 9.72691
299 2 0.257508 18.73 3.07822
300 2 21.837 18.0097 3.54302
301 2 20.1032 4.03722 9.84654
302 4 18.1814 4.47095 7.95574
303 3 16.4062 4.44121 8.04797
304 1 18.0606 2.84391 6.86225
305 2 21.2115 6.45231 6.36559
306 2 17.3766 18.5998 0.605815
307 2 0.827342 4.20907 9.64903
308 1 20.086 0.827317 13.2745
309 2 18.7763 0.960339 13.2254
310 2 20.2466 0.0988897 12.5496
311 2 20.5745 1.87394 13.182
312 4 15.7599 3.46334 9.08982
313 3 15.77 1.92117 8.54115
314 1 16.605 3.36873 10.8903
315 2 17.6574 3.28603 10.9447
316 2 16.0458 4.03457 11.4814
317 2 16.4362 2.37463 11.168
318 1 14.0984 3.96305 9.62231
319 2 13.4074 3.23095 9.16052
320 2 13.8693 3.62121 10.6436
321 2 13.5659 4.91459 9.42943
322 4 16.963 0.760432 8.27667
323 3 16.2559 18.4242 7.39907
324 1 18.4222 1.88641 7.72042
325 2 19.445 1.60048 8.35452
326 2 1.49449 4.40977 9.53279
327 2 17.6408 3.22161 5.90146
328 1 18.3505 18.1857 9.50065
329 2 19.4263 17.836 9.51343
330 2 21.3424 6.15596 5.59747
331 2 18.3476 16.9284 9.30688
332 4 16.3533 18.2757 5.58726
333 3 16.4498 1.15325 5.25541
334 1 4.30391 3.80624 5.23042
335 2 3.95761 4.88174 5.48563
336 2 3.62807 2.93792 5.20599
337 2 4.93909 3.19809 6.05412
338 1 17.179 16.625 5.75853
339 2 17.9525 17.0422 6.34106
340 2 16.5948 15.9526 6.36495
341 2 17.3565 15.9216 4.84949
342 4 15.6589 2.15828 4.16994
343 1 17.0542 0.659201 0.516622
344 2 17.9214 1.27515 19.7133
345 2 16.1739 0.741379 19.5413
346 2 15.648 0.224973 1.90368
347 1 12.7025 1.79014 4.3013
348 2 11.9883 1.51559 3.74684
349 2 12.5672 2.71597 3.69098
350 2 12.003 14.3482 13.6794
351 4 2.83509 14.5945 18.4586
352 3 2.95674 13.3398 17.3652
353 1 4.50648 16.8117 19.0977
354 2 16.9328 13.9498 8.84626
355 2 5.50267 17.4642 19.3809
356 2 3.75726 18.6508 12.761
357 1 4.41945 15.5975 18.5877
358 2 16.6101 14.5218 8.50446
359 2 21.2277 13.5283 10.232
360 2 5.09239 14.7834 18.4422
361 4 2.81349 11.999 16.2916
362 3 1.62442 10.8615 16.8063
363 1 2.21996 12.9844 14.7906
364 2 1.38016 13.3284 15.541
365 2 1.95652 12.2251 14.1193
366 2 2.66823 13.6187 14.1184
367 1 1.81178 16.1751 17.9401
368 2 1.37847 16.72 18.6128
369 2 2.54492 17.0227 17.7209
370 2 1.09479 16.4102 16.9818
371 4 1.35519 9.23451 16.3462
372 3 1.87014 9.11026 14.7124
373 1 21.2094 8.49453 0.565002
374 2 20.6036 9.00208 19.9631
375 2 21.1944 9.05977 1.41891
376 2 0.389763 8.09183 0.92848
377 1 2.40803 8.20481 17.6277
378 2 3.30134 8.51665 18.0837
379 2 1.66273 7.96766 18.3979
380 2 2.72942 7.256 17.1322
381 4 2.09948 7.73945 13.7526
382 3 2.98759 6.75565 14.6962
383 1 3.21373 8.45645 12.5786
384 2 3.14543 7.91742 11.627
385 2 2.86834 9.45184 12.3297
386 2 4.25996 8.43358 12.8513
387 1 0.409197 7.47284 13.293
388 2 0.0222681 7.27527 12.1919
389 2 21.6401 6.75201 13.784
390 2 21.8767 8.40836 13.403
391 4 3.78582 5.33444 14.5222
392 3 4.44401 5.28432 13.0588
393 1 5.17246 5.08953 15.7026
394 2 5.96427 4.48345 15.2656
395 2 5.55148 6.14783 16.0151
396 2 4.77841 4.7641 16.6715
397 1 2.27274 4.1337 14.7857
398 2 1.63371 3.99791 13.858
399 2 2.48542 3.09331 15.01
400 2 1.6477 4.43846 15.6087
401 4 5.2609 4.69034 11.8201
402 1 4.35144 3.41843 10.8042
403 2 3.31101 3.67489 10.5464
404 2 4.85133 3.23769 9.85517
405 2 4.31903 2.48968 11.4148
406 1 6.57627 3.5196 12.6335
407 2 6.65726 2.86584 11.7478
408 2 5.90704 2.96599 13.3309
409 4 7.24045 16.8739 15.2227
410 3 7.62262 15.198 14.9987
411 1 5.38663 16.9007 15.0097
412 2 5.0409 17.4543 14.1124
413 2 4.90646 15.9843 15.3663
414 2 5.04627 17.4147 15.9151
415 1 8.51278 17.8213 14.1404
416 2 9.32337 18.1345 14.8749
417 2 9.01475 17.2086 13.2627
418 2 8.07455 18.6888 13.8701
419 4 7.27549 13.6969 15.566
420 3 8.06216 12.7171 14.5123
421 1 8.00109 13.3105 17.2865
422 2 8.29393 12.2811 17.3178
423 2 8.88352 13.93 17.4776
424 2 7.16478 13.5599 17.9751
425 1 5.51189 13.2982 15.2834
426 2 5.3431 12.2603 15.5054
427 2 4.89657 13.9385 15.8939
428 2 5.17198 13.5327 14.264
429 4 8.6347 11.1325 14.2287
430 3 9.85777 10.96 15.3049
431 1 8.86945 11.0139 12.4177
432 2 8.00403 10.5822 11.9433
433 2 9.04866 11.9965 11.9913
434 2 9.68758 10.4 11.9997
435 1 7.17327 10.0905 14.6957
436 2 6.22095 10.4385 14.2563
437 2 7.30086 9.04943 14.3958
438 2 7.1539 9.95977 15.7938
439 4 11.0751 9.84141 15.986
440 3 10.3953 8.45968 15.364
441 1 11.0377 9.96292 17.7495
442 2 10.1578 9.80735 18.3695
443 2 11.5184 15.7965 15.8669
444 2 11.9104 10.4294 18.2605
445 1 12.4777 10.3993 14.8896
446 2 12.3092 9.80324 13.9931
447 2 12.3584 11.454 14.6372
448 4 9.94774 6.90814 15.4854
449 3 9.12764 6.53507 14.1184
450 1 8.63665 6.75672 16.8286
451 2 7.66638 6.51612 16.3499
452 2 8.85317 6.03601 17.6466
453 2 8.50571 7.66906 17.388
454 1 11.4317 5.8871 15.6031
455 2 12.0487 6.19962 14.7304
456 2 12.018 6.06718 16.497
457 2 11.2313 4.81595 15.4639
458 4 8.9342 5.4881 12.8074
459 1 7.96748 3.83013 13.1975
460 2 8.09704 3.6345 14.2719
461 2 8.70845 3.09727 12.7991
462 1 10.5393 4.93024 11.9661
463 2 11.3846 5.56995 12.1914
464 2 10.8146 3.88393 12.1883
465 2 10.3443 5.04029 10.8859
466 4 20.0984 12.6569 9.38905
467 3 18.7557 12.7315 10.3792
468 1 19.795 13.59 7.80898
469 2 20.388 13.4843 6.79628
470 2 18.7841 13.0627 7.51992
471 2 19.6169 14.7233 8.03062
472 1 15.2913 18.1187 10.9688
473 2 16.2864 17.8005 10.6419
474 2 15.0726 0.0553889 11.6391
475 2 14.5918 18.1545 10.0618
476 4 18.21 13.5345 11.7089
477 3 16.6894 12.9983 11.9629
478 1 19.222 13.3169 13.3025
479 2 20.0101 12.5499 13.2057
480 2 19.6057 14.2927 13.5733
481 2 18.5525 12.8085 14.0391
482 1 18.1106 15.5088 11.6154
483 2 17.749 15.8627 10.64
484 2 17.4815 15.6831 12.5207
485 2 19.1222 15.8811 11.7659
486 4 15.2406 13.5465 12.7646
487 3 14.5253 12.0494 13.092
488 1 15.3396 14.5809 14.3203
489 2 15.8028 15.6286 14.3468
490 2 14.2712 14.6515 14.6503
491 2 15.7083 14.0818 15.2691
492 1 14.1788 14.3865 11.5426
493 2 13.961 13.77 10.6865
494 2 13.214 14.6242 11.9576
495 2 14.77 15.2822 11.3539
496 4 15.0324 10.6155 13.7168
497 3 16.5074 10.6283 14.3277
498 1 13.9724 10.3394 15.2603
499 2 14.3673 9.45291 15.7965
500 2 14.2314 11.0886 16.0387
501 1 14.7416 9.35047 12.4092
502 2 14.7032 9.91734 11.5033
503 2 15.4444 8.51456 12.3111
504 2 13.709 8.9659 12.4834
505 4 17.6871 9.44569 14.5197
506 3 17.0675 8.03956 15.0694
507 1 19.095 9.35836 13.3396
508 2 19.7646 9.79659 14.0937
509 2 19.4258 8.37202 12.9008
510 2 19.2281 10.0562 12.4923
511 1 18.9964 9.83483 16.3354
512 2 19.7699 9.00256 16.0911
513 2 19.1151 10.8203 15.8235
514 2 18.3296 9.9505 17.2263
515 4 17.1006 6.34836 15.1621
516 1 15.4781 5.66843 14.568
517 2 14.8978 5.05634 15.2453
518 2 14.8447 6.51041 14.2732
519 2 15.6102 5.13328 13.6163
520 1 18.6889 6.05137 14.3588
521 2 19.0832 5.13073 14.7895
522 2 18.7146 5.93747 13.2367
523 2 19.2386 6.98023 14.5673
ITEM: TIMESTEP
9000
ITEM: NUMBER OF ATOMS
523
ITEM: BOX BOUNDS pp pp pp
5.5857314196291696e-02 2.1944142685803868e+01
4.8443431279256544e-02 1.9031519568720711e+01
5.0779376542074317e-02 1.9949220623457943e+01
ITEM: ATOMS id type x y z
1 4 5.67111 4.06535 2.62657
2 3 7.1203 5.81258 2.82628
3 1 0.400485 3.5348 9.83451
4 2 1.14481 3.88781 10.9685
5 2 1.2176 16.7805 19.717
6 2 1.04849 2.82017 9.65635
7 1 20.656 7.77604 8.05283
8 2 0.0854107 4.71947 9.79496
9 2 20.7665 8.78727 8.24892
10 2 21.2612 7.08427 7.47167
11 4 6.96574 6.78886 1.53057
12 3 6.6823 6.11255 19.919
13 1 5.72665 9.10336 2.86552
14 2 7.81803 9.19641 19.1111
15 2 5.72024 8.44876 3.72247
16 2 5.13693 10.0125 3.24805
17 1 6.62948 8.78778 1.9331
18 2 20.3087 11.0796 9.8078
19 2 19.7092 4.9681 18.2646
20 2 16.115 16.2745 1.79896
21 4 5.88083 4.78901 19.5934
22 3 5.48763 3.76432 0.934599
23 1 6.56917 3.56263 18.0754
24 2 5.91027 3.88708 17.1844
25 2 7.70506 3.38409 17.8204
26 2 6.31605 2.60993 18.5674
27 1 4.14022 5.31962 18.8431
28 2 3.78966 4.70679 17.9473
29 2 3.3686 5.1623 19.5838
30 2 3.59587 6.79593 18.8208
31 4 5.89682 0.798563 3.52597
32 3 4.46893 0.288329 3.10349
33 1 1.14188 4.07178 0.43448
34 2 18.8682 17.749 13.4548
35 2 0.659822 4.9983 0.214415
36 2 17.4127 18.55 4.73403
37 1 6.54342 2.59375 3.85366
38 2 2.08277 4.35961 1.10443
39 2 17.9922 8.0631 3.83987
40 2 7.58282 2.42775 3.56631
41 4 3.59318 17.8673 4.46741
42 3 4.91099 16.7593 4.40511
43 1 2.13808 17.1745 3.36851
44 2 3.46805 18.2658 5.84572
45 2 1.83751 16.7886 2.50354
46 2 21.5554 15.8523 19.4004
47 1 11.3152 3.29814 1.94956
48 2 10.3822 2.68469 2.36766
49 2 11.2204 2.96389 0.916507
50 2 12.0261 3.03214 2.61002
51 4 6.36307 17.644 4.54483
52 1 8.85036 18.4989 19.4157
53 2 8.60873 18.8844 0.551853
54 2 7.34258 16.8801 5.25666
55 2 7.76698 17.5184 19.3263
56 1 13.0328 0.829382 3.78402
57 2 19.234 16.1686 15.769
58 2 9.81885 18.9231 18.9619
59 2 1.15642 17.9152 3.74525
60 4 12.9885 17.8745 2.81737
61 3 13.682 4.12635 14.4085
62 1 9.8961 4.91966 7.06828
63 2 8.95594 4.6404 6.62994
64 2 9.60918 5.06504 8.13266
65 2 10.3016 5.89067 6.5721
66 1 14.6138 3.63896 14.4226
67 2 11.4403 15.6947 14.6458
68 2 4.559 0.989906 13.2267
69 2 10.8018 4.22482 6.99484
70 4 15.0369 16.587 1.08896
71 3 14.3189 14.949 1.39579
72 1 13.8798 18.036 1.20958
73 2 10.107 2.4041 10.8016
74 2 10.9666 16.048 0.311011
75 2 13.2197 18.9143 0.632753
76 1 15.5201 16.5352 19.3553
77 2 15.2402 15.5486 19.1054
78 2 14.9188 17.2452 18.8488
79 2 16.6059 16.8208 18.9513
80 4 12.8369 14.8224 2.09853
81 3 12.73 13.2039 1.93481
82 1 13.1433 13.3866 17.0564
83 2 12.6984 12.7947 17.7584
84 2 13.6656 14.2099 17.2672
85 2 12.6187 13.8674 16.1736
86 1 11.1802 15.5969 1.50419
87 2 4.86403 13.5554 3.75058
88 2 10.342 15.8083 2.35378
89 2 8.95875 16.63 15.8377
90 4 12.0811 11.8456 2.79572
91 3 10.476 11.9237 3.02747
92 1 13.3331 12.0378 4.28869
93 2 13.8444 11.0956 4.65485
94 2 13.7945 13.0506 4.04679
95 2 12.5508 12.2301 5.12307
96 1 11.9831 10.1551 1.91152
97 2 10.8368 0.326473 14.1762
98 2 13.5456 12.2965 16.6656
99 4 10.2119 10.1958 2.38272
100 3 9.21988 9.88034 1.04149
101 1 5.93334 13.597 3.86625
102 2 6.42245 12.4799 4.1026
103 2 6.1106 14.4117 4.68676
104 2 6.18335 14.0378 2.77763
105 1 9.86131 9.83082 4.15559
106 2 8.76846 10.1781 4.00537
107 2 10.1752 8.82705 4.27195
108 2 10.2988 10.5139 4.90115
109 4 7.60754 10.2044 0.381468
110 1 6.84024 11.8434 0.053618
111 2 7.16327 12.6697 19.1112
112 2 5.90822 11.0242 19.2889
113 2 6.92412 12.2749 1.06471
114 1 10.1794 1.6905 11.6742
115 2 10.284 1.96092 12.6361
116 2 9.71688 0.724617 11.9094
117 2 11.2787 1.59784 11.5596
118 4 19.655 13.8355 19.7257
119 3 19.799 12.278 19.8646
120 1 21.1922 14.9139 19.9064
121 2 18.4802 15.2018 18.5629
122 2 0.161806 13.9283 19.6902
123 2 3.98941 17.3891 18.9594
124 1 17.9965 14.3229 18.7367
125 2 18.5251 14.1156 17.7018
126 2 17.1723 13.9904 19.0603
127 2 1.84592 7.80183 1.97648
128 4 19.6639 10.9765 0.605495
129 3 18.4005 11.0099 1.72127
130 1 18.8639 14.4466 1.42541
131 2 18.1634 13.5505 2.00109
132 2 19.5553 14.8146 2.08724
133 2 17.9651 15.0751 1.65321
134 1 7.51399 0.250115 8.14925
135 2 6.51402 0.398884 7.87503
136 2 7.98444 0.743848 7.09684
137 2 7.37952 0.916439 8.94711
138 4 17.3523 9.96335 2.5712
139 3 15.9801 10.0843 1.56681
140 1 18.029 8.22783 2.71154
141 2 19.1976 8.24677 2.80946
142 2 17.5439 7.46951 2.16062
143 2 14.0076 18.6241 11.7958
144 1 16.9827 10.7677 4.11409
145 2 16.6454 11.705 3.57662
146 2 16.0674 10.5776 4.63671
147 2 17.7711 10.8606 4.86603
148 4 14.7196 9.37033 0.735432
149 3 15.0142 8.07158 19.6335
150 1 13.015 9.34368 1.30928
151 2 6.01005 18.1971 5.83166
152 2 12.6908 8.32877 1.84451
153 1 14.5028 10.8177 19.2847
154 2 14.0739 11.5736 0.121631
155 2 15.6974 11.0341 18.9417
156 2 13.9755 10.1545 18.4932
157 4 15.0111 6.53854 18.8857
158 3 16.5618 6.52863 18.1193
159 1 13.2519 6.49046 18.1866
160 2 13.5677 6.9013 17.0425
161 2 12.8139 5.54832 18.5501
162 2 12.4971 7.0666 18.5263
163 1 15.2247 5.07419 0.243899
164 2 15.1353 4.03155 19.8649
165 2 15.9117 4.95972 1.09806
166 2 14.1892 5.06697 0.685763
167 4 17.9118 6.28354 17.2328
168 1 18.8403 4.72308 17.7486
169 2 19.7564 16.6836 15.7085
170 2 18.5857 3.82862 18.3979
171 2 19.2905 4.31063 16.7205
172 1 19.0391 7.80519 18.1209
173 2 19.7357 8.38145 17.3751
174 2 18.1054 8.36525 18.2726
175 2 19.3537 7.06852 18.8113
176 4 2.12356 17.5315 9.21815
177 3 2.28832 16.2414 8.17206
178 1 2.24019 0.375371 8.8123
179 2 1.82655 0.71532 9.76622
180 2 3.14879 0.469835 8.15685
181 2 1.56751 0.738196 7.90334
182 1 1.19874 16.7681 10.8808
183 2 0.187065 16.462 10.525
184 2 1.36762 15.7325 11.4379
185 2 0.938665 17.8963 11.1791
186 4 3.40543 15.0607 7.96774
187 3 3.87571 14.0978 9.26284
188 1 5.1293 15.5816 7.45991
189 2 5.26773 16.6408 7.21741
190 2 5.7937 15.0467 8.1297
191 2 5.14659 15.0121 6.5448
192 1 2.65023 14.2169 6.45838
193 2 1.75224 13.5847 6.33896
194 2 2.25073 15.1504 5.95309
195 2 3.47013 13.8858 5.79691
196 4 3.54448 12.4514 9.68466
197 3 3.12681 11.5777 8.35791
198 1 2.09874 12.4614 10.7717
199 2 2.16678 13.1304 11.6527
200 2 1.11736 12.7094 10.3231
201 2 2.11072 11.4298 11.1665
202 1 5.27413 11.8557 10.1325
203 2 5.97689 12.4723 9.54781
204 2 5.6215 12.0149 11.1866
205 2 5.60323 10.809 10.0333
206 4 3.40908 10.2577 7.38996
207 3 4.18181 9.16853 8.35403
208 1 1.57465 9.84884 7.01181
209 2 1.31147 9.12616 6.27991
210 2 0.919326 9.52839 7.85835
211 2 1.21312 10.822 6.61803
212 1 4.26989 10.7452 5.78462
213 2 5.13438 10.0925 5.59744
214 2 3.54201 10.7431 4.93644
215 2 4.81008 11.6988 5.71646
216 4 5.21112 7.78354 8.12577
217 3 5.51145 7.0591 9.56607
218 1 4.43014 6.32219 7.20806
219 2 4.6874 6.35257 6.12962
220 2 4.92766 5.42557 7.67227
221 2 3.34931 6.30474 7.20924
222 1 6.68429 8.16586 7.0825
223 2 7.47708 8.85882 7.30661
224 2 7.0396 7.19518 6.75757
225 2 6.29085 8.61766 6.12887
226 4 6.32664 5.94181 10.5195
227 1 7.58431 5.22013 9.42078
228 2 8.43443 5.89724 9.36858
229 2 7.99161 4.33922 9.92777
230 2 7.31162 4.9685 8.38701
231 1 7.33618 6.85919 11.7714
232 2 8.07731 7.34456 11.1215
233 2 6.79171 7.59416 12.3599
234 4 9.49096 18.414 7.97159
235 3 9.42001 16.9722 8.67626
236 1 10.0079 17.7973 5.72755
237 2 9.76835 18.6874 5.02058
238 2 11.3003 17.8643 5.95959
239 2 9.74974 16.6975 5.62038
240 1 10.7133 0.520406 8.62209
241 2 10.0373 0.153055 9.59963
242 2 11.7831 0.567975 9.01528
243 2 10.4809 1.91086 8.76773
244 4 9.84702 15.607 9.45172
245 3 10.3814 14.5519 8.3619
246 1 11.1866 16.0966 10.5851
247 2 11.3259 15.34 11.3607
248 2 12.1632 16.3275 10.0994
249 2 10.9848 17.0139 11.1539
250 1 8.42311 14.5423 10.2279
251 2 8.65029 14.2002 11.2467
252 2 7.46529 15.1098 10.1989
253 2 8.49311 13.5672 9.6989
254 4 10.4663 13.9595 6.86829
255 3 11.4184 12.582 6.94563
256 1 11.6539 14.8533 5.77841
257 2 11.6493 14.0572 5.03685
258 2 11.2172 15.7557 5.35373
259 2 12.6921 14.9241 6.11872
260 1 8.71712 13.5765 6.16867
261 2 8.36022 14.4723 5.57426
262 2 8.65979 12.8811 5.28995
263 2 8.0097 13.361 6.98537
264 4 11.1038 11.0976 7.64132
265 3 12.25 9.94238 7.30151
266 1 9.34031 10.4742 7.32992
267 2 8.7164 10.9572 6.57828
268 2 9.49988 9.45194 7.02397
269 2 8.80062 10.5324 8.2826
270 1 11.1413 11.5005 9.51775
271 2 11.0819 12.5724 9.78043
272 2 10.2894 10.9443 9.92728
273 2 12.0605 11.1022 9.95173
274 4 13.7858 9.29709 7.56396
275 3 14.3382 9.08567 5.92665
276 1 13.6039 7.5862 8.26897
277 2 13.7097 7.63335 9.37219
278 2 12.6794 7.07281 7.98731
279 2 14.4288 6.94599 7.87531
280 1 14.9972 10.6302 8.25561
281 2 15.9924 10.3108 7.9081
282 2 14.8062 11.6101 7.77954
283 2 14.8974 10.7411 9.34522
284 4 14.3735 7.47475 5.39095
285 1 13.0044 6.67363 4.77295
286 2 13.0692 5.87613 4.05896
287 2 12.0824 6.94767 5.25894
288 1 16.0177 6.68084 5.49243
289 2 16.4732 6.57857 6.49646
290 2 15.9045 5.67937 5.02413
291 2 16.7255 7.21251 4.86088
292 4 19.0054 7.23862 8.73101
293 3 18.0494 6.15093 7.67132
294 1 18.3333 8.66649 9.59975
295 2 18.6376 9.77402 9.38315
296 2 17.1964 8.57055 9.59923
297 2 18.7476 8.49672 10.6865
298 1 19.2384 5.7273 9.81524
299 2 0.706056 18.0058 18.7062
300 2 1.82753 17.3265 0.883602
301 2 20.3035 5.37068 9.11969
302 4 18.1415 4.74902 8.84564
303 3 16.4066 4.68547 9.03548
304 1 19.1401 2.86631 8.50875
305 2 0.101042 18.23 17.8729
306 2 17.9347 1.54017 15.0219
307 2 1.96292 0.827812 13.155
308 1 18.9442 18.9241 13.1759
309 2 18.1446 0.0926169 12.3894
310 2 19.7932 0.45443 12.6013
311 2 18.9004 0.448736 14.0208
312 4 15.3162 3.38752 9.10313
313 3 16.3447 2.01457 8.87468
314 1 15.0947 3.09332 10.9308
315 2 14.2948 2.59385 11.511
316 2 16.1014 2.66524 11.3199
317 2 15.107 4.13272 11.3192
318 1 13.8661 3.00769 7.88023
319 2 13.1854 2.11964 8.1344
320 2 13.3847 4.04937 7.73791
321 2 14.3745 2.68515 6.9866
322 4 17.4251 0.650525 8.41133
323 3 16.6033 0.109607 6.90657
324 1 19.0534 1.85038 7.78082
325 2 19.8291 1.21858 7.12094
326 2 1.44815 1.18895 13.8508
327 2 20.0165 2.92035 9.35029
328 1 18.0514 18.1479 9.24736
329 2 16.9835 17.5753 8.93817
330 2 3.84822 0.496092 15.2724
331 2 20.4688 16.6455 4.23533
332 4 16.1337 18.9505 5.37518
333 3 15.2953 1.33111 4.70568
334 1 6.4123 3.15056 5.21767
335 2 6.94946 4.07105 5.37434
336 2 5.31922 3.03 5.61418
337 2 7.00691 2.462 5.95138
338 1 15.7489 17.0074 4.85096
339 2 16.629 16.6821 4.10554
340 2 15.4388 16.4426 5.76142
341 2 15.2345 17.234 3.77291
342 4 15.0079 0.648574 3.19053
343 1 16.9624 1.27389 15.3111
344 2 17.1526 2.39238 15.5302
345 2 16.9446 0.62069 16.8279
346 2 14.8603 1.58402 2.13015
347 1 12.0225 1.08534 4.32181
348 2 10.9484 1.45177 4.74433
349 2 10.503 4.42041 1.5249
350 2 11.7509 15.1343 14.6111
351 4 1.85577 15.3125 17.6732
352 3 1.61784 13.6651 17.2034
353 1 4.27707 16.4646 19.366
354 2 16.2398 13.8497 8.25536
355 2 4.8027 16.5798 0.422366
356 2 4.19768 0.649027 13.8609
357 1 3.79183 15.2637 18.6016
358 2 15.4953 14.3372 7.98991
359 2 20.7669 13.0155 9.02441
360 2 4.4626 14.3869 19.0669
361 4 1.95654 12.2391 16.3471
362 3 1.4817 10.7727 17.1746
363 1 2.28227 12.7425 14.4716
364 2 3.29638 13.1081 14.4463
365 2 1.63454 13.6456 14.6106
366 2 2.24963 11.8871 13.637
367 1 1.45626 16.6649 16.3198
368 2 3.25378 18.8216 15.3805
369 2 1.04265 16.3586 15.3399
370 2 1.31246 17.7708 16.7287
371 4 0.47532 9.68026 16.2376
372 3 1.54245 9.36641 14.9341
373 1 0.872244 7.78079 1.65072
374 2 0.715579 7.89899 0.617575
375 2 21.7962 7.31791 2.02268
376 2 0.726459 8.85817 1.41879
377 1 0.639413 8.47564 17.7098
378 2 21.6858 7.88936 17.9437
379 2 1.45664 7.94662 17.2935
380 2 0.92459 9.17542 18.5475
381 4 2.45926 8.88678 13.4814
382 3 2.72512 7.33481 13.8059
383 1 4.2507 9.44877 12.7876
384 2 4.88337 10.1332 13.4118
385 2 4.70203 8.53062 12.3905
386 2 3.92269 10.1539 11.9812
387 1 1.22625 9.17388 12.108
388 2 1.14258 10.2326 11.858
389 2 1.604 8.49473 10.9908
390 2 21.862 8.7445 12.3208
391 4 3.59836 6.08178 14.2508
392 3 4.53484 5.23658 13.1508
393 1 4.88715 6.36495 15.6677
394 2 5.21161 5.42858 16.0309
395 2 5.73674 6.78942 15.1523
396 2 4.52056 6.84665 16.5302
397 1 2.13564 4.90581 14.9223
398 2 1.40022 5.54775 15.5575
399 2 1.67734 4.42205 14.058
400 2 2.51182 4.19787 15.6293
401 4 5.1253 4.40628 11.8274
402 1 3.84592 3.23068 11.3849
403 2 3.97922 2.74719 10.4343
404 2 3.77516 2.51209 12.2045
405 2 2.96261 3.92626 11.3495
406 1 6.64863 3.35777 12.4188
407 2 7.13379 3.08146 11.4726
408 2 6.18661 2.44933 12.8404
409 4 7.6083 16.6807 15.0977
410 3 7.1576 15.0902 14.8209
411 1 6.39381 17.4968 16.2714
412 2 6.81775 17.8538 17.2065
413 2 5.80898 18.1902 15.6277
414 2 5.59498 16.6624 16.4715
415 1 8.08972 17.6368 13.5547
416 2 8.13327 18.7374 13.5837
417 2 9.2925 17.2937 13.1721
418 2 7.5252 17.3609 12.6119
419 4 7.35312 13.7072 15.6689
420 3 7.47846 12.3085 14.7969
421 1 8.96996 13.8483 16.6212
422 2 9.32479 13.059 17.2771
423 2 9.7576 14.1998 15.9224
424 2 8.78859 14.6907 17.3397
425 1 5.80615 13.4599 16.6624
426 2 5.5397 12.397 16.8374
427 2 5.90726 13.9784 17.6101
428 2 4.98131 13.9058 16.057
429 4 8.00165 10.7064 14.4357
430 3 9.40625 10.5311 15.2304
431 1 8.40701 10.6863 12.6066
432 2 9.472 10.9053 12.7755
433 2 8.26801 9.71653 12.1048
434 2 7.97157 11.5845 12.1171
435 1 6.74643 9.52362 15.215
436 2 5.88851 10.0789 15.6311
437 2 6.45994 8.62276 14.6524
438 2 7.40704 9.18308 16.0591
439 4 10.75 9.65587 15.7542
440 3 10.5441 8.13399 15.1984
441 1 10.9349 9.65487 17.5856
442 2 11.3247 8.79689 18.1167
443 2 11.3264 0.842353 14.2578
444 2 10.8771 10.575 18.1834
445 1 12.1117 10.3152 14.7714
446 2 11.5564 10.2963 13.804
447 2 12.2499 11.4229 14.9225
448 4 9.83531 6.68371 15.463
449 3 8.69396 6.66791 14.259
450 1 9.2116 6.03299 17.0742
451 2 8.98886 6.73021 17.904
452 2 8.22269 5.73838 16.6708
453 2 9.71645 5.1435 17.4925
454 1 11.2969 5.58768 14.9699
455 2 11.9082 6.19885 14.271
456 2 11.9974 5.38125 15.7665
457 2 11.0745 4.64669 14.45
458 4 8.48485 5.79502 12.8539
459 1 7.55728 4.19999 13.3913
460 2 6.9708 4.71339 14.1881
461 2 8.21982 3.54204 14.0027
462 1 10.0808 5.46227 11.8283
463 2 10.8237 6.23474 12.0053
464 2 10.599 4.51454 12.0641
465 2 9.8088 5.47044 10.7645
466 4 19.6336 12.2007 9.13427
467 3 18.478 12.9357 10.1574
468 1 19.0627 11.9422 7.36864
469 2 19.3659 11.1163 6.83762
470 2 18.1679 12.338 7.12344
471 2 20.5327 16.3014 4.88392
472 1 14.8056 17.9055 12.1167
473 2 14.3934 17.9003 13.1408
474 2 15.8711 18.292 12.1923
475 2 14.7889 16.9829 11.7678
476 4 18.2787 13.8509 11.5583
477 3 17.0652 13.2537 12.4015
478 1 19.4418 13.75 13.0426
479 2 18.9269 14.5171 13.7299
480 2 19.4737 12.7603 13.6314
481 2 20.3951 14.2704 12.9885
482 1 18.0966 15.603 10.6416
483 2 17.9224 15.571 9.5546
484 2 17.226 16.1326 11.0044
485 2 18.9062 16.2701 11.017
486 4 15.4657 13.2439 12.8938
487 3 15.0612 11.7614 13.4711
488 1 15.1346 14.3673 14.3919
489 2 15.2934 15.4581 14.1997
490 2 14.1901 14.1327 14.8629
491 2 15.7901 13.8749 15.1279
492 1 14.4951 13.4344 11.3698
493 2 14.4809 14.44 10.9155
494 2 14.7481 12.7129 10.5628
495 2 13.4307 13.2071 11.6236
496 4 14.7355 10.2403 13.5174
497 3 16.2145 9.56298 14.0899
498 1 13.453 9.65407 14.7171
499 2 13.2569 8.59267 14.5798
500 2 13.9215 9.79983 15.721
501 1 14.2727 9.60185 11.7558
502 2 13.9538 8.54918 11.691
503 2 13.3159 10.1095 11.5264
504 2 15.0064 9.84682 10.9785
505 4 17.7852 9.39335 14.3787
506 3 18.1027 7.7891 14.5696
507 1 18.8857 9.93834 12.9522
508 2 18.3333 9.70379 12.0648
509 2 18.8936 11.0486 12.8934
510 2 19.8909 9.57586 13.0313
511 1 18.5166 10.4433 15.9612
512 2 18.4866 11.3455 15.314
513 2 17.7875 10.0977 16.6239
514 2 19.5082 10.1858 15.819
515 4 17.5326 6.35431 15.0214
516 1 15.6725 6.69517 15.0714
517 2 15.4766 7.18166 14.0968
518 2 14.9558 5.84232 15.0211
519 2 15.323 7.37858 15.8814
520 1 17.6264 4.80032 14.0183
521 2 17.8208 3.91647 14.6005
522 2 16.6509 4.71694 13.5348
523 2 18.3628 4.74684 13.2289
ITEM: TIMESTEP
9500
ITEM: NUMBER OF ATOMS
523
ITEM: BOX BOUNDS pp pp pp
5.9857428911385568e-02 2.1940142571088721e+01
5.1912614950149205e-02 1.9028050385049841e+01
5.4415844464895002e-02 1.9945584155535077e+01
ITEM: ATOMS id type x y z
1 4 5.7439 4.0943 3.29349
2 3 6.42071 5.75199 3.3785
3 1 0.210622 1.7007 11.2676
4 2 19.6058 18.0818 12.8563
5 2 4.07792 15.0215 19.9289
6 2 20.9539 1.64062 10.7014
7 1 20.4988 7.9424 7.69914
8 2 21.0204 2.36434 11.7939
9 2 20.4762 8.94432 7.34668
10 2 21.3879 7.38503 7.38269
11 4 7.16644 6.56351 2.07204
12 3 6.8101 6.10383 0.667722
13 1 7.04888 8.86891 3.81861
14 2 9.2642 8.69785 0.896071
15 2 6.45603 8.57727 4.69866
16 2 6.91607 10.0369 3.41412
17 1 7.69192 8.2196 2.67233
18 2 19.6486 11.0104 9.4708
19 2 19.175 4.28881 17.4055
20 2 16.6116 18.3343 1.91299
21 4 6.03339 4.5316 19.9057
22 3 5.8679 3.99036 1.54857
23 1 7.45631 3.64021 18.9622
24 2 6.61725 3.71163 18.019
25 2 8.0459 4.5742 18.4467
26 2 7.69948 2.33848 19.1239
27 1 4.77286 4.87761 18.5868
28 2 5.0742 5.89523 18.2164
29 2 5.22002 4.13057 17.9493
30 2 3.64153 4.29725 18.5499
31 4 6.20775 1.40231 4.9029
32 3 4.51778 1.3044 4.68396
33 1 0.59501 4.10773 1.2804
34 2 19.4017 0.674254 11.6377
35 2 1.48693 4.47479 0.609543
36 2 16.9765 17.093 5.02518
37 1 7.21465 2.73919 3.78311
38 2 21.7457 3.40314 1.06846
39 2 16.9907 6.60478 1.56579
40 2 7.71168 2.21779 2.88842
41 4 3.74577 0.160493 3.81907
42 3 4.88612 17.6598 3.95148
43 1 3.22714 0.810915 2.12091
44 2 2.45346 18.8785 4.10842
45 2 2.11333 0.629052 1.82093
46 2 21.2023 14.4824 2.33048
47 1 10.7073 6.28516 0.522086
48 2 9.74294 6.76104 0.814572
49 2 11.1631 6.30484 1.35655
50 2 10.8946 7.02934 19.6947
51 4 6.41494 18.1555 3.79815
52 1 11.9961 0.754167 16.8088
53 2 12.2985 0.264815 17.8425
54 2 6.93689 17.8866 2.41756
55 2 11.1189 1.56594 16.6671
56 1 11.242 18.5614 3.89682
57 2 16.9763 2.17671 18.3779
58 2 11.8602 18.9173 16.1968
59 2 3.45238 1.79819 1.43877
60 4 11.4968 17.419 2.66342
61 3 14.6725 3.82971 13.9939
62 1 10.8139 3.54384 6.14204
63 2 10.9136 2.72089 5.496
64 2 9.81289 3.4355 6.60323
65 2 10.8228 4.60301 5.69976
66 1 15.3312 2.99137 14.2842
67 2 12.2582 15.6795 15.6378
68 2 2.803 17.7881 15.528
69 2 11.6617 3.6486 6.87051
70 4 14.4834 17.0691 0.647339
71 3 14.0462 15.7397 1.34083
72 1 13.5875 18.2178 1.67869
73 2 11.0289 0.742645 13.6737
74 2 10.5597 18.3648 5.02639
75 2 13.684 19.1524 0.881876
76 1 14.2553 17.0308 18.4275
77 2 13.692 17.822 17.6559
78 2 15.029 16.8886 17.7812
79 2 13.2945 16.3401 18.0653
80 4 12.7753 15.1555 2.17148
81 3 13.0378 13.5642 2.04517
82 1 14.8729 13.6068 17.8695
83 2 14.9711 13.9342 18.9651
84 2 14.036 12.7643 17.6225
85 2 15.9033 13.5867 17.5089
86 1 11.0834 15.9384 1.84933
87 2 3.87173 13.4925 1.90999
88 2 10.111 15.5418 1.75304
89 2 9.36842 17.1255 15.2395
90 4 12.7789 12.0318 2.58913
91 3 11.344 12.0892 3.26872
92 1 14.2259 11.8348 3.71716
93 2 15.2453 12.0906 3.37491
94 2 14.0505 12.2157 4.74353
95 2 14.5212 10.7812 3.6447
96 1 12.3863 10.5522 1.729
97 2 10.8158 2.99823 19.1493
98 2 14.2386 14.3398 17.4589
99 4 10.8856 10.5262 2.74106
100 3 9.4668 10.7331 2.14778
101 1 4.70429 13.2001 2.55483
102 2 5.07908 12.2289 2.41882
103 2 4.22856 13.2729 3.48149
104 2 5.45053 14.0165 2.26281
105 1 10.5593 9.79103 4.44448
106 2 10.9393 8.79126 4.55714
107 2 11.1486 10.3748 5.19765
108 2 9.51332 9.60499 4.89457
109 4 8.30215 9.57943 1.45543
110 1 7.01375 10.7069 0.954945
111 2 7.36838 11.3504 20.1043
112 2 6.23757 9.98844 0.180804
113 2 6.11194 11.7465 1.18442
114 1 10.8498 1.79519 13.7314
115 2 10.9332 2.41608 12.7319
116 2 9.95532 2.3528 14.1977
117 2 11.7384 2.12585 14.3442
118 4 19.2375 13.4848 0.928326
119 3 19.8777 11.9003 1.05605
120 1 20.6947 14.6873 1.53102
121 2 19.8333 13.9243 18.8416
122 2 20.6714 15.8645 1.25158
123 2 4.4648 17.0783 17.8631
124 1 18.7208 13.8985 19.1716
125 2 18.1465 12.9397 18.7799
126 2 18.5897 14.9331 19.2741
127 2 2.50716 5.56015 4.37266
128 4 19.5942 10.6857 19.8548
129 3 18.2969 9.71719 0.644287
130 1 17.8966 13.4384 2.22402
131 2 16.9754 12.6138 2.17934
132 2 18.6257 13.5362 3.02716
133 2 17.7608 14.4969 2.3015
134 1 9.6892 0.282609 10.6743
135 2 8.46793 -0.11246 10.8863
136 2 9.37021 1.59302 11.4863
137 2 10.2011 18.8065 11.6065
138 4 17.4846 9.25328 1.9743
139 3 15.723 9.42775 1.9701
140 1 17.8235 7.26924 1.99857
141 2 17.9875 7.0099 2.98422
142 2 18.7474 6.90447 1.45196
143 2 13.4912 17.5077 11.8583
144 1 18.1358 9.79185 3.59045
145 2 18.2517 10.8978 3.76124
146 2 17.2333 9.91579 4.21496
147 2 19.0375 9.21065 3.90186
148 4 14.7898 9.04921 0.67825
149 3 14.6808 7.45164 0.334408
150 1 12.929 9.60498 0.958733
151 2 7.01267 17.3156 4.84115
152 2 12.3644 9.20135 0.0282699
153 1 15.682 9.55258 18.9319
154 2 15.9149 10.6689 19.5529
155 2 16.2866 8.7164 18.3737
156 2 15.1749 10.184 18.1767
157 4 15.1919 6.24807 19.2896
158 3 16.6241 6.28892 18.6331
159 1 13.7289 6.01776 17.8215
160 2 14.3686 6.73659 16.818
161 2 13.4858 4.9994 17.4236
162 2 12.5938 6.6953 18.3305
163 1 14.866 4.7215 0.225662
164 2 15.3718 3.70751 19.9396
165 2 15.4975 5.00475 1.11928
166 2 13.8894 4.49792 0.52535
167 4 18.0899 6.04701 17.9725
168 1 18.3674 4.17378 18.1298
169 2 16.4899 2.18084 18.8813
170 2 18.5892 3.70762 19.1837
171 2 17.591 3.42998 17.7523
172 1 19.7625 7.05335 18.6791
173 2 20.6906 6.22488 18.7452
174 2 19.8404 7.75598 17.8152
175 2 19.3661 7.50786 19.6651
176 4 3.01465 17.3542 9.05878
177 3 3.35724 16.0252 8.28272
178 1 4.1869 18.7484 8.99634
179 2 4.16441 0.826721 8.59673
180 2 4.9474 19.0429 9.85507
181 2 4.91786 18.5202 8.0505
182 1 1.25355 17.8113 8.99793
183 2 0.659408 17.5408 8.03567
184 2 0.956268 16.9878 9.70964
185 2 1.17678 18.8191 9.44004
186 4 3.38098 14.6736 7.28682
187 3 2.58856 13.4562 7.91635
188 1 5.21183 14.3329 7.13638
189 2 5.59655 13.2876 7.16587
190 2 5.64022 14.6312 6.16638
191 2 5.76952 14.7035 8.00729
192 1 2.29204 15.158 5.83157
193 2 2.90303 15.6 5.04473
194 2 1.70503 14.3099 5.49238
195 2 1.68386 15.9256 6.30957
196 4 2.66153 12.4441 9.27564
197 3 2.73848 10.8981 8.8655
198 1 1.08494 12.7664 10.281
199 2 1.0921 13.8589 10.4108
200 2 0.116524 12.6023 9.83598
201 2 1.31802 12.2903 11.2316
202 1 3.96232 12.9658 10.4887
203 2 4.84819 13.3184 10.0225
204 2 3.48569 13.5869 11.2419
205 2 4.19976 11.983 10.8711
206 4 3.0424 10.0334 7.4853
207 3 3.34313 8.44656 7.86526
208 1 1.46462 10.3295 6.46394
209 2 1.33249 9.63057 5.68488
210 2 0.63622 10.1636 7.21455
211 2 1.48954 11.4273 6.30873
212 1 4.62555 10.8034 6.55878
213 2 4.15231 11.4344 5.82483
214 2 5.25372 11.4135 7.18594
215 2 5.13259 10.016 6.03098
216 4 3.9324 6.96334 8.06468
217 3 4.76083 7.00106 9.51059
218 1 2.43135 5.84373 8.20819
219 2 1.96476 5.59171 7.27757
220 2 2.65841 4.96847 8.85209
221 2 1.71056 6.40928 8.78247
222 1 5.3171 6.87697 6.815
223 2 6.19427 7.06269 7.41743
224 2 5.51774 5.87586 6.36794
225 2 5.15185 7.61506 6.00272
226 4 5.85077 6.08393 10.3817
227 1 7.02197 5.12344 9.23617
228 2 7.9143 5.68978 8.9709
229 2 7.50153 4.41272 9.93643
230 2 6.54908 4.63433 8.37232
231 1 7.04078 7.11698 11.4887
232 2 7.51334 7.91153 10.8999
233 2 6.43526 7.56649 12.3007
234 4 9.52527 18.4076 8.80436
235 3 9.38375 16.856 8.53583
236 1 8.21767 0.433307 8.03244
237 2 8.52 1.00915 7.03893
238 2 7.09396 0.752728 7.60231
239 2 8.47461 1.42978 8.81149
240 1 11.3253 18.7461 8.28558
241 2 11.8098 17.9114 7.64908
242 2 11.7432 0.863277 8.4013
243 2 11.4049 18.5571 9.69904
244 4 9.82545 15.491 9.13099
245 3 9.85873 14.4793 7.79452
246 1 11.311 15.242 10.251
247 2 11.4506 16.1004 10.9064
248 2 10.9758 14.3356 10.7934
249 2 12.2099 14.9579 9.69828
250 1 8.32172 14.8043 9.93061
251 2 7.74533 15.3042 10.686
252 2 7.52102 14.737 9.12004
253 2 8.6237 13.7952 10.2764
254 4 10.2547 13.3105 6.71174
255 3 9.97195 11.7567 7.29181
256 1 12.1016 13.3029 6.19541
257 2 12.6044 12.3725 6.49525
258 2 12.2873 13.3448 5.12048
259 2 12.8042 14.1067 6.46551
260 1 9.15203 13.7246 5.36935
261 2 9.68538 14.5431 4.80259
262 2 9.00322 12.9171 4.61927
263 2 8.15478 14.0667 5.75995
264 4 10.5643 10.435 8.19845
265 3 12.0144 9.67263 7.73424
266 1 9.19199 9.14284 8.2621
267 2 9.27969 8.45968 7.39932
268 2 9.2621 8.50644 9.15061
269 2 8.19624 9.57729 8.09596
270 1 11.0964 11.3139 9.82269
271 2 10.2861 11.9155 10.3041
272 2 11.4195 10.6371 10.6324
273 2 11.9648 11.9435 9.60212
274 4 13.5575 9.25917 8.11555
275 3 14.4931 8.79795 6.8746
276 1 13.6159 7.85018 9.25641
277 2 13.4086 8.21447 10.2685
278 2 13.0701 6.92598 9.12678
279 2 14.6996 7.62253 9.27962
280 1 14.4175 10.854 8.48631
281 2 15.4969 10.7958 8.61508
282 2 14.3881 11.4661 7.58437
283 2 13.9352 11.3777 9.31013
284 4 14.3763 7.51592 5.83329
285 1 12.7779 6.98058 5.40393
286 2 12.7351 6.33697 4.5301
287 2 11.8775 7.17913 5.99274
288 1 15.7728 7.29727 4.71865
289 2 16.7053 7.67256 5.16199
290 2 15.7801 6.24226 4.4523
291 2 15.6018 7.84319 3.78693
292 4 18.912 7.28104 8.48617
293 3 18.3805 6.21749 7.33542
294 1 17.9736 8.89785 8.87133
295 2 17.1234 8.64093 9.5001
296 2 18.7137 9.58525 9.39568
297 2 17.4311 9.45288 7.95833
298 1 18.4034 6.25249 9.8437
299 2 1.30633 13.5739 17.6343
300 2 4.31401 17.003 19.4272
301 2 17.7313 6.59296 10.8467
302 4 18.1494 4.98661 8.68131
303 3 16.7037 4.21677 8.69404
304 1 19.0739 3.20159 8.29845
305 2 20.4404 10.2914 16.4418
306 2 17.8944 2.78957 14.6796
307 2 1.88688 1.96211 14.3177
308 1 18.874 0.238532 12.6432
309 2 17.851 0.490039 12.6331
310 2 19.2454 0.901309 13.4636
311 2 19.1258 18.3119 13.4541
312 4 15.6715 3.03056 8.21264
313 3 16.0335 1.46307 8.01044
314 1 14.2526 2.6718 9.49772
315 2 14.3108 3.31956 10.4285
316 2 13.2926 3.20541 9.15952
317 2 14.0345 1.6455 9.40552
318 1 15.1589 3.64586 6.64327
319 2 14.88 2.79414 5.97135
320 2 14.3189 4.33133 6.9006
321 2 16.0156 4.02561 6.05726
322 4 17.4743 0.690216 7.3579
323 3 16.9281 0.536922 5.89852
324 1 18.5732 2.19868 7.4947
325 2 19.2008 18.6862 8.85835
326 2 1.78092 2.6052 14.4952
327 2 19.9335 3.04726 9.19711
328 1 18.3602 18.2426 8.16781
329 2 18.4847 17.3229 7.30061
330 2 6.0088 1.90532 15.8406
331 2 19.5845 2.71474 0.602087
332 4 15.9938 18.0123 5.62488
333 3 15.0861 17.9918 4.23345
334 1 8.50197 3.14173 4.41832
335 2 8.74354 3.76091 3.59371
336 2 8.52805 3.57794 5.39419
337 2 9.38112 2.34595 4.45135
338 1 14.7776 17.7227 6.99338
339 2 15.1464 16.7137 7.42981
340 2 15.1795 18.4703 7.88614
341 2 13.7868 17.444 6.58657
342 4 15.1671 18.5646 2.68412
343 1 17.0699 2.26029 14.435
344 2 17.3096 2.00515 13.1225
345 2 17.3025 1.01597 14.5134
346 2 14.7527 0.928424 2.89361
347 1 11.6106 0.219584 5.1201
348 2 11.0503 17.0884 4.27247
349 2 10.0096 5.48535 -0.0354637
350 2 12.1579 15.1013 16.3097
351 4 0.982483 15.0918 17.4848
352 3 1.00944 13.8763 16.0897
353 1 4.38276 16.2741 18.619
354 2 20.7095 15.243 4.70372
355 2 5.37947 16.2562 18.4806
356 2 2.68985 18.5572 15.1188
357 1 3.81652 14.9785 18.5505
358 2 21.5818 15.0848 4.56664
359 2 20.865 12.953 8.38435
360 2 2.53986 15.0153 18.2977
361 4 1.55247 12.4781 15.3587
362 3 0.341944 11.4075 15.6229
363 1 2.14048 13.0689 13.6517
364 2 1.62816 13.9886 13.7119
365 2 1.70874 12.25 12.9538
366 2 3.12478 13.5623 13.6349
367 1 21.2288 15.8153 18.4612
368 2 5.65454 2.62216 15.8966
369 2 20.2681 15.078 17.8481
370 2 20.5446 16.4183 19.2629
371 4 0.378183 9.70849 16.1166
372 3 1.04843 8.9399 14.7071
373 1 3.16278 6.83169 4.39879
374 2 3.7193 6.84169 5.31932
375 2 3.97276 6.70123 3.46417
376 2 2.45735 7.63668 4.22482
377 1 1.37848 9.04072 17.6463
378 2 1.0822 8.03609 18.0416
379 2 2.32115 8.83978 17.0405
380 2 1.46328 9.77497 18.4991
381 4 1.63345 8.56156 13.2756
382 3 2.61699 7.24607 13.3708
383 1 3.03809 9.9468 13.4308
384 2 3.87447 9.58697 14.027
385 2 3.58032 10.2996 12.518
386 2 2.73338 10.9232 13.8818
387 1 0.481613 8.4611 11.9076
388 2 21.0466 7.89162 12.0758
389 2 0.133053 9.41922 11.438
390 2 0.974825 7.9058 10.8603
391 4 3.08318 5.93402 14.1501
392 3 4.145 5.18111 13.123
393 1 4.18202 6.17378 15.6726
394 2 4.29166 5.16518 16.1285
395 2 5.19579 6.45092 15.4673
396 2 3.81382 6.68082 16.5807
397 1 1.55591 5.1334 14.9578
398 2 1.31693 5.79926 15.8751
399 2 0.680013 5.07083 14.3136
400 2 1.67949 4.21188 15.506
401 4 4.96004 4.54245 11.9207
402 1 3.86828 3.12386 11.5606
403 2 2.95442 3.19351 12.1709
404 2 3.52762 3.09603 10.5233
405 2 4.35616 2.1457 11.8188
406 1 6.63213 3.74358 12.6282
407 2 7.20796 3.34063 11.7544
408 2 6.39913 2.90048 13.2744
409 4 8.07543 16.5998 14.7839
410 3 7.72778 15.4354 15.8518
411 1 6.8938 18.0256 15.1794
412 2 6.66114 18.5624 14.175
413 2 5.91266 17.69 15.7466
414 2 7.37652 18.6234 16.061
415 1 8.00389 15.798 13.0868
416 2 8.50029 16.4159 12.4138
417 2 8.41423 14.7853 13.023
418 2 6.9749 15.803 12.8957
419 4 7.75623 13.8213 16.2574
420 3 8.00483 12.7947 15.0261
421 1 8.92966 13.9416 17.6986
422 2 9.42881 12.9458 17.8289
423 2 9.68101 14.7495 17.6235
424 2 8.35999 14.0999 18.6387
425 1 5.96515 13.5844 16.8409
426 2 6.00586 13.4036 17.9456
427 2 5.25937 14.3667 16.5241
428 2 5.47905 12.6293 16.5519
429 4 7.96119 11.2028 14.6255
430 3 9.49957 10.6635 14.8417
431 1 7.48421 11.2318 12.775
432 2 7.14677 10.3339 12.2102
433 2 6.70164 12.0279 12.4892
434 2 8.41813 11.5783 12.2956
435 1 7.01944 10.0951 15.8252
436 2 6.04006 10.4478 16.1752
437 2 6.83581 9.11768 15.3457
438 2 7.61156 9.94385 16.7561
439 4 10.9011 10.1692 15.5204
440 3 10.8351 8.55295 15.1744
441 1 11.2249 10.3144 17.3038
442 2 11.5702 9.40865 17.8138
443 2 10.6171 3.30025 19.987
444 2 11.1169 11.2214 17.8727
445 1 12.3875 10.7087 14.4902
446 2 12.0289 10.8582 13.4687
447 2 12.7443 11.7173 14.7522
448 4 9.85651 7.24768 15.1019
449 3 8.98288 7.24337 13.6158
450 1 8.48272 7.05043 16.3444
451 2 8.30365 6.02935 16.6903
452 2 8.6776 7.69923 17.1859
453 2 7.56026 7.35067 15.8167
454 1 10.7993 5.56359 15.2968
455 2 11.2598 5.24976 14.344
456 2 11.5064 5.434 16.1156
457 2 9.95552 4.85268 15.3891
458 4 8.38806 6.12068 12.5272
459 1 7.36345 4.84772 13.4988
460 2 6.63766 5.39081 14.1305
461 2 7.97408 4.27334 14.2367
462 1 9.88314 5.71721 11.5611
463 2 10.0582 6.66267 11.017
464 2 10.7914 5.51572 12.1539
465 2 9.83086 4.93338 10.8035
466 4 19.4946 12.2751 8.64131
467 3 18.6487 13.4293 9.55885
468 1 18.8521 12.0421 7.0073
469 2 19.4936 11.6425 6.31654
470 2 17.8815 12.278 6.75316
471 2 18.8569 2.40897 0.851015
472 1 14.1195 18.3587 12.0679
473 2 15.0683 18.2124 11.6071
474 2 14.3319 18.7335 13.117
475 2 13.9113 0.385867 11.3742
476 4 18.3399 14.2519 11.0134
477 3 17.2787 13.3258 11.9492
478 1 19.7255 15.0866 12.1155
479 2 19.0693 15.4726 12.9351
480 2 20.5447 14.49 12.6969
481 2 20.1964 15.8678 11.5629
482 1 17.3869 15.8185 10.3021
483 2 17.5453 16.7661 10.8646
484 2 17.8536 16.0386 9.34577
485 2 16.3637 15.5181 9.93402
486 4 15.7015 13.4314 12.6179
487 3 15.3839 12.152 13.684
488 1 15.5408 14.9305 13.6097
489 2 15.786 15.8776 13.055
490 2 14.5247 15.0596 13.9906
491 2 16.2216 15.092 14.4571
492 1 14.4087 13.663 11.2414
493 2 14.2135 12.8504 10.5144
494 2 13.4556 13.6826 11.8039
495 2 14.5526 14.6732 10.7991
496 4 15.1477 10.4841 13.5729
497 3 16.3197 9.59209 14.1805
498 1 13.672 9.82044 14.5382
499 2 13.5238 8.76796 14.1868
500 2 14.0028 9.77296 15.6205
501 1 15.1298 9.88171 11.8922
502 2 14.8137 8.80149 11.8479
503 2 14.3617 10.4789 11.3681
504 2 16.1435 9.83683 11.4235
505 4 17.8958 9.72615 14.8222
506 3 18.1104 8.28036 15.6971
507 1 18.9372 10.1903 13.3555
508 2 19.6955 9.40313 13.2424
509 2 18.3796 9.86593 12.4203
510 2 19.1771 11.2085 13.2081
511 1 17.897 11.1011 16.2402
512 2 17.3954 10.693 17.1285
513 2 18.9543 11.4229 16.2076
514 2 17.2724 11.6377 15.5061
515 4 18.3421 6.69735 15.7244
516 1 17.2037 6.14688 14.2023
517 2 17.7859 6.01002 13.2865
518 2 16.5275 5.28198 14.3786
519 2 16.5066 7.02554 14.0874
520 1 20.2095 6.46103 15.4355
521 2 20.3775 6.55318 14.351
522 2 20.6362 7.35982 15.8422
523 2 20.5297 5.48634 15.7985
ITEM: TIMESTEP
10000
ITEM: NUMBER OF ATOMS
523
ITEM: BOX BOUNDS pp pp pp
6.7563676325589128e-02 2.1932436323674480e+01
5.8596020201562737e-02 1.9021366979798437e+01
6.1421523932340349e-02 1.9938578476067640e+01
ITEM: ATOMS id type x y z
1 4 6.50481 4.56751 3.59984
2 3 8.17368 5.42257 2.91416
3 1 1.50265 1.73263 12.2759
4 2 20.7331 1.22159 12.8399
5 2 19.9815 16.7792 0.459691
6 2 2.31015 1.60235 11.5995
7 1 20.8479 8.02274 8.16253
8 2 0.359509 1.92724 12.1408
9 2 21.9802 7.87607 8.46861
10 2 20.7927 9.05133 8.10143
11 4 7.5598 6.89602 2.33177
12 3 6.50824 6.55495 1.03614
13 1 7.19388 8.73402 4.37717
14 2 8.76741 8.31315 0.880459
15 2 7.27761 8.04517 5.19589
16 2 6.99349 9.71038 4.61405
17 1 7.4024 8.47102 2.9877
18 2 19.5354 12.4863 8.05522
19 2 19.5323 3.92142 17.4128
20 2 16.3523 16.6943 19.9541
21 4 5.32676 4.99336 0.992341
22 3 5.83 3.86583 2.21543
23 1 5.76489 4.21752 19.0567
24 2 4.98608 4.48277 18.3502
25 2 6.87328 4.27691 18.8122
26 2 5.57467 3.18165 19.1187
27 1 3.57999 5.6733 1.19362
28 2 3.31375 5.79713 19.8807
29 2 2.83754 4.93096 1.5289
30 2 2.86896 6.44756 1.42152
31 4 6.38903 1.87117 4.60688
32 3 4.7277 2.48719 4.59396
33 1 21.6235 4.04368 19.79
34 2 21.4213 18.1297 13.4608
35 2 21.309 4.21395 0.783404
36 2 17.449 16.6154 5.49852
37 1 7.71777 3.19808 4.26596
38 2 21.677 2.98809 19.8937
39 2 18.3382 7.00358 4.05803
40 2 8.08037 2.66691 3.35118
41 4 3.95652 1.37003 3.56593
42 3 5.03276 0.105057 3.64057
43 1 2.85952 2.08904 2.36962
44 2 2.98814 0.7238 5.16913
45 2 2.20804 2.72274 2.60667
46 2 20.3152 14.1548 2.2548
47 1 10.9975 5.5627 18.5817
48 2 11.0985 6.21681 19.4083
49 2 11.8745 5.84266 17.49
50 2 10.1919 6.45046 18.0065
51 4 6.12756 17.6945 3.23827
52 1 12.837 2.65499 17.0776
53 2 13.4203 2.05697 16.0375
54 2 7.37647 18.1998 2.59638
55 2 13.0598 2.20348 18.1392
56 1 9.9526 17.38 3.59024
57 2 19.087 2.70955 1.84204
58 2 12.4285 3.43957 17.0481
59 2 2.17213 1.78736 1.54268
60 4 11.7241 17.2795 1.72775
61 3 14.3212 4.7381 12.8585
62 1 10.3656 3.53763 8.49519
63 2 10.8246 4.46636 8.21096
64 2 10.6061 3.31362 9.52893
65 2 10.6287 2.7131 7.78422
66 1 13.2709 4.75189 13.0739
67 2 11.8438 14.8437 15.2595
68 2 6.46249 18.8092 0.385189
69 2 9.31598 3.66207 8.33457
70 4 14.653 16.5484 0.460976
71 3 13.9898 15.0467 0.387693
72 1 13.2516 16.5864 2.76426
73 2 10.0265 1.84847 14.9495
74 2 8.91557 17.5963 5.86271
75 2 12.8179 15.972 3.47524
76 1 13.7859 18.06 19.475
77 2 12.9541 18.5537 19.847
78 2 14.3591 18.9912 19.7777
79 2 13.4408 17.8916 18.4516
80 4 12.559 14.2566 0.640085
81 3 12.7943 12.7442 1.28421
82 1 14.83 13.9899 17.0677
83 2 14.2226 13.1308 17.1877
84 2 14.0785 14.7074 16.512
85 2 15.5434 13.5543 16.4621
86 1 10.9994 15.7142 2.43291
87 2 2.38228 15.5393 0.682411
88 2 11.2357 15.3027 3.43175
89 2 9.03996 17.0064 15.966
90 4 13.0284 11.7069 2.49764
91 3 11.6962 11.3961 3.47782
92 1 14.596 12.2763 3.31482
93 2 15.4817 11.6366 3.17506
94 2 14.5659 13.2962 3.04547
95 2 14.459 12.1519 4.39016
96 1 12.8301 9.84325 1.75835
97 2 12.4393 5.59189 1.73621
98 2 14.7858 14.8113 17.7823
99 4 11.4448 9.75938 2.84634
100 3 10.1691 9.88263 1.84531
101 1 3.15707 15.0438 1.40203
102 2 2.95735 14.0802 1.70739
103 2 3.41272 15.6818 2.22366
104 2 4.08689 14.8285 0.761739
105 1 10.9495 8.24767 3.90866
106 2 11.6735 8.02463 4.73887
107 2 9.89232 8.31483 4.3481
108 2 10.7666 7.44771 3.2418
109 4 8.32669 9.66485 1.69667
110 1 7.34873 11.2292 1.73446
111 2 8.29691 11.9974 1.0801
112 2 6.03222 11.6596 1.1236
113 2 7.19949 11.6037 2.68119
114 1 9.55944 2.56885 15.6678
115 2 10.1841 2.23491 16.5736
116 2 10.045 3.54642 15.6447
117 2 8.43779 2.48 15.7264
118 4 18.6266 13.2395 1.49083
119 3 18.2932 11.5861 1.47357
120 1 20.4569 13.2618 1.65877
121 2 17.2514 14.4884 0.599877
122 2 21.5852 13.1433 1.3389
123 2 4.44732 17.9838 19.4823
124 1 18.004 14.0218 19.669
125 2 18.4618 14.9248 19.2736
126 2 17.4046 13.2093 19.1238
127 2 0.527519 2.20816 6.32209
128 4 19.5373 10.585 1.0011
129 3 19.0352 9.32444 2.02077
130 1 17.7398 13.8993 2.92796
131 2 16.6974 14.1384 2.63281
132 2 18.0027 13.1383 3.71745
133 2 18.0949 14.9159 2.93484
134 1 9.94232 18.9044 11.7356
135 2 9.47219 0.650317 11.6322
136 2 10.7347 18.9751 11.2045
137 2 10.3619 0.259993 12.7637
138 4 17.5985 8.59955 2.44882
139 3 16.2975 8.75603 1.42487
140 1 17.8061 6.8512 3.06511
141 2 18.3209 6.04851 2.47536
142 2 16.7009 6.42857 3.16094
143 2 12.5801 17.3871 13.5287
144 1 16.854 9.25748 4.093
145 2 17.3787 9.01228 5.06733
146 2 16.9202 10.429 4.19591
147 2 15.978 8.60078 4.02893
148 4 15.2195 8.74411 0.116472
149 3 14.8609 7.08374 19.5921
150 1 13.4379 9.06949 0.845258
151 2 6.40878 17.6472 4.78189
152 2 12.771 8.33839 0.486157
153 1 15.4929 9.75685 18.5262
154 2 15.8421 10.754 18.3984
155 2 16.1825 9.01164 18.0394
156 2 14.7268 9.8018 17.6659
157 4 15.871 5.97522 19.088
158 3 17.4068 6.07792 18.6841
159 1 15.4217 5.65016 16.9955
160 2 15.7418 4.74248 16.7613
161 2 14.5188 5.7819 16.6184
162 2 15.932 6.39294 16.5065
163 1 15.5131 4.29446 19.5786
164 2 16.1287 3.82303 18.7697
165 2 15.2345 4.4366 0.782728
166 2 14.6131 4.08331 18.954
167 4 18.6036 5.77087 17.5335
168 1 18.4763 4.00893 17.0978
169 2 19.9214 2.62166 1.78312
170 2 17.6222 3.27366 17.6033
171 2 18.267 3.53893 16.0397
172 1 20.3935 6.3077 18.223
173 2 21.0695 5.29558 18.2882
174 2 20.5029 7.07982 17.5581
175 2 20.2666 6.44301 19.2632
176 4 2.89805 17.1475 8.19438
177 3 3.69503 16.0449 7.26963
178 1 4.19037 17.7108 9.81796
179 2 5.0521 16.999 10.2003
180 2 4.3631 18.728 9.31902
181 2 3.45881 17.7185 10.8048
182 1 2.04457 18.7186 7.42423
183 2 1.69089 18.3867 6.42183
184 2 1.08911 18.8197 7.92153
185 2 2.49722 0.572644 6.89322
186 4 3.74419 14.546 6.47582
187 3 3.82826 13.187 7.47319
188 1 5.16928 14.4197 5.33217
189 2 4.97351 14.7873 4.30913
190 2 6.10709 14.6414 5.87729
191 2 5.16665 13.307 5.15257
192 1 2.19924 14.3756 5.41136
193 2 1.94776 14.9798 4.50424
194 2 2.35953 13.2988 5.16726
195 2 1.24146 14.3372 6.00148
196 4 2.99903 12.699 8.92042
197 3 2.97895 10.999 8.96083
198 1 1.25898 13.4404 9.1051
199 2 1.05104 14.5076 8.90784
200 2 0.550644 12.9072 8.43899
201 2 0.831187 13.3759 10.1442
202 1 4.1558 13.1738 10.2946
203 2 5.13029 12.7682 10.0875
204 2 4.21949 14.2637 10.4409
205 2 3.97123 12.7188 11.2937
206 4 3.14268 9.80043 7.82491
207 3 3.16257 8.302 8.67769
208 1 1.77034 10.3452 6.61516
209 2 1.5758 9.7372 5.73202
210 2 0.681445 10.5263 6.95545
211 2 2.11651 11.3606 6.27797
212 1 4.69395 9.85531 6.71766
213 2 4.85915 8.91478 6.13237
214 2 4.55136 10.6524 5.93786
215 2 5.73049 9.95353 7.18411
216 4 3.57992 6.63541 8.5404
217 3 5.02317 6.4673 9.36858
218 1 2.15677 5.93302 9.51609
219 2 1.54203 5.36307 8.83821
220 2 2.41751 5.3713 10.4159
221 2 1.51651 6.73388 9.8753
222 1 4.01695 5.8366 6.88284
223 2 5.06222 5.58932 6.95221
224 2 3.39969 4.90646 6.67769
225 2 3.86389 6.40584 5.95925
226 4 6.2068 5.56994 10.1682
227 1 7.05347 4.47772 8.90891
228 2 7.7366 5.07158 8.27984
229 2 7.64287 3.71794 9.45279
230 2 6.41773 3.7849 8.34429
231 1 7.51621 6.71615 10.9988
232 2 8.21071 7.0093 10.1957
233 2 6.99743 7.61091 11.3563
234 4 9.72156 18.2476 9.9805
235 3 8.81297 16.6677 10.1116
236 1 8.64095 0.388921 9.17041
237 2 7.70875 18.6874 9.10827
238 2 7.99607 1.29032 9.77811
239 2 9.15657 0.737219 8.08326
240 1 11.2673 18.258 8.65042
241 2 12.0197 0.20697 7.84607
242 2 11.8624 17.5109 8.74708
243 2 10.6518 18.2039 7.86576
244 4 9.07294 15.091 9.47562
245 3 9.79751 14.9788 7.95431
246 1 10.3187 14.1415 10.4713
247 2 11.2871 14.4516 10.0443
248 2 10.3722 14.1823 11.5593
249 2 10.2092 13.0596 10.247
250 1 7.2594 14.5163 9.54202
251 2 6.88623 14.6809 10.5463
252 2 6.70962 15.2915 8.94297
253 2 7.04844 13.474 9.30352
254 4 10.1779 13.5862 7.1257
255 3 9.89091 12.1655 8.03178
256 1 12.0958 13.6046 6.86469
257 2 12.5161 12.6566 6.4465
258 2 12.1811 14.5895 6.38298
259 2 12.4225 13.7629 7.91714
260 1 9.11286 13.7895 5.66291
261 2 9.28027 14.7851 5.28298
262 2 9.39523 13.074 4.84675
263 2 8.04016 13.5045 5.75392
264 4 10.2426 10.5285 8.34591
265 3 11.8237 10.3232 8.06111
266 1 9.12545 9.35725 7.33936
267 2 8.28909 9.98798 6.96663
268 2 9.64093 8.89463 6.47359
269 2 8.66696 8.56413 7.96477
270 1 9.69118 9.98392 10.1197
271 2 8.58748 9.85336 10.0736
272 2 10.0876 8.98752 10.3537
273 2 9.8986 10.7149 10.9144
274 4 13.1612 9.32897 8.20394
275 3 13.0055 8.4395 6.79934
276 1 12.9159 8.22917 9.68235
277 2 12.4032 8.83588 10.4297
278 2 12.2317 7.41115 9.46762
279 2 13.8838 7.93648 10.1178
280 1 14.5829 10.4148 8.35392
281 2 15.4881 9.92134 7.97837
282 2 14.4996 11.3763 7.84395
283 2 14.6175 10.5733 9.44842
284 4 13.3473 6.81832 6.63352
285 1 12.0582 5.77985 6.07831
286 2 12.066 4.70334 5.98597
287 2 11.0286 6.10477 6.22601
288 1 14.8124 6.89949 5.45915
289 2 15.4045 5.99127 5.55112
290 2 14.4202 7.05763 4.44577
291 2 15.4801 7.72786 5.66938
292 4 19.6252 6.56031 8.39958
293 3 18.4057 6.68994 7.22095
294 1 18.593 7.19861 9.78942
295 2 19.0463 6.93088 10.7241
296 2 18.736 8.31868 9.62431
297 2 17.5376 7.27208 9.85159
298 1 19.8939 4.90416 8.26379
299 2 2.5157 6.90367 3.08294
300 2 5.59514 0.750221 18.7927
301 2 20.6984 4.07429 7.98582
302 4 18.249 4.98956 7.45192
303 3 16.7073 4.69894 7.73816
304 1 18.5446 3.65681 5.87211
305 2 21.8835 10.2725 15.5502
306 2 20.4353 2.5032 15.629
307 2 3.43025 14.1252 16.5717
308 1 20.5579 18.8035 12.6612
309 2 19.92 0.326404 11.9865
310 2 19.4908 18.3943 13.1131
311 2 0.964057 16.9696 18.4718
312 4 15.6494 3.25295 7.96043
313 3 16.6136 1.89825 8.02461
314 1 14.8229 3.38629 9.72123
315 2 15.1011 2.38608 10.1169
316 2 15.4873 3.93245 10.363
317 2 13.7764 3.65198 9.75694
318 1 14.2306 3.41374 6.63439
319 2 14.4116 4.36085 6.08203
320 2 14.1625 2.64178 5.91404
321 2 13.2656 3.45503 7.13697
322 4 17.5575 0.957848 6.73551
323 3 16.694 18.9588 5.90039
324 1 18.1531 2.43386 5.68048
325 2 19.7423 18.7481 6.50298
326 2 3.84692 14.393 17.0015
327 2 18.9912 4.18378 5.02966
328 1 19.0511 0.286431 7.1627
329 2 19.3988 0.930214 7.66437
330 2 2.56172 1.34215 16.8036
331 2 0.153495 18.0725 4.069
332 4 16.2734 17.4967 5.14722
333 3 16.0621 17.5217 3.55535
334 1 8.14089 3.23112 5.69507
335 2 8.71364 4.1948 5.68327
336 2 7.38104 3.21686 6.45189
337 2 8.93367 2.44848 6.05984
338 1 14.5806 16.6475 5.8889
339 2 14.8116 15.8724 6.68221
340 2 13.5999 17.1659 6.39129
341 2 13.8259 16.1811 5.21858
342 4 14.4964 17.7653 2.92399
343 1 21.368 3.07909 15.4486
344 2 0.335442 3.02844 16.7417
345 2 22.0166 3.06076 14.4987
346 2 14.0386 0.354631 3.1394
347 1 9.4214 17.7113 4.72306
348 2 9.95268 15.4299 2.19593
349 2 10.631 4.52993 18.3362
350 2 11.7183 15.5315 15.1084
351 4 0.182532 15.1752 17.0675
352 3 0.243973 13.6287 16.5521
353 1 5.60658 17.849 19.9113
354 2 19.6844 16.2259 3.46755
355 2 5.86315 17.0896 0.898893
356 2 20.4486 10.2132 19.3739
357 1 6.19208 18.8587 19.1523
358 2 20.3865 16.5884 3.86258
359 2 18.775 14.552 7.04476
360 2 2.53641 7.70596 3.52061
361 4 1.58213 13.6996 15.5089
362 3 1.64393 12.1532 15.19
363 1 1.22512 14.8692 13.8745
364 2 1.71352 14.5201 12.895
365 2 1.7608 15.9399 14.1585
366 2 22.0238 14.924 13.7502
367 1 1.12736 15.788 18.4781
368 2 2.91021 2.11617 16.9603
369 2 20.7666 16.198 0.289234
370 2 2.00433 15.6602 17.8761
371 4 1.41909 10.5911 15.6049
372 3 2.33233 10.0627 14.3005
373 1 0.205234 3.26067 6.12104
374 2 21.0639 3.50094 6.52598
375 2 1.06102 4.10435 6.38672
376 2 0.37907 2.78611 5.0331
377 1 2.36385 10.2394 17.3482
378 2 3.24349 9.49548 17.2471
379 2 2.78961 11.1868 17.8139
380 2 1.55027 9.87396 18.0457
381 4 2.20819 8.7871 13.2039
382 3 2.01817 7.16658 13.5643
383 1 3.5484 8.84031 11.8558
384 2 3.25934 8.42929 10.9142
385 2 3.86512 9.86376 11.893
386 2 4.4764 8.27205 12.132
387 1 0.662097 9.0032 12.1618
388 2 0.533449 8.13966 11.3127
389 2 21.626 9.01517 12.9088
390 2 0.591306 10.0221 11.5766
391 4 3.12425 6.02285 14.0543
392 3 4.27516 5.37081 13.11
393 1 4.17356 6.93055 15.4023
394 2 4.70862 6.15422 16.0103
395 2 4.85768 7.55682 14.8441
396 2 3.5033 7.51 16.1196
397 1 2.22937 4.4817 14.7401
398 2 2.02626 4.63857 15.8453
399 2 1.34623 4.37326 14.156
400 2 2.90069 3.68348 14.554
401 4 5.03712 4.32566 12.0276
402 1 3.73875 3.07636 11.7509
403 2 4.10409 2.04334 11.8859
404 2 2.85584 3.18681 12.4714
405 2 3.24693 3.12202 10.743
406 1 6.49875 3.80075 13.1404
407 2 7.22153 3.25693 12.5275
408 2 6.27264 3.14037 14.0132
409 4 7.78529 16.7368 15.5012
410 3 7.15472 15.3989 16.1685
411 1 6.76978 18.2856 15.5018
412 2 5.87889 18.1268 16.1037
413 2 7.04693 0.179497 16.0399
414 2 6.29077 18.5533 14.3674
415 1 8.4495 16.2735 13.7539
416 2 8.84962 17.0137 13.2214
417 2 9.24889 15.5771 13.8473
418 2 7.76773 15.7124 13.0855
419 4 7.43728 13.9593 17.0103
420 3 7.76346 12.8068 15.8545
421 1 8.84619 13.8301 18.2998
422 2 8.31011 13.237 19.0721
423 2 9.78057 13.3149 18.067
424 2 9.04182 14.8059 18.7566
425 1 5.85919 13.6082 17.9427
426 2 5.84344 14.1906 18.9147
427 2 5.0762 14.2 17.393
428 2 5.61133 12.5518 18.0564
429 4 8.03505 11.8135 14.5522
430 3 9.51682 11.2213 14.6579
431 1 7.9566 12.783 12.9132
432 2 7.93868 12.1275 11.9976
433 2 7.11896 13.4909 12.8701
434 2 8.84473 13.411 12.9473
435 1 6.65274 10.4806 14.6374
436 2 5.63053 10.8459 14.6596
437 2 6.90471 9.7802 13.834
438 2 6.69569 9.99347 15.6013
439 4 10.8757 10.5748 15.3719
440 3 11.0645 9.00918 14.8087
441 1 10.8369 10.9454 17.1233
442 2 9.87677 11.2307 17.5773
443 2 13.1789 5.87073 2.35598
444 2 11.7838 10.9767 17.6323
445 1 12.3923 11.2132 14.4901
446 2 12.2265 10.8555 13.442
447 2 12.5195 12.3088 14.5269
448 4 10.2003 7.63204 14.7075
449 3 9.46465 7.1047 13.2518
450 1 8.8242 7.77821 15.9122
451 2 8.75515 6.82732 16.466
452 2 8.93604 8.58417 16.6073
453 2 7.86494 7.87008 15.3582
454 1 11.4155 6.30917 14.9744
455 2 12.2787 6.76417 15.4844
456 2 11.1695 5.30474 15.3596
457 2 11.8133 6.0344 13.9813
458 4 8.50593 5.95125 12.4564
459 1 7.14862 5.08712 13.6141
460 2 6.4025 5.84981 13.9345
461 2 7.56603 4.81349 14.6112
462 1 9.82817 4.73623 11.8773
463 2 10.5255 5.21113 11.1746
464 2 10.3509 4.41558 12.7917
465 2 9.40504 3.85557 11.3962
466 4 18.3635 13.243 7.54849
467 3 17.6905 13.7004 8.97529
468 1 17.1514 12.3622 6.59706
469 2 16.2057 12.1346 6.91505
470 2 17.504 11.9956 5.7043
471 2 21.5413 17.7611 4.38886
472 1 13.4676 17.6976 12.8931
473 2 14.3499 17.5706 13.5819
474 2 13.1732 18.6398 12.4654
475 2 13.944 16.9698 12.3495
476 4 17.4425 14.4 10.3901
477 3 16.6196 13.203 11.2586
478 1 19.1837 14.6845 11.0806
479 2 19.1691 15.5363 11.7637
480 2 19.6529 13.8052 11.6147
481 2 19.896 14.8295 10.3255
482 1 16.3028 15.913 10.4251
483 2 16.5989 16.8131 11.0268
484 2 15.9279 16.303 9.5128
485 2 15.5082 15.522 11.112
486 4 15.4905 13.47 12.4603
487 3 15.3508 11.8965 12.9091
488 1 16.4419 14.4448 13.6741
489 2 16.3976 13.8519 14.6257
490 2 17.3885 14.4082 13.1218
491 2 16.0754 15.4235 13.9671
492 1 13.7251 13.9157 12.0041
493 2 13.1912 12.9426 12.0041
494 2 13.2282 14.4484 12.8128
495 2 13.5617 14.5148 11.0736
496 4 15.1738 10.4557 13.8722
497 3 16.4422 10.1089 14.7348
498 1 13.638 10.6026 15.0423
499 2 13.456 9.55217 15.3137
500 2 13.8678 10.9747 16.038
501 1 14.7281 9.17314 12.5829
502 2 15.5163 8.65503 12.0397
503 2 14.0638 8.51033 13.1251
504 2 14.1065 9.67927 11.8706
505 4 18.1113 10.0759 15.1007
506 3 18.392 8.6395 15.8055
507 1 19.1203 10.0714 13.4771
508 2 20.0206 9.46517 13.3776
509 2 18.3857 9.68492 12.7455
510 2 19.2031 11.1911 13.3019
511 1 18.4579 11.4001 16.4196
512 2 18.624 11.1389 17.4996
513 2 19.4376 11.7749 15.9297
514 2 17.7104 12.2386 16.4084
515 4 18.6548 7.03044 15.4683
516 1 17.4055 6.59626 14.0408
517 2 16.4572 6.27131 14.4451
518 2 17.2922 7.37318 13.2846
519 2 17.7323 5.80321 13.3312
520 1 20.3699 6.54165 14.634
521 2 20.7853 5.53873 14.9613
522 2 20.2475 6.611 13.5427
523 2 21.3013 7.17904 14.7271
ITEM: TIMESTEP
10500
ITEM: NUMBER OF ATOMS
523
ITEM: BOX BOUNDS pp pp pp
7.9050539863446900e-02 2.1920949460136640e+01
6.8558244351065056e-02 1.9011404755648922e+01
7.1864127148565160e-02 1.9928135872851360e+01
ITEM: ATOMS id type x y z
1 4 6.8724 4.9287 3.42701
2 3 7.76399 6.34056 3.12597
3 1 1.03043 17.4263 11.1961
4 2 4.88579 15.3145 15.417
5 2 20.2116 5.13254 3.40055
6 2 2.06517 17.7224 11.9428
7 1 20.7468 7.68197 7.66421
8 2 21.9167 0.165463 12.2816
9 2 20.9734 8.66215 8.16262
10 2 21.6267 7.01157 7.42528
11 4 7.35076 7.41506 1.9412
12 3 6.13926 6.74286 0.964195
13 1 5.60739 9.54203 2.25302
14 2 8.2965 9.76819 19.3933
15 2 4.94254 8.58575 2.2431
16 2 5.40039 10.6337 2.33145
17 1 6.98223 9.10168 1.96084
18 2 18.5958 12.2366 7.07852
19 2 19.4704 4.41898 17.9792
20 2 15.4087 17.7394 1.43557
21 4 5.0152 5.53334 1.49679
22 3 6.19313 4.47668 2.10038
23 1 4.44633 5.11772 19.769
24 2 3.96212 6.02684 19.5508
25 2 4.70181 4.97649 18.7514
26 2 3.4492 4.56827 19.7536
27 1 3.65971 6.05623 2.61037
28 2 3.63989 6.23093 3.58753
29 2 3.13998 6.48724 1.61076
30 2 3.00541 5.20718 2.42869
31 4 7.82157 1.91384 4.80536
32 3 6.3279 1.63119 4.19142
33 1 21.2702 0.335279 19.8217
34 2 19.5219 0.199815 14.7967
35 2 20.5508 0.83244 0.537732
36 2 17.407 16.3203 4.47431
37 1 8.11287 3.72258 4.11968
38 2 0.243922 0.673957 19.1745
39 2 16.521 6.14562 3.72871
40 2 8.76833 3.88921 3.21885
41 4 2.29725 1.63376 3.45635
42 3 3.54037 0.560826 4.23402
43 1 2.95738 2.02568 1.63268
44 2 2.67329 3.12765 3.81888
45 2 3.98736 2.18304 1.58057
46 2 0.383255 13.0974 3.61244
47 1 10.8448 5.39193 0.22439
48 2 10.0559 4.37582 1.22892
49 2 11.8827 4.07464 0.166193
50 2 11.5624 5.92191 0.983923
51 4 5.10374 0.27081 4.4499
52 1 13.0883 1.59138 18.644
53 2 12.3637 1.28349 19.6728
54 2 5.57161 0.472859 2.76995
55 2 14.1552 2.00805 18.2062
56 1 8.40791 14.2439 2.69207
57 2 3.42535 12.1939 1.60509
58 2 13.0595 0.678075 17.6611
59 2 2.51209 1.56882 0.878112
60 4 12.8658 15.1179 3.47565
61 3 13.7901 5.24113 11.3804
62 1 10.8983 3.21454 8.60509
63 2 10.2013 3.81348 8.04071
64 2 10.422 2.85086 9.57504
65 2 11.6702 3.84058 9.07082
66 1 13.5081 5.40329 10.3055
67 2 10.1503 14.7106 14.9107
68 2 5.12242 2.05368 18.8489
69 2 11.156 2.33842 8.05918
70 4 14.0041 16.831 19.7484
71 3 13.4206 15.1453 19.6573
72 1 12.7753 16.8179 2.89584
73 2 7.96179 3.76563 17.8086
74 2 10.4805 14.9097 3.49132
75 2 11.9063 16.8149 2.07162
76 1 14.5133 17.4716 17.75
77 2 14.1523 17.8797 16.7715
78 2 15.0639 18.3733 18.0099
79 2 15.0506 16.6421 17.2668
80 4 12.9024 14.414 1.10344
81 3 12.6839 12.6382 1.04723
82 1 14.1587 13.4284 16.8921
83 2 13.6425 13.0294 17.6148
84 2 14.3659 12.3915 16.3056
85 2 14.9876 13.8931 17.268
86 1 7.1473 13.9884 3.07187
87 2 2.93137 18.0795 19.3924
88 2 7.08728 14.9444 3.71571
89 2 10.0865 16.7351 16.2521
90 4 13.0035 11.4458 2.06183
91 3 11.6554 11.0048 3.06545
92 1 14.4999 11.7791 3.13782
93 2 14.9821 12.695 2.87244
94 2 14.146 12.0562 4.1114
95 2 15.2801 11.045 3.16221
96 1 12.7489 9.88144 1.11461
97 2 13.0208 1.92265 5.74047
98 2 13.7059 13.9703 16.069
99 4 11.1435 9.61474 2.22714
100 3 9.83212 9.43075 1.26017
101 1 2.37656 17.075 19.6419
102 2 2.95821 16.1619 19.3455
103 2 1.47623 17.2501 18.985
104 2 1.98705 17.1327 0.870422
105 1 10.8422 8.17976 3.37997
106 2 9.86995 7.749 3.10228
107 2 11.6304 7.442 3.38157
108 2 10.8831 8.58855 4.4114
109 4 8.20001 10.0209 0.924582
110 1 8.07171 11.6392 1.81401
111 2 8.3446 12.4563 1.33473
112 2 6.95287 11.9099 1.34848
113 2 7.75632 11.2864 2.71249
114 1 8.78353 3.17084 18.3915
115 2 8.25558 3.13194 19.3386
116 2 8.81819 2.28625 17.7386
117 2 9.63893 3.8709 18.1865
118 4 19.9811 12.7742 1.66379
119 3 19.6852 11.0708 1.49341
120 1 21.2052 13.2472 3.08033
121 2 20.848 13.0103 19.1804
122 2 20.2646 13.7968 3.32973
123 2 5.42074 18.4657 0.973124
124 1 20.144 13.3671 19.8832
125 2 19.113 13.5985 19.4811
126 2 21.0827 14.1439 19.9765
127 2 1.36858 1.03123 7.25884
128 4 18.282 10.1546 1.23608
129 3 18.2937 9.02945 2.5519
130 1 18.1222 14.0177 2.33945
131 2 17.0893 13.4884 2.28735
132 2 18.7153 14.6069 3.05592
133 2 18.239 14.3339 1.19502
134 1 10.3146 0.320184 11.0448
135 2 8.64677 0.779103 10.7576
136 2 10.5496 1.53036 10.6471
137 2 10.6908 18.3272 11.3803
138 4 16.9157 8.36452 3.07291
139 3 15.5706 8.68989 2.17299
140 1 17.31 6.62933 3.18384
141 2 18.2593 6.41099 3.75854
142 2 17.714 6.17735 2.26538
143 2 13.4291 16.9247 14.3964
144 1 16.7438 9.00999 4.87559
145 2 17.507 9.84976 5.10813
146 2 15.8193 9.56462 5.08624
147 2 17.0465 8.02088 5.48477
148 4 15.4311 8.96182 0.485661
149 3 15.9748 7.83214 19.2404
150 1 13.4795 8.78339 0.796032
151 2 5.39357 17.6435 4.87255
152 2 12.8356 7.69036 0.785325
153 1 15.6973 10.7955 19.8617
154 2 15.4782 11.7253 0.421123
155 2 16.4837 10.3658 19.0811
156 2 15.0187 11.12 18.9265
157 4 15.6827 6.35602 18.5125
158 3 16.8486 6.34666 17.3257
159 1 14.2487 6.37683 17.5017
160 2 13.8622 5.76166 16.4414
161 2 13.3151 6.65532 18.3786
162 2 14.1749 7.47932 16.9277
163 1 15.7344 4.60072 19.5733
164 2 16.715 4.63814 0.149596
165 2 14.9249 4.08683 0.345051
166 2 15.9966 3.76121 18.8892
167 4 18.4541 6.44654 16.8371
168 1 19.2894 4.72472 16.7936
169 2 4.04516 11.89 1.80958
170 2 18.5095 4.16448 16.2988
171 2 20.1487 4.25335 16.2869
172 1 19.4427 7.3798 18.1431
173 2 19.9047 8.4634 18.4879
174 2 19.9533 6.8366 18.8634
175 2 20.9588 18.6111 0.976064
176 4 3.23384 16.8804 7.76608
177 3 3.51821 15.6654 6.74461
178 1 2.15146 16.2927 9.27139
179 2 2.7306 15.3691 9.13196
180 2 2.0375 16.4243 10.4026
181 2 1.11503 16.0121 8.67585
182 1 4.39819 18.1976 8.05845
183 2 5.29534 17.7772 7.5642
184 2 4.07131 19.004 7.4886
185 2 4.27496 18.3359 9.21337
186 4 3.67779 14.0517 6.43249
187 3 3.40585 13.2875 7.74963
188 1 5.40261 13.5951 6.08713
189 2 5.49174 12.6315 5.54525
190 2 6.01841 14.3083 5.53415
191 2 5.92679 13.4405 7.0291
192 1 2.49495 13.8829 5.04622
193 2 2.84421 14.3021 4.12
194 2 2.5163 12.7821 4.9519
195 2 1.49281 14.245 5.31163
196 4 2.78675 12.2548 8.87017
197 3 3.12441 10.7753 8.08718
198 1 1.00915 12.6009 9.25459
199 2 0.916075 13.3112 10.0624
200 2 0.568485 12.7928 8.26882
201 2 0.643614 11.6153 9.62921
202 1 3.79161 12.6431 10.3993
203 2 4.84117 12.8254 10.1563
204 2 3.38981 13.5494 10.9052
205 2 3.66086 11.7706 11.07
206 4 3.88332 9.4725 7.3409
207 3 3.83039 8.17607 8.30522
208 1 2.60369 9.08088 5.87319
209 2 3.05446 8.32009 5.1481
210 2 1.6104 8.85167 6.29758
211 2 2.55665 9.99088 5.29825
212 1 5.57305 9.85668 6.76289
213 2 5.93685 9.08208 6.04714
214 2 5.48525 10.8454 6.24081
215 2 6.27984 10.0041 7.62162
216 4 3.81685 6.53208 8.4738
217 3 5.0584 6.33198 9.52866
218 1 2.06427 6.16214 8.98748
219 2 2.01882 5.59009 9.90682
220 2 1.52061 7.12398 9.03565
221 2 1.49498 5.57597 8.21069
222 1 4.54476 5.6329 6.979
223 2 3.97916 5.07114 6.27852
224 2 5.10152 6.40901 6.34728
225 2 5.26513 4.92003 7.36768
226 4 6.07462 5.59923 10.5682
227 1 6.98141 4.27031 9.50998
228 2 6.86571 4.52035 8.43638
229 2 8.05255 4.18337 9.75335
230 2 6.49006 3.29282 9.64002
231 1 7.33596 6.74042 11.4779
232 2 7.92117 7.3393 10.7741
233 2 6.77443 7.43156 12.1295
234 4 10.1388 18.434 9.24173
235 3 9.62458 16.9364 9.80627
236 1 8.60742 18.9289 8.03857
237 2 7.73539 0.508018 8.15291
238 2 9.1222 0.440579 7.11095
239 2 8.196 17.8582 7.60674
240 1 11.8263 18.3205 8.55063
241 2 11.3237 17.3056 7.5308
242 2 11.5809 0.160459 8.08953
243 2 13.267 17.6126 9.16724
244 4 9.10596 15.2633 10.0444
245 3 9.76176 14.5117 8.69497
246 1 9.91033 14.5145 11.6142
247 2 10.8391 13.9767 11.3608
248 2 9.99906 15.3148 12.3614
249 2 9.30772 13.6853 12.033
250 1 7.30073 15.0941 10.1832
251 2 6.86136 15.4535 11.1205
252 2 6.71193 15.5705 9.37744
253 2 7.10905 14.0478 10.042
254 4 10.3722 13.5686 7.51068
255 3 10.8331 12.1577 8.04546
256 1 11.9661 14.4425 7.22395
257 2 11.7648 15.0032 6.27503
258 2 12.5714 14.9965 7.94439
259 2 12.67 13.6231 6.89952
260 1 9.38339 13.5397 6.01221
261 2 9.29066 14.5461 5.63916
262 2 10.0274 13.0169 5.28913
263 2 8.53489 12.8711 6.00029
264 4 10.2844 10.6617 8.28805
265 3 11.5948 9.59119 8.0372
266 1 9.25733 10.3366 6.77985
267 2 8.87285 9.31782 6.83278
268 2 8.39258 10.9849 6.60844
269 2 9.96874 10.3927 5.94151
270 1 9.49113 10.6102 9.92233
271 2 8.88883 11.468 10.2277
272 2 8.83986 9.72273 9.92529
273 2 10.2654 10.5278 10.6995
274 4 12.797 8.96424 9.07386
275 3 13.3281 7.63162 8.21559
276 1 12.1107 8.38922 10.7363
277 2 12.3347 9.1423 11.525
278 2 11.0077 8.31315 10.6727
279 2 12.5075 7.41881 11.1006
280 1 14.2084 10.1659 8.89346
281 2 15.1041 10.067 9.54958
282 2 14.4965 10.1051 7.83032
283 2 13.8457 11.2144 8.91972
284 4 12.7667 6.56677 7.07192
285 1 11.0613 6.52274 6.78668
286 2 10.7408 6.16226 5.79852
287 2 10.3555 6.60466 7.59031
288 1 13.8709 6.43232 5.62456
289 2 13.9514 7.49771 5.30792
290 2 14.9123 6.06573 5.68492
291 2 13.3825 5.8923 4.78471
292 4 19.2059 6.60492 8.07946
293 3 18.2857 6.15942 6.69235
294 1 18.0632 7.7038 9.2347
295 2 18.6914 8.58328 9.31248
296 2 17.1389 7.98989 8.6487
297 2 17.6734 7.4463 10.1789
298 1 19.2089 4.88916 8.70568
299 2 21.6944 8.95414 0.677903
300 2 6.96569 1.66645 19.7402
301 2 18.9103 4.21202 9.61897
302 4 18.2678 4.54103 7.32566
303 3 16.772 3.88404 7.50182
304 1 18.9317 3.51403 5.60148
305 2 1.21222 10.0542 15.13
306 2 1.78344 0.781629 14.9381
307 2 5.25981 0.760768 12.4284
308 1 20.4131 18.3878 14.818
309 2 20.3259 17.1862 15.5656
310 2 21.1929 18.5122 13.7758
311 2 0.664051 14.5029 17.9895
312 4 16.4353 2.57741 8.20245
313 3 16.4526 1.28356 6.843
314 1 17.7332 1.95041 9.57799
315 2 17.7603 0.933758 9.97341
316 2 18.6065 1.92855 8.99688
317 2 17.8081 2.59206 10.4564
318 1 14.8096 2.34653 8.90693
319 2 14.1175 2.47197 7.99164
320 2 14.6372 1.44484 9.45313
321 2 14.6401 3.26097 9.51963
322 4 17.6227 0.884138 5.77605
323 3 16.5739 0.210565 4.64322
324 1 18.4049 2.3515 5.20463
325 2 18.1752 17.8683 6.61254
326 2 5.15778 0.76849 11.5535
327 2 19.7869 4.09134 5.37877
328 1 18.668 18.5034 6.04432
329 2 19.6023 18.6978 6.47658
330 2 5.53751 15.2884 15.9531
331 2 2.38014 13.6395 0.576159
332 4 16.592 17.5575 4.83047
333 3 15.4154 17.414 3.66885
334 1 9.11428 4.33937 5.3686
335 2 9.50147 3.61311 6.01429
336 2 9.87239 4.64668 4.70616
337 2 8.71889 5.27171 5.86623
338 1 15.8541 17.0283 6.43295
339 2 15.9326 17.8739 7.19115
340 2 14.9895 16.5131 6.18609
341 2 16.4598 16.1782 6.93274
342 4 14.0776 18.0738 3.02599
343 1 1.82921 1.44887 16.0527
344 2 3.08074 1.95534 16.126
345 2 0.758292 1.08954 16.6656
346 2 14.2425 0.80449 2.78618
347 1 9.48344 15.0759 3.0043
348 2 6.4308 13.4378 3.00343
349 2 10.3108 5.98844 19.1359
350 2 10.7431 14.6555 14.4995
351 4 21.0905 15.6414 16.0066
352 3 21.4587 14.6985 14.8056
353 1 5.93592 1.37224 19.3124
354 2 20.5395 16.9425 1.99596
355 2 5.84394 0.308561 1.61367
356 2 18.4324 6.66786 19.2557
357 1 5.34494 0.492893 0.307986
358 2 21.2245 17.1953 2.22528
359 2 18.1656 14.4949 6.48037
360 2 0.404729 8.6229 19.4913
361 4 1.11844 13.8704 14.822
362 3 0.957544 12.2917 15.3923
363 1 1.57045 13.5745 13.0215
364 2 2.72725 13.8675 13.131
365 2 1.06197 14.559 12.4872
366 2 1.32165 12.4283 12.3758
367 1 0.241048 15.5098 17.5337
368 2 0.724576 0.967687 3.97101
369 2 19.7985 5.89865 3.85532
370 2 1.45306 15.8012 16.8593
371 4 1.84485 10.9827 15.4716
372 3 2.54382 10.935 14.0277
373 1 0.435285 1.13399 8.21697
374 2 0.480581 2.16182 7.74011
375 2 21.4471 0.442723 8.45616
376 2 0.940508 1.05822 9.31984
377 1 3.27941 10.8562 16.7072
378 2 3.67779 9.80405 16.7285
379 2 4.10273 11.4559 16.1179
380 2 3.09604 11.2998 17.753
381 4 3.06923 9.97824 12.8268
382 3 3.46903 8.39914 13.2374
383 1 4.83695 10.6369 12.5575
384 2 5.46435 9.84173 12.9677
385 2 5.223 10.6231 11.5466
386 2 5.1802 11.5935 13.0221
387 1 1.90392 10.0299 11.3934
388 2 2.11502 9.46152 10.5017
389 2 0.382996 9.66532 11.5372
390 2 1.69399 11.0643 11.0892
391 4 3.52392 6.97025 14.1605
392 3 4.70959 6.02705 13.3835
393 1 4.52251 7.33871 15.7476
394 2 4.86522 6.38569 16.184
395 2 5.32978 7.99175 15.4812
396 2 3.91766 7.79427 16.5726
397 1 1.78766 6.39697 14.4988
398 2 1.21205 7.26314 14.944
399 2 1.22727 6.13138 13.6228
400 2 1.72635 5.61447 15.2526
401 4 5.03669 4.64242 12.4453
402 1 3.72513 3.42296 12.5579
403 2 2.99074 3.70344 11.8289
404 2 4.28589 2.57579 12.1185
405 2 3.21348 3.04315 13.4446
406 1 6.61642 3.78942 13.1656
407 2 7.09789 3.22607 12.3729
408 2 6.17569 3.06091 13.8842
409 4 8.35693 16.7374 16.2481
410 3 7.79563 15.3113 16.8818
411 1 7.4733 18.0883 17.0867
412 2 8.16687 18.617 17.8729
413 2 7.64465 0.48388 16.1486
414 2 6.52801 17.6709 17.6677
415 1 8.00538 16.7416 14.3524
416 2 8.68698 17.4833 13.8506
417 2 8.31042 15.8579 13.9341
418 2 7.03584 17.0097 14.0314
419 4 7.99365 13.9167 17.7434
420 3 7.54151 12.785 16.6617
421 1 9.74299 13.7349 18.3578
422 2 10.1956 12.7534 18.2491
423 2 10.4078 14.4165 17.8091
424 2 9.72664 14.0896 19.3808
425 1 6.63079 14.0574 18.9244
426 2 6.73553 13.1229 19.4024
427 2 6.67531 14.7412 19.7378
428 2 5.75138 14.0382 18.3064
429 4 7.8176 12.078 15.2729
430 3 9.43438 11.9443 14.9305
431 1 7.23029 12.8469 13.6857
432 2 7.18955 12.1141 12.868
433 2 6.25103 13.2538 13.7531
434 2 7.94212 13.6163 13.4631
435 1 6.91006 10.4216 15.5436
436 2 5.80739 10.4971 15.4386
437 2 7.24821 9.47704 15.0952
438 2 6.98997 10.2536 16.6102
439 4 10.6897 10.8709 15.2922
440 3 10.0049 9.44934 14.738
441 1 11.2579 11.1203 16.9422
442 2 12.3256 10.9668 17.115
443 2 12.4513 1.6377 5.97406
444 2 10.7096 10.9374 17.8573
445 1 12.3752 11.1103 14.2624
446 2 12.131 11.1064 13.1898
447 2 12.8673 12.0489 14.4592
448 4 9.92736 7.79622 14.6297
449 3 9.17486 7.17432 13.3513
450 1 8.80669 7.20636 16.0357
451 2 9.22196 6.33172 16.5477
452 2 8.79403 7.99299 16.816
453 2 7.74119 7.0218 15.7727
454 1 11.6107 7.06292 14.844
455 2 12.3741 7.65154 14.321
456 2 11.8614 6.95832 15.9082
457 2 11.6457 6.1397 14.2635
458 4 8.58206 5.80794 12.5117
459 1 7.70219 4.72292 13.7483
460 2 7.2738 5.33098 14.5327
461 2 8.52814 4.14029 14.2045
462 1 10.1818 5.19512 11.655
463 2 10.5651 4.20569 11.949
464 2 10.1262 5.08511 10.5589
465 2 10.9453 5.92669 11.9164
466 4 17.5671 13.2635 7.04628
467 3 17.3074 13.542 8.62916
468 1 15.9714 12.7655 6.22704
469 2 14.9136 13.1397 6.46305
470 2 16.0371 11.9578 5.49508
471 2 2.22471 13.9073 19.519
472 1 14.2925 17.6923 14.419
473 2 14.9849 17.3958 15.1985
474 2 13.5556 18.5083 14.6068
475 2 14.8485 17.7409 13.3878
476 4 17.0302 14.196 10.1177
477 3 16.312 13.1635 11.2266
478 1 18.6481 14.5109 10.9819
479 2 18.4874 14.7505 12.0288
480 2 19.1943 13.509 10.9845
481 2 19.2341 15.3143 10.492
482 1 15.9346 15.7376 10.056
483 2 15.4644 15.8555 11.0445
484 2 16.5614 16.5637 9.78117
485 2 15.1826 15.727 9.23577
486 4 15.4334 13.3156 12.5757
487 3 15.0961 11.7454 13.0408
488 1 16.2784 14.3263 13.9193
489 2 17.1246 14.9606 13.614
490 2 15.5751 15.0375 14.3881
491 2 16.7398 13.7341 14.7029
492 1 13.7928 14.1669 12.2304
493 2 13.7568 15.0542 12.8829
494 2 13.6728 14.5487 11.2339
495 2 13.0009 13.4832 12.593
496 4 15.2194 10.3053 13.8085
497 3 16.3736 10.6961 14.894
498 1 13.5578 10.1021 14.6025
499 2 13.1787 9.06843 14.6617
500 2 13.7398 10.298 15.6879
501 1 15.2679 8.92446 12.6139
502 2 14.3457 8.78249 12.0171
503 2 16.1099 9.02146 11.9167
504 2 15.5175 8.03638 13.1619
505 4 17.923 10.1385 14.912
506 3 17.8829 8.61906 14.3836
507 1 19.1083 11.0396 13.8284
508 2 19.7289 11.7837 14.3515
509 2 19.7866 10.384 13.3822
510 2 18.6938 11.7464 13.0665
511 1 18.7 10.6006 16.7008
512 2 18.6208 9.67722 17.3169
513 2 19.6422 10.8365 16.2166
514 2 18.0695 11.4945 16.9064
515 4 18.186 6.9907 14.5539
516 1 17.0639 5.74338 13.7226
517 2 16.0311 5.86091 14.053
518 2 17.1924 5.74584 12.5967
519 2 17.3762 4.70373 13.8982
520 1 19.95 6.71591 13.9627
521 2 20.0922 6.78771 12.8849
522 2 20.5753 7.44816 14.534
523 2 20.3999 5.68487 14.077
ITEM: TIMESTEP
11000
ITEM: NUMBER OF ATOMS
523
ITEM: BOX BOUNDS pp pp pp
8.4381542297325751e-02 2.1915618457702770e+01
7.3181668405233324e-02 1.9006781331594745e+01
7.6710492997575486e-02 1.9923289507002323e+01
ITEM: ATOMS id type x y z
1 4 6.23411 4.64616 2.9814
2 3 6.72109 6.02042 2.45907
3 1 21.6116 0.676981 12.6419
4 2 2.14575 16.4288 19.0653
5 2 3.20884 4.24911 4.09752
6 2 21.4509 1.56866 13.4287
7 1 19.2662 8.23834 6.57575
8 2 20.6089 0.19112 13.4305
9 2 20.3912 8.3195 6.49354
10 2 18.6689 8.44587 5.81974
11 4 6.3239 7.40806 1.64471
12 3 5.05401 6.7563 0.916145
13 1 7.18127 9.42558 3.46074
14 2 8.12243 8.80884 19.4054
15 2 6.21542 9.52597 4.08655
16 2 7.94893 9.90133 4.25301
17 1 7.3349 8.73092 2.31902
18 2 16.4626 10.8727 7.54713
19 2 18.5482 4.72997 14.6542
20 2 13.6145 16.8846 1.65714
21 4 3.96525 5.35798 1.36333
22 3 4.65758 4.68398 2.65957
23 1 3.99244 4.28603 19.773
24 2 5.02183 4.24615 19.8138
25 2 3.73377 3.38483 19.3619
26 2 4.07271 5.05713 18.7684
27 1 2.41679 6.08803 2.01176
28 2 2.45311 6.65208 2.97344
29 2 1.74107 6.2814 1.22469
30 2 2.28534 5.03563 2.57309
31 4 7.19762 3.42021 4.86128
32 3 6.08216 2.18145 4.89039
33 1 18.0355 17.6821 1.35437
34 2 19.269 16.8044 13.9471
35 2 17.8989 17.9323 0.328427
36 2 17.2276 17.2636 1.70429
37 1 7.70276 3.46377 2.97651
38 2 18.6976 17.7172 2.22325
39 2 16.404 6.15226 3.75114
40 2 7.95622 2.75749 2.24464
41 4 2.09443 2.67568 4.97513
42 3 3.43519 1.46457 4.48887
43 1 0.476173 2.63543 3.73452
44 2 21.3206 5.92188 6.49915
45 2 0.125924 3.31216 2.98488
46 2 21.5098 11.592 4.88762
47 1 14.0086 4.81162 3.26271
48 2 13.8096 3.94762 3.50779
49 2 13.6242 5.59643 3.86286
50 2 15.2076 4.81541 3.08837
51 4 4.72247 1.32754 5.31917
52 1 12.4391 2.61415 19.3034
53 2 9.5197 0.77912 19.7214
54 2 5.08105 0.151707 5.58506
55 2 11.5708 1.94606 0.538763
56 1 9.21444 16.5197 2.94013
57 2 2.97642 12.1904 17.94
58 2 13.3101 2.98913 0.0905341
59 2 21.6021 1.75301 3.21007
60 4 11.7322 15.8537 3.57586
61 3 13.9345 4.39397 10.9875
62 1 9.90396 3.36727 7.94627
63 2 10.2604 3.68462 8.86957
64 2 8.83749 3.05017 7.99714
65 2 10.5022 2.55958 7.55992
66 1 14.1074 5.3755 11.6933
67 2 12.7382 15.581 15.5893
68 2 7.17756 18.0056 18.5545
69 2 9.95671 4.17599 7.20123
70 4 13.3165 16.5995 19.6377
71 3 12.9911 15.0168 0.276668
72 1 12.674 17.2368 4.07785
73 2 9.52456 4.53034 18.9906
74 2 10.2679 17.0287 1.41471
75 2 12.284 17.9499 4.94375
76 1 14.9822 16.1419 18.5636
77 2 15.6737 16.4985 19.3688
78 2 15.3627 15.0487 18.5137
79 2 14.8275 16.8931 17.7721
80 4 12.8176 14.4462 1.79674
81 3 12.1616 12.9704 2.00563
82 1 14.8818 12.8738 17.775
83 2 14.3175 12.5376 18.7407
84 2 15.5225 11.9713 17.3845
85 2 15.5716 13.8057 17.5684
86 1 7.98215 16.3022 3.37611
87 2 1.18458 1.6309 18.2406
88 2 7.00901 15.8588 2.81296
89 2 10.9193 16.8696 15.0551
90 4 12.3254 11.3639 2.67074
91 3 10.8024 10.7082 2.77216
92 1 13.1695 11.503 4.43275
93 2 14.2445 11.2935 4.26117
94 2 13.3948 12.562 4.84292
95 2 12.7753 10.7959 5.1909
96 1 12.6999 9.74991 1.80029
97 2 6.93677 18.4885 0.795922
98 2 14.0939 13.0192 17.0205
99 4 11.1252 9.13466 2.27581
100 3 9.80843 8.87817 1.34564
101 1 1.28799 0.667184 17.5985
102 2 1.40411 18.9851 18.644
103 2 2.13137 0.883847 17.0537
104 2 0.411455 0.224814 17.0843
105 1 11.0319 7.61751 3.42098
106 2 11.7021 6.77175 3.5279
107 2 10.5716 7.66659 4.39975
108 2 10.3461 7.09161 2.8898
109 4 8.09725 9.50492 0.829876
110 1 8.09462 11.1909 0.493889
111 2 7.57962 11.5949 1.26811
112 2 8.80123 12.3944 0.672028
113 2 7.69469 11.3248 19.5366
114 1 9.32211 4.10128 17.9824
115 2 9.17991 3.15472 18.2894
116 2 8.28247 4.38391 17.7177
117 2 10.0591 4.2875 17.1767
118 4 21.0401 12.4281 2.46154
119 3 20.1067 11.0621 2.62936
120 1 21.8668 12.4485 3.94468
121 2 21.3864 11.4695 0.875679
122 2 0.67233 13.3081 4.20965
123 2 4.13339 0.143568 17.6294
124 1 0.443367 11.9965 1.29453
125 2 1.43809 12.3683 0.80851
126 2 0.912327 11.1937 1.70464
127 2 0.688654 0.798855 8.91981
128 4 19.665 9.65831 1.97158
129 3 18.5636 8.81974 2.78428
130 1 19.7864 14.0144 2.1697
131 2 19.813 14.9516 1.6634
132 2 18.7636 13.8345 1.66524
133 2 19.7663 14.4525 3.28291
134 1 9.21609 0.678272 9.74376
135 2 16.29 16.3523 9.94317
136 2 8.30072 18.8287 9.39711
137 2 8.93933 0.753901 10.8536
138 4 16.9799 8.3958 3.28702
139 3 16.1396 8.35286 1.85301
140 1 17.3137 6.57452 3.3994
141 2 18.0822 6.43697 4.29172
142 2 17.935 6.12846 2.53501
143 2 16.7584 0.109999 14.3766
144 1 16.1687 9.09278 4.9205
145 2 16.1833 10.2525 5.15692
146 2 15.0389 8.98622 4.83667
147 2 16.6881 8.69638 5.87532
148 4 15.1358 8.74522 0.489452
149 3 15.0992 7.46894 19.2212
150 1 13.3203 8.91885 0.909654
151 2 4.59771 1.22306 6.77488
152 2 12.8152 7.7223 0.644874
153 1 15.9616 10.2759 19.7136
154 2 17.0167 10.0536 19.2312
155 2 15.3359 10.229 18.7548
156 2 16.1951 11.2519 0.305337
157 4 15.8309 6.22412 18.3952
158 3 17.0979 6.54131 17.4126
159 1 14.6917 5.67563 17.2598
160 2 15.2655 5.13343 16.7245
161 2 13.7813 5.06091 17.5739
162 2 14.4275 6.51017 16.5215
163 1 16.5632 4.8291 19.5434
164 2 16.158 4.04742 18.8798
165 2 17.6598 5.08435 19.4867
166 2 16.067 5.24454 0.467069
167 4 18.5671 6.1992 16.8504
168 1 18.5676 4.57382 15.7553
169 2 3.4826 12.0142 18.5602
170 2 19.4933 4.09748 16.1615
171 2 17.7698 3.65268 15.9116
172 1 19.6904 6.37381 18.1494
173 2 20.7436 6.08986 17.6881
174 2 19.5737 6.48964 19.1147
175 2 15.1855 0.614346 19.1379
176 4 2.74402 16.2009 7.99554
177 3 3.43979 15.3218 6.81132
178 1 1.07586 16.3025 8.40102
179 2 0.173848 16.0466 8.68711
180 2 0.626336 1.16059 12.2471
181 2 0.999815 17.4892 8.33934
182 1 3.92738 16.5826 9.45512
183 2 3.32231 16.6838 10.443
184 2 4.42071 15.6584 9.4839
185 2 4.68272 17.4237 9.26662
186 4 4.14191 14.0616 5.84375
187 3 3.03869 12.7835 6.08818
188 1 5.9565 13.5768 6.29153
189 2 6.59749 14.4591 6.44221
190 2 5.99474 12.929 7.17291
191 2 6.12455 12.8672 5.48253
192 1 3.85113 14.5226 4.04075
193 2 4.78428 14.5755 3.50188
194 2 3.22562 13.8208 3.43327
195 2 3.48711 15.5709 3.92662
196 4 2.51949 11.8391 7.37412
197 3 3.12234 10.3862 7.14899
198 1 0.652256 11.4915 7.26491
199 2 0.127757 10.8817 8.01927
200 2 0.162131 12.5226 7.15414
201 2 0.421144 11.2447 6.21828
202 1 3.15793 12.533 8.98415
203 2 3.56996 11.8022 9.67325
204 2 3.91219 13.2846 8.72912
205 2 2.33003 13.0649 9.46732
206 4 4.07892 9.09389 6.90438
207 3 3.90012 8.20488 8.33053
208 1 3.46982 8.24928 5.42576
209 2 3.3942 8.72997 4.43019
210 2 2.78507 7.45221 5.79224
211 2 3.5096 10.7267 2.46256
212 1 5.8893 9.65855 6.77057
213 2 6.46665 8.85252 6.41601
214 2 6.01508 10.4197 6.00614
215 2 6.30248 10.0274 7.68618
216 4 4.08128 6.60119 8.45367
217 3 4.76361 6.50367 9.96592
218 1 2.40884 5.68626 8.26458
219 2 1.99848 6.06075 7.28441
220 2 2.46435 4.59197 8.18848
221 2 1.65087 5.98659 9.02979
222 1 5.33542 5.81019 7.20183
223 2 6.11087 5.24275 7.67677
224 2 4.68395 5.14986 6.53653
225 2 5.76849 6.54947 6.50398
226 4 5.6683 5.46507 10.938
227 1 6.14209 3.91414 9.9816
228 2 7.16713 3.64721 10.275
229 2 5.48427 3.07531 10.2235
230 2 6.26636 4.12474 8.92306
231 1 7.11335 6.44606 11.6006
232 2 7.767 7.02844 10.9352
233 2 6.65512 7.15059 12.3007
234 4 10.4191 18.253 9.03677
235 3 9.97599 16.6987 9.60538
236 1 10.1437 18.2396 7.25921
237 2 9.33559 17.6986 6.95629
238 2 9.66336 0.15557 6.94972
239 2 11.1209 17.9571 7.1418
240 1 11.937 18.525 9.75208
241 2 11.7426 0.251211 10.7522
242 2 12.9416 17.6864 9.94479
243 2 12.9892 0.417871 8.89394
244 4 9.41685 15.4099 10.4609
245 3 10.012 14.1748 9.55868
246 1 10.1244 15.6314 12.1192
247 2 10.142 16.6795 12.4734
248 2 9.59654 15.09 12.9062
249 2 11.165 15.2794 12.1695
250 1 7.63851 14.844 10.6392
251 2 7.10869 15.6561 11.1876
252 2 7.08472 14.6328 9.71768
253 2 7.62851 13.9138 11.205
254 4 10.8232 13.9506 8.10729
255 3 10.3495 12.3808 7.52794
256 1 12.6625 14.2314 8.00157
257 2 12.9992 14.7571 8.92863
258 2 13.3527 13.3558 7.90208
259 2 12.7323 14.7432 7.02254
260 1 9.91699 14.8342 6.76755
261 2 9.75793 13.8972 6.12015
262 2 8.92497 15.1995 7.09428
263 2 10.3501 15.5312 6.06946
264 4 10.0632 10.8595 7.65479
265 3 11.286 9.95465 8.37003
266 1 9.43963 10.1938 6.03877
267 2 9.36024 9.10193 6.01027
268 2 8.37212 10.4778 6.00326
269 2 9.96855 10.5348 5.13845
270 1 8.68359 10.8326 8.93494
271 2 7.68872 10.7936 8.51183
272 2 8.80484 9.8801 9.47446
273 2 8.78351 11.6577 9.65755
274 4 12.775 9.28201 8.92026
275 3 13.4505 7.95441 8.06194
276 1 12.3812 8.54377 10.5678
277 2 11.7737 9.22093 11.1696
278 2 11.8095 7.60712 10.4194
279 2 13.3058 8.25165 11.1202
280 1 13.9274 10.6732 8.77651
281 2 14.9275 10.3894 9.14197
282 2 13.9647 10.9717 7.70609
283 2 13.5917 11.5133 9.39912
284 4 13.1436 6.47471 7.30128
285 1 11.7225 6.26703 6.37006
286 2 11.659 5.37831 5.77381
287 2 10.9052 6.9929 6.30293
288 1 14.5315 5.30891 7.29603
289 2 14.1952 4.27986 7.16724
290 2 15.1954 5.52731 6.43674
291 2 15.1232 5.41515 8.19592
292 4 18.4828 6.97552 7.65046
293 3 17.4321 5.61299 7.007
294 1 17.9899 7.60338 9.36812
295 2 17.7996 7.00336 10.2968
296 2 18.8004 8.32584 9.48872
297 2 17.0321 8.0706 9.31845
298 1 19.7785 5.60835 8.11995
299 2 21.8112 8.43736 17.0265
300 2 4.39175 0.635229 19.0112
301 2 20.1406 5.33342 9.15103
302 4 18.4918 4.47557 7.44259
303 3 17.864 3.24106 8.17991
304 1 19.3499 3.55935 5.93403
305 2 0.418 8.04315 16.7796
306 2 3.45457 18.2011 14.522
307 2 4.32545 12.858 15.4347
308 1 18.9074 16.1415 14.9309
309 2 19.7331 12.9548 17.5129
310 2 17.9996 16.0799 15.3683
311 2 20.9659 14.549 17.568
312 4 17.2657 1.83945 8.63967
313 3 17.0985 0.952217 7.19755
314 1 18.5458 1.44448 10.0203
315 2 18.264 0.548551 10.7393
316 2 19.381 1.1758 9.43117
317 2 18.6006 2.4663 10.461
318 1 15.5695 1.70346 9.30368
319 2 15.3046 2.79872 9.52703
320 2 14.8326 1.3301 8.65802
321 2 15.5627 1.20479 10.2963
322 4 18.1558 0.809029 5.9139
323 3 17.2782 0.607371 4.53881
324 1 18.9541 2.40919 5.45036
325 2 19.9315 17.6595 5.83692
326 2 5.06731 13.4938 15.5153
327 2 20.6216 3.87943 5.9235
328 1 19.4484 18.6397 6.09932
329 2 20.0542 18.6912 7.40165
330 2 2.50965 15.8557 19.2599
331 2 2.46263 18.0238 1.99844
332 4 16.1175 18.2754 4.1733
333 3 14.7622 18.9974 3.43704
334 1 9.06885 4.45229 2.7488
335 2 9.28216 4.98519 3.6355
336 2 9.77033 3.59285 2.59969
337 2 9.1902 4.78733 1.61101
338 1 15.867 16.9899 5.44935
339 2 15.6347 16.257 4.61887
340 2 16.9615 16.7859 5.9117
341 2 15.1245 16.9135 6.24886
342 4 13.5171 18.1011 2.79352
343 1 3.76744 18.1357 13.446
344 2 4.04728 17.1545 13.2065
345 2 3.34757 0.0844375 12.5178
346 2 13.0237 0.655895 1.58562
347 1 10.4766 16.4312 2.40176
348 2 7.77429 17.1783 4.09827
349 2 12.2638 2.93395 17.7582
350 2 12.827 16.171 15.2037
351 4 19.7058 14.4977 15.1482
352 3 21.3302 14.4201 14.7875
353 1 4.81852 18.6087 18.6098
354 2 20.9382 17.1298 2.92406
355 2 6.90685 0.576616 19.4207
356 2 4.2255 10.8673 2.45137
357 1 6.21527 18.9368 18.5563
358 2 0.208103 16.8947 3.20143
359 2 18.5568 11.73 6.75849
360 2 21.023 8.73122 2.17155
361 4 0.559391 13.4692 13.5059
362 3 1.95818 13.5831 14.3502
363 1 0.716467 14.6123 11.841
364 2 21.7011 14.9938 11.3048
365 2 1.36616 14.0835 11.1177
366 2 1.27857 15.3321 11.935
367 1 19.7337 14.2867 17.3632
368 2 1.16087 2.37211 6.66223
369 2 20.6031 5.26821 7.11833
370 2 18.7895 13.893 17.3973
371 4 1.66252 11.7659 14.3854
372 3 3.08386 10.8927 14.0697
373 1 0.795557 1.90785 9.07365
374 2 21.7618 2.38373 9.14814
375 2 1.15898 2.29952 10.2795
376 2 1.93335 2.45762 8.62418
377 1 1.1085 11.6184 16.1624
378 2 21.8526 11.6963 16.1791
379 2 1.64168 10.7888 16.7096
380 2 1.55098 12.5352 16.6543
381 4 3.87881 9.70486 13.2214
382 3 3.90741 8.65038 14.4699
383 1 5.45437 10.3063 12.4707
384 2 6.21426 10.3771 13.2345
385 2 5.66732 9.4602 11.8083
386 2 5.20073 11.2265 11.9299
387 1 2.71379 9.27381 11.7424
388 2 2.91054 8.41768 11.0415
389 2 1.8187 8.83699 12.0998
390 2 2.24477 10.0677 11.2335
391 4 3.51792 7.03132 14.8085
392 3 4.05675 6.16389 13.5359
393 1 4.44708 6.56963 16.3984
394 2 4.29657 5.54466 16.7682
395 2 5.4849 6.83161 16.3213
396 2 4.02563 7.17668 17.2028
397 1 1.71325 7.00545 14.6926
398 2 1.62169 8.00061 14.2186
399 2 1.32993 6.33627 13.9039
400 2 1.22556 6.91319 15.6754
401 4 4.44757 4.74552 12.9335
402 1 2.87843 3.72737 12.8263
403 2 2.27024 3.80292 11.9332
404 2 3.27321 2.70886 12.8665
405 2 2.24228 3.75632 13.7292
406 1 5.81448 3.55144 13.5273
407 2 5.90593 2.83433 12.6926
408 2 5.42213 2.94758 14.3469
409 4 9.40981 17.4072 15.3096
410 3 8.62828 16.2388 16.3337
411 1 9.25201 18.64 16.7443
412 2 9.73336 0.523113 0.601723
413 2 10.4671 0.903273 19.384
414 2 9.28213 18.9266 17.7298
415 1 8.51968 18.1778 13.8447
416 2 9.08806 18.9966 13.5001
417 2 8.29935 17.4753 13.0728
418 2 7.60764 18.5934 14.2568
419 4 8.69992 14.9486 17.4236
420 3 8.90271 13.5386 16.5629
421 1 10.1176 15.2929 18.5333
422 2 10.6647 14.4675 19.1489
423 2 10.9288 15.8608 17.9817
424 2 9.59077 16.0254 19.2376
425 1 6.98372 15.016 18.2635
426 2 6.17549 14.9758 17.4647
427 2 6.66777 14.2264 19.0697
428 2 6.88727 16.0473 18.709
429 4 8.55666 12.152 15.6678
430 3 9.71613 11.0241 15.9195
431 1 8.32339 12.5381 13.7931
432 2 7.94637 11.5925 13.27
433 2 7.58512 13.3169 13.5371
434 2 9.29305 12.7663 13.2843
435 1 7.01172 11.4818 16.4889
436 2 6.16702 12.2237 16.497
437 2 6.68825 10.5302 15.9788
438 2 7.36263 11.2392 17.4994
439 4 11.0069 9.98608 15.699
440 3 10.3044 8.75735 14.7489
441 1 11.8875 9.33351 17.1805
442 2 12.2485 10.1078 17.8597
443 2 6.62638 18.2622 1.2586
444 2 11.9338 8.28313 17.495
445 1 12.4285 10.8829 14.8124
446 2 11.8873 11.611 14.1754
447 2 12.9064 11.5917 15.5049
448 4 9.68166 7.24444 14.9828
449 3 8.90865 6.60259 13.6558
450 1 8.40741 7.19435 16.3307
451 2 7.4537 6.7611 15.9883
452 2 8.74456 6.59314 17.1646
453 2 8.15975 8.22251 16.6763
454 1 11.207 6.06877 15.194
455 2 11.0303 5.45287 16.0892
456 2 11.4402 5.36864 14.3718
457 2 12.0825 6.66984 15.4574
458 4 8.17062 5.36336 12.7562
459 1 7.27152 4.09925 13.8949
460 2 7.05689 4.60017 14.8428
461 2 7.87897 3.23844 14.1821
462 1 9.56032 4.36869 11.8746
463 2 9.58837 4.41249 10.7708
464 2 10.518 4.73924 12.2868
465 2 9.47574 3.31706 12.1663
466 4 17.1241 12.1832 7.26818
467 3 17.5206 13.0019 8.74411
468 1 16.1813 13.2015 6.22254
469 2 15.7948 14.279 6.49983
470 2 16.1291 12.901 5.15986
471 2 2.81542 18.491 1.6558
472 1 15.9933 18.3103 14.39
473 2 15.3987 18.1858 15.2934
474 2 16.2635 17.2306 14.1608
475 2 15.3671 18.8118 13.5654
476 4 17.7887 13.7374 10.0999
477 3 16.6689 13.972 11.1758
478 1 19.3882 14.4011 10.5616
479 2 19.5557 15.4508 10.621
480 2 19.4454 13.8519 11.5672
481 2 20.2489 14.013 9.97417
482 1 16.5715 16.6704 8.91488
483 2 16.415 15.6552 8.4629
484 2 17.6408 16.7747 8.93381
485 2 16.1412 17.5836 8.44312
486 4 15.356 13.6845 12.2573
487 3 14.777 12.1308 12.2954
488 1 16.082 14.1987 13.8767
489 2 16.7264 15.0468 13.5245
490 2 15.3773 14.7774 14.5268
491 2 16.7099 13.469 14.3639
492 1 13.9086 14.681 11.7467
493 2 13.535 14.3718 10.7511
494 2 13.1127 14.4587 12.4581
495 2 14.2048 15.7495 11.6322
496 4 15.068 10.7119 13.0751
497 3 16.2385 11.0564 14.1725
498 1 13.5228 10.0799 14.0766
499 2 13.0231 9.41377 13.353
500 2 13.9268 9.4152 14.8533
501 1 15.7054 9.40384 11.8843
502 2 15.3601 8.35618 12.0403
503 2 15.6135 9.68047 10.8309
504 2 16.7749 9.47963 12.0854
505 4 17.7669 10.6056 14.6748
506 3 17.7746 8.99517 15.0806
507 1 18.9668 10.8493 13.0985
508 2 18.8331 11.8592 12.7126
509 2 20.0437 10.8403 13.4061
510 2 18.7635 10.1108 12.3347
511 1 18.113 11.7048 16.1484
512 2 18.5802 11.179 17.1287
513 2 18.7695 12.5344 15.816
514 2 17.1672 12.1725 16.4284
515 4 18.2887 7.33189 14.6845
516 1 16.6138 6.69729 14.0472
517 2 16.0369 7.26961 14.7746
518 2 16.3855 6.8733 12.9757
519 2 16.4464 5.62758 14.2254
520 1 19.7977 7.32421 13.5644
521 2 20.6479 7.059 14.1687
522 2 19.6692 6.75254 12.6063
523 2 19.8417 8.4243 13.542
ITEM: TIMESTEP
11500
ITEM: NUMBER OF ATOMS
523
ITEM: BOX BOUNDS pp pp pp
8.7878688751739986e-02 2.1912121311248427e+01
7.6214642266835497e-02 1.9003748357733127e+01
7.9889717047034736e-02 1.9920110282952955e+01
ITEM: ATOMS id type x y z
1 4 6.03241 4.29873 1.81499
2 3 7.20197 5.4924 1.4874
3 1 20.766 3.48706 13.8065
4 2 3.28767 16.0426 15.5622
5 2 0.604404 0.755247 4.51435
6 2 19.94 3.4251 12.9709
7 1 19.0387 8.66365 7.2802
8 2 0.184349 3.00632 13.3898
9 2 19.7865 9.3898 7.17972
10 2 18.3486 8.85448 6.32369
11 4 6.38849 6.98795 0.981567
12 3 4.98493 6.68804 1.69228
13 1 6.93613 8.60596 3.22943
14 2 6.36657 6.72441 19.4767
15 2 8.03158 8.5563 3.67278
16 2 6.23012 8.94753 4.01862
17 1 6.77219 8.69994 1.79614
18 2 18.0343 10.6396 7.73635
19 2 17.4007 3.59773 16.305
20 2 14.128 16.3485 17.9506
21 4 3.49466 5.50446 1.24118
22 3 4.67875 4.21116 1.15438
23 1 2.89777 5.41403 19.4447
24 2 3.58963 4.81268 18.9661
25 2 2.0704 4.6965 18.9302
26 2 3.06775 6.38669 18.8547
27 1 2.07856 5.55701 2.60601
28 2 2.06049 5.5404 3.87354
29 2 2.26077 6.65327 2.60515
30 2 1.23583 5.37388 1.8742
31 4 6.68243 3.01134 4.79217
32 3 5.33408 1.91436 5.66411
33 1 19.1563 17.9536 16.3123
34 2 18.5977 16.7268 14.8847
35 2 17.9741 18.6735 16.2435
36 2 15.5118 2.93052 1.7428
37 1 6.46441 2.85736 2.85003
38 2 19.975 18.6247 16.373
39 2 16.7598 5.94111 3.94778
40 2 5.60181 2.17567 2.64226
41 4 2.04533 3.70833 5.78512
42 3 3.10212 2.80412 6.83893
43 1 1.62452 0.708807 3.90575
44 2 0.738675 7.35337 4.79464
45 2 2.19113 18.587 4.38964
46 2 20.0615 14.2524 4.10559
47 1 15.1607 3.22248 4.19905
48 2 14.9699 3.13453 5.52621
49 2 14.5511 3.11352 3.2493
50 2 16.0703 2.96092 3.81891
51 4 4.09424 1.62391 6.63088
52 1 12.0366 2.54878 0.0990888
53 2 7.74098 1.91864 17.2988
54 2 3.08938 0.411583 6.16475
55 2 14.6321 4.67866 1.11446
56 1 8.77663 17.2234 3.60715
57 2 3.20231 12.6958 18.2401
58 2 11.9238 1.4256 0.538443
59 2 2.21506 1.88602 3.78875
60 4 11.1953 16.5546 2.52413
61 3 14.266 4.35109 12.371
62 1 9.0661 4.23745 8.39988
63 2 8.17188 4.60769 7.90754
64 2 8.85959 3.63042 9.26199
65 2 9.55322 5.21056 8.59404
66 1 13.3754 4.68142 13.0877
67 2 14.3721 17.9557 15.2903
68 2 3.41662 17.3201 16.8842
69 2 9.53875 3.78638 7.54646
70 4 13.6544 16.0866 19.4154
71 3 13.2425 15.1124 1.1029
72 1 12.7461 17.4703 4.51041
73 2 9.36386 5.4752 0.278711
74 2 9.26517 15.2858 3.09696
75 2 12.4425 16.8994 5.41685
76 1 14.6423 17.5579 0.223056
77 2 13.9539 17.6479 1.05523
78 2 15.7199 17.4949 0.285685
79 2 14.2585 18.5226 19.72
80 4 13.0138 14.0357 2.71275
81 3 12.4682 12.5861 2.34719
82 1 13.0245 13.729 16.1603
83 2 13.2829 14.7177 16.235
84 2 13.3991 13.2054 15.2108
85 2 11.9274 13.5397 15.9714
86 1 8.21463 17.4014 4.80302
87 2 2.10326 2.94429 16.5752
88 2 7.91317 17.1956 5.91085
89 2 10.1518 17.8396 13.2943
90 4 12.3601 11.0157 3.11829
91 3 10.6629 10.3951 3.1678
92 1 13.5584 11.2633 4.60043
93 2 14.2221 12.1466 4.25528
94 2 12.8142 11.5197 5.3599
95 2 13.7127 10.1937 4.93404
96 1 12.6775 9.2492 2.28232
97 2 19.0822 17.1196 17.2134
98 2 13.2346 13.3152 17.2417
99 4 10.9004 8.88238 2.28393
100 3 9.71448 9.03822 1.11502
101 1 1.40803 2.29943 16.9286
102 2 1.30997 1.33793 16.2856
103 2 0.371596 2.84484 16.7371
104 2 1.37788 2.24599 18.0676
105 1 10.527 7.07163 2.61217
106 2 9.50901 7.24271 2.62931
107 2 10.9067 6.55411 1.75207
108 2 10.9558 6.87232 3.65268
109 4 8.24011 9.8591 0.85042
110 1 8.34244 11.2515 19.7267
111 2 9.15688 11.8746 0.140652
112 2 7.76566 11.639 18.6464
113 2 5.8784 8.99355 1.42833
114 1 10.3605 5.26558 19.7942
115 2 10.9746 4.47026 0.364271
116 2 10.0072 5.27453 18.8163
117 2 11.1624 6.38443 19.4645
118 4 20.8206 12.4669 2.03032
119 3 20.5855 10.6992 2.41046
120 1 19.8221 13.1804 3.25763
121 2 1.42416 13.2709 1.56911
122 2 19.1331 12.3442 3.58607
123 2 4.17614 18.0126 15.0357
124 1 0.824043 12.4965 2.25235
125 2 0.909415 12.8422 3.24172
126 2 1.80159 11.8596 2.44569
127 2 1.78337 0.703475 9.42721
128 4 20.2525 9.24061 2.89177
129 3 18.6199 9.07979 3.34364
130 1 20.4028 12.6708 0.212073
131 2 19.4395 12.0688 19.7695
132 2 20.1237 13.657 19.5642
133 2 21.3982 12.4842 19.538
134 1 8.07036 0.288682 9.83634
135 2 16.361 16.4324 11.633
136 2 5.96297 0.532069 9.75367
137 2 7.45134 18.2655 9.66407
138 4 17.2954 8.29909 3.39223
139 3 16.3095 8.54557 2.11174
140 1 17.732 6.54416 3.68801
141 2 18.1935 6.67391 4.5984
142 2 18.3817 5.94338 3.12572
143 2 16.7301 0.436711 14.5631
144 1 16.2425 8.89572 4.76687
145 2 16.2639 10.0361 5.03282
146 2 15.2664 8.41885 4.70476
147 2 17.0083 8.39454 5.49249
148 4 15.3723 8.64863 0.757985
149 3 15.2428 7.29393 19.6006
150 1 13.5759 8.58122 1.4566
151 2 3.48802 0.802683 7.90455
152 2 12.7477 7.6462 0.546519
153 1 15.7087 10.3348 19.5775
154 2 16.4325 10.4506 18.848
155 2 14.5961 10.7344 19.7409
156 2 16.6629 11.3884 19.8196
157 4 15.7435 6.0099 18.6591
158 3 16.999 6.23358 17.5432
159 1 14.4342 5.44146 17.4752
160 2 14.1637 4.63105 17.7483
161 2 13.5337 6.09137 17.4483
162 2 14.8082 5.19338 16.4896
163 1 15.3301 4.64381 0.347819
164 2 15.4243 3.59521 0.309366
165 2 14.5077 5.07307 0.184877
166 2 15.98 6.09387 0.855197
167 4 18.2255 5.8336 16.4679
168 1 18.2608 4.13211 15.918
169 2 3.34279 13.3806 18.2256
170 2 18.3429 4.04933 14.7679
171 2 19.0264 3.58456 16.5919
172 1 20.0302 6.25848 16.9997
173 2 20.5775 5.39308 17.247
174 2 19.6917 6.63392 18.1013
175 2 13.5796 16.773 3.87095
176 4 2.28493 15.7439 8.14637
177 3 3.62374 15.1131 7.39204
178 1 0.625425 15.6122 7.5324
179 2 0.205094 16.942 7.68104
180 2 19.9861 2.26519 14.0831
181 2 0.33661 14.5796 6.87099
182 1 2.91515 17.1024 9.34303
183 2 3.96635 17.102 9.74997
184 2 2.93077 18.1954 8.92298
185 2 2.35487 17.2158 10.2281
186 4 3.91397 13.9487 6.21096
187 3 3.37735 12.5639 6.78432
188 1 5.77274 13.996 6.1502
189 2 6.1334 15.0314 5.93062
190 2 6.39437 13.703 7.01417
191 2 6.19391 13.3437 5.35276
192 1 3.12047 14.1394 4.44439
193 2 2.95682 15.1663 4.20067
194 2 3.60172 13.4134 3.76141
195 2 2.05666 13.8132 4.65318
196 4 2.85974 11.3698 7.80188
197 3 2.9964 9.88939 7.07849
198 1 0.951477 11.3411 7.9315
199 2 0.57096 12.3763 8.18663
200 2 0.616544 10.7543 7.01701
201 2 0.622051 10.6823 8.71407
202 1 3.77336 11.9111 9.32234
203 2 3.45883 12.9799 9.4708
204 2 3.39438 11.4728 10.2715
205 2 4.87257 11.9611 9.15636
206 4 4.16952 8.75536 6.6214
207 3 4.26095 7.95475 8.07203
208 1 3.92555 7.72678 5.1911
209 2 3.03499 7.2286 4.83891
210 2 4.79927 7.31274 4.68745
211 2 6.53913 13.8915 1.97169
212 1 5.80958 9.47421 6.28427
213 2 6.60253 8.74257 6.295
214 2 5.72076 10.0243 5.2913
215 2 6.15825 10.1474 7.08657
216 4 4.30286 6.43079 8.63413
217 3 4.84504 6.27217 10.184
218 1 2.49971 5.90756 8.61024
219 2 2.04388 6.07617 7.60852
220 2 2.37059 4.85465 8.77151
221 2 1.90463 6.54287 9.28282
222 1 5.32 5.57358 7.4322
223 2 6.36685 5.82833 7.50422
224 2 5.25888 4.46493 7.58652
225 2 5.04882 5.79288 6.3676
226 4 5.56235 5.10311 11.2129
227 1 5.69789 3.34006 10.4837
228 2 6.40952 2.65586 10.9665
229 2 4.69003 2.91372 10.6472
230 2 5.89843 3.28114 9.40315
231 1 7.16899 6.05549 11.536
232 2 7.82316 6.15877 10.6656
233 2 6.85805 7.09311 11.7717
234 4 9.86029 18.6159 9.55455
235 3 10.1215 17.0093 10.0461
236 1 10.6254 0.375417 8.00932
237 2 9.86324 1.40686 8.09484
238 2 11.336 1.0047 7.71588
239 2 10.2545 18.9625 6.87066
240 1 11.0379 0.495515 10.9145
241 2 12.2223 0.198757 11.1899
242 2 10.6787 1.28035 10.3862
243 2 10.2307 18.9537 11.4458
244 4 9.52952 15.4729 10.0866
245 3 9.65709 14.533 8.66068
246 1 10.5592 14.4743 11.1515
247 2 10.3822 14.4308 12.229
248 2 10.4454 13.4981 10.6847
249 2 11.6144 14.7904 11.0062
250 1 7.73579 15.4081 10.4392
251 2 7.48212 16.2241 11.1593
252 2 7.22709 15.6349 9.5177
253 2 7.45775 14.4326 10.872
254 4 10.7497 14.052 7.43073
255 3 10.6947 12.2614 7.35568
256 1 12.3775 14.8268 7.54708
257 2 12.0499 15.8854 7.64692
258 2 13.0387 14.6443 8.41689
259 2 12.9182 14.566 6.6364
260 1 9.60958 14.6862 5.96745
261 2 9.06515 15.4113 6.64496
262 2 10.0409 15.3061 5.12406
263 2 8.90565 13.9971 5.48074
264 4 9.75537 10.9205 7.45539
265 3 10.7086 9.48348 7.79569
266 1 9.02461 10.6644 5.8185
267 2 8.70031 9.6211 5.74306
268 2 8.05653 11.2083 5.81124
269 2 9.63116 10.9418 4.95271
270 1 8.49873 11.0138 8.89355
271 2 7.90736 11.9113 8.63328
272 2 7.79842 10.1554 8.87048
273 2 8.97364 11.1489 9.89199
274 4 11.9971 8.66341 8.44177
275 3 12.4368 7.20955 7.61769
276 1 11.7466 8.51508 10.313
277 2 11.9698 7.5756 10.7994
278 2 12.3597 9.30691 10.7775
279 2 10.7255 8.8196 10.5864
280 1 13.4677 9.76575 8.00975
281 2 14.3372 9.61324 8.6652
282 2 13.8986 9.61617 7.01656
283 2 13.1036 10.7795 8.1808
284 4 12.697 5.80886 6.98848
285 1 12.6058 5.2113 5.39854
286 2 12.7077 4.15679 5.11673
287 2 12.5511 5.85036 4.52765
288 1 13.7304 4.87967 8.27937
289 2 14.6053 4.49857 7.73319
290 2 13.9771 5.65261 9.03587
291 2 13.2387 4.03952 8.74854
292 4 18.8289 7.25239 8.32201
293 3 17.941 6.05075 7.43448
294 1 17.5439 7.69328 9.62376
295 2 17.2625 6.64886 9.75053
296 2 17.7868 8.21571 10.4892
297 2 16.6173 8.31972 9.43616
298 1 20.0724 5.91852 8.66038
299 2 1.71343 10.464 18.2498
300 2 4.86905 1.10538 15.258
301 2 21.0851 6.06976 8.63286
302 4 18.9625 4.86378 7.82083
303 3 18.3969 3.73831 8.95652
304 1 19.667 3.87788 6.33377
305 2 2.13815 10.4175 19.0022
306 2 3.52383 18.0735 13.26
307 2 5.28127 14.3851 13.9113
308 1 19.8392 17.1859 15.3259
309 2 20.3604 14.001 17.6679
310 2 20.127 17.7137 14.4156
311 2 0.146006 14.4796 16.6405
312 4 17.9087 2.1474 9.13489
313 3 18.8705 1.07237 8.23207
314 1 18.4266 1.83011 10.8406
315 2 18.2933 0.737795 10.9321
316 2 19.3365 1.89255 11.0113
317 2 17.7702 2.37804 11.7364
318 1 16.1199 1.88013 9.01488
319 2 15.6365 2.43587 8.15931
320 2 16.2669 1.05023 8.34048
321 2 15.4182 1.60921 9.84402
322 4 18.9994 0.803713 6.59726
323 3 17.4518 0.116324 6.2718
324 1 19.6568 2.66556 5.96259
325 2 20.325 18.9703 4.04949
326 2 5.40722 14.1099 14.483
327 2 20.2708 4.85783 5.80047
328 1 20.6196 18.851 5.70001
329 2 21.3818 17.9396 6.55721
330 2 3.25324 15.4036 16.036
331 2 2.92791 16.3253 0.672251
332 4 16.2883 17.9899 5.46581
333 3 15.1609 18.5511 4.39032
334 1 7.61244 1.90444 2.6074
335 2 7.23919 1.65378 1.63426
336 2 8.47904 2.45999 2.66851
337 2 7.86334 0.964933 3.26785
338 1 15.6622 16.3272 6.43601
339 2 16.4449 15.5785 6.35629
340 2 15.6289 16.7008 7.42079
341 2 14.5854 16.0343 6.22446
342 4 13.5201 18.9402 4.86806
343 1 4.36302 18.085 12.2616
344 2 5.15383 17.244 11.8095
345 2 5.16952 18.2022 13.1161
346 2 14.2586 14.678 18.7325
347 1 9.66046 16.3585 3.10737
348 2 7.58662 18.2611 4.85488
349 2 12.9435 3.27268 0.627968
350 2 14.5121 17.2942 15.6836
351 4 20.4829 15.3045 15.2637
352 3 20.8412 14.4505 13.8979
353 1 4.31578 18.8699 15.6407
354 2 0.584714 5.65325 18.5458
355 2 3.77491 18.9716 17.6591
356 2 5.89021 14.3322 2.03527
357 1 4.11579 18.251 16.8742
358 2 0.705294 6.26685 17.8126
359 2 19.314 12.5024 6.99912
360 2 20.6147 8.93337 4.3134
361 4 0.303268 14.5682 12.4674
362 3 1.31301 13.3201 12.8996
363 1 1.07574 16.1883 12.6394
364 2 2.19409 15.9828 12.99
365 2 0.533093 16.8356 13.7428
366 2 1.13361 16.8021 11.6551
367 1 21.0572 14.6615 17.004
368 2 0.644088 3.85883 6.85921
369 2 1.33119 7.15168 4.27247
370 2 20.5571 15.2743 17.5533
371 4 1.54868 11.7214 13.4177
372 3 3.08539 11.2015 12.9316
373 1 1.66717 1.77169 9.50906
374 2 2.46313 1.51564 10.4417
375 2 1.75394 2.82256 8.99282
376 2 0.739768 2.29219 10.0422
377 1 1.08709 11.726 15.4137
378 2 1.43192 12.652 15.5417
379 2 21.7962 12.0295 15.5151
380 2 1.70646 11.1168 16.1128
381 4 3.78173 9.55369 12.8969
382 3 2.87148 8.83253 14.104
383 1 5.6294 9.9422 13.3839
384 2 5.64492 10.6326 14.2229
385 2 6.04426 9.02933 13.8362
386 2 6.38124 10.2066 12.6736
387 1 3.5079 8.71566 11.2825
388 2 2.9256 7.84672 11.5907
389 2 3.37816 9.33807 10.4992
390 2 4.65123 8.53592 10.9106
391 4 3.51165 7.50564 14.9433
392 3 4.01374 6.38226 13.8348
393 1 4.74813 8.251 16.0335
394 2 5.76361 7.82367 15.9632
395 2 4.77264 9.31993 15.7683
396 2 4.42336 8.21996 17.0945
397 1 2.17442 6.79818 16.0646
398 2 1.52325 7.61443 16.3158
399 2 1.71002 5.75728 15.9527
400 2 2.70842 6.62088 17.0218
401 4 4.36838 4.82727 13.3002
402 1 2.81892 3.77105 13.0455
403 2 2.19844 4.30511 12.275
404 2 3.15652 2.88134 12.4563
405 2 2.25866 3.40364 13.9439
406 1 5.7277 4.3163 14.5025
407 2 6.0902 3.27987 14.3759
408 2 5.21587 4.38237 15.4762
409 4 9.37249 18.0184 14.3659
410 3 9.36757 16.2824 14.6367
411 1 10.2538 18.9281 15.6971
412 2 8.13282 1.71948 17.8962
413 2 13.8254 13.7223 3.71145
414 2 10.6028 0.745211 16.3206
415 1 7.48936 18.5597 14.4324
416 2 7.451 0.638525 14.2761
417 2 6.56677 18.0047 13.9264
418 2 7.14367 18.14 15.5518
419 4 9.28253 15.1914 15.8789
420 3 9.42772 13.771 15.0574
421 1 10.494 15.7765 17.181
422 2 10.9453 14.9654 17.8017
423 2 11.2771 16.025 16.4062
424 2 10.2506 16.7325 17.7353
425 1 7.37702 15.3717 16.5591
426 2 6.87762 14.8586 15.7566
427 2 6.94253 15.3139 17.6397
428 2 7.30886 16.4615 16.3602
429 4 9.20841 12.1186 14.793
430 3 10.379 11.1634 15.2803
431 1 8.76287 11.9212 13.0046
432 2 8.42177 10.8961 12.7491
433 2 8.05319 12.6865 12.6955
434 2 9.72873 12.1489 12.5354
435 1 7.76909 11.8206 15.9238
436 2 6.85354 12.3569 15.7063
437 2 7.47995 10.7874 16.0969
438 2 8.13669 12.2035 16.8465
439 4 11.3765 9.91189 15.4618
440 3 10.6307 8.51025 14.7416
441 1 12.0812 9.83929 17.1218
442 2 11.7917 9.18971 17.952
443 2 16.2893 2.59009 1.98147
444 2 13.0168 10.3932 17.2552
445 1 12.6354 10.3458 14.1734
446 2 12.0676 10.5523 13.2705
447 2 13.104 11.2927 14.5249
448 4 9.6292 7.24935 15.1753
449 3 8.96559 6.76595 13.7518
450 1 8.46859 7.53068 16.6574
451 2 7.89462 6.59966 16.7979
452 2 9.15896 7.53715 17.4971
453 2 7.79169 8.38984 16.7454
454 1 10.7809 5.83272 15.7747
455 2 10.2422 5.03621 16.3228
456 2 11.2779 5.28503 14.9497
457 2 11.6172 6.2146 16.3929
458 4 8.06661 5.51516 13.0952
459 1 6.84129 5.29988 14.5105
460 2 6.43514 6.33501 14.6575
461 2 7.43254 5.12078 15.4279
462 1 9.17625 4.04143 12.7643
463 2 8.72463 3.27605 12.0937
464 2 10.1536 4.28294 12.2961
465 2 9.42246 3.59315 13.7407
466 4 17.9342 12.0429 7.2659
467 3 17.3956 12.8141 8.64517
468 1 17.1072 12.5016 5.69007
469 2 15.9564 12.5635 5.61949
470 2 17.6365 12.5932 4.78654
471 2 2.24331 17.2308 0.634322
472 1 17.0668 1.32498 13.9134
473 2 16.5594 0.963845 12.8839
474 2 18.2075 1.27729 13.5399
475 2 16.5836 2.42982 14.1382
476 4 17.7665 12.5442 10.2585
477 3 16.4836 13.0646 11.2119
478 1 19.4565 13.361 10.5787
479 2 19.3416 13.8425 11.5391
480 2 20.313 12.593 10.5152
481 2 19.8541 14.1206 9.87817
482 1 16.3966 16.7826 10.4591
483 2 16.9505 15.9398 9.96392
484 2 17.0265 17.784 10.5384
485 2 15.3593 16.9725 10.1094
486 4 15.2316 13.5419 12.0935
487 3 14.7228 12.1286 12.6916
488 1 16.138 14.6035 13.4313
489 2 15.5897 14.5463 14.3899
490 2 17.1548 14.148 13.4114
491 2 16.3563 15.6549 13.2639
492 1 13.9852 14.0853 10.8887
493 2 13.3676 13.2454 10.5796
494 2 13.3804 14.9366 11.1732
495 2 14.4796 14.4134 9.94998
496 4 15.2089 10.5772 12.8676
497 3 16.6769 10.5307 13.7002
498 1 13.8304 9.48549 13.7356
499 2 13.6098 8.75041 12.9462
500 2 14.2409 8.88245 14.5637
501 1 15.228 9.95885 11.0873
502 2 14.479 9.15435 10.969
503 2 14.9457 10.8772 10.5824
504 2 16.1497 9.5969 10.6186
505 4 17.8613 10.3337 14.861
506 3 17.9559 8.68457 15.1086
507 1 19.5527 10.8261 14.2638
508 2 19.6581 11.894 14.1425
509 2 20.2977 10.318 14.965
510 2 19.8067 10.3068 13.3576
511 1 17.3918 11.0997 16.3445
512 2 16.3403 10.7455 16.7023
513 2 18.3284 11.0943 17.0444
514 2 17.2579 12.1961 16.138
515 4 17.9406 7.13423 14.4937
516 1 16.3341 6.69906 13.5852
517 2 15.6253 7.05717 14.3271
518 2 16.0991 7.16406 12.6376
519 2 16.2348 5.61367 13.4881
520 1 19.5795 6.95828 13.4875
521 2 20.1078 7.86815 13.232
522 2 20.0936 6.51242 14.4171
523 2 19.5202 6.2259 12.6883
ITEM: TIMESTEP
12000
ITEM: NUMBER OF ATOMS
523
ITEM: BOX BOUNDS pp pp pp
9.3689993225067880e-02 2.1906310006775115e+01
8.1254618372877729e-02 1.8998708381627118e+01
8.5172721113659478e-02 1.9914827278886349e+01
ITEM: ATOMS id type x y z
1 4 5.99051 4.21701 2.20975
2 3 6.80443 5.45483 1.54148
3 1 21.1322 6.1842 10.8043
4 2 6.70906 14.6761 12.5562
5 2 1.52062 15.9321 2.49954
6 2 21.6156 5.03147 10.967
7 1 20.4025 8.47058 6.48825
8 2 18.2968 3.44421 13.5321
9 2 19.9865 9.35584 7.11304
10 2 20.0732 7.82733 5.66595
11 4 6.43118 6.76601 0.7517
12 3 4.75221 6.57929 0.346463
13 1 7.25726 7.86993 3.75572
14 2 6.73266 7.23247 19.2931
15 2 7.21715 8.64228 4.50236
16 2 7.03577 6.85622 4.17299
17 1 6.97138 8.18706 2.27928
18 2 17.4745 10.7888 7.48078
19 2 18.0232 4.20716 16.8447
20 2 16.3118 16.0789 2.17758
21 4 3.70521 5.57357 1.1512
22 3 4.47313 3.97821 1.75869
23 1 2.70614 5.52844 19.4518
24 2 1.88223 4.87918 19.2624
25 2 2.01811 6.55414 19.5419
26 2 3.55529 5.39896 18.369
27 1 2.92574 6.33099 2.59676
28 2 3.05539 5.88557 3.61216
29 2 3.54385 7.27958 2.46782
30 2 1.87873 6.5949 2.83661
31 4 6.69394 2.75277 4.76388
32 3 5.18618 2.10171 4.27664
33 1 19.0281 17.0499 14.035
34 2 20.6831 18.2591 14.6698
35 2 18.6717 15.8821 14.4524
36 2 19.7506 16.6238 17.9618
37 1 7.02664 2.77696 2.79794
38 2 19.8374 16.3928 13.2471
39 2 16.4876 5.24748 2.91735
40 2 6.54583 1.88764 2.38439
41 4 2.01118 3.4346 5.67443
42 3 2.93207 1.76411 6.04799
43 1 1.91302 16.8307 2.54204
44 2 20.7079 7.52235 7.01881
45 2 1.13154 17.5699 2.16719
46 2 18.7328 13.1605 0.920306
47 1 14.9778 4.83125 6.68962
48 2 15.4443 4.28435 5.65725
49 2 15.6498 5.51012 7.35518
50 2 14.6891 4.07762 7.36738
51 4 3.79656 1.09301 4.8223
52 1 14.5704 0.675384 4.12094
53 2 11.7447 0.426397 19.4954
54 2 3.21682 0.770304 3.3333
55 2 15.46 5.03547 0.993003
56 1 9.80131 17.5456 3.02429
57 2 3.69434 14.5315 15.9659
58 2 13.4065 0.206236 4.55814
59 2 2.86621 16.2143 2.12274
60 4 12.1997 16.363 3.59177
61 3 13.9187 3.35605 13.3405
62 1 8.74246 4.54548 8.49766
63 2 9.59197 3.89443 8.78376
64 2 8.5046 5.18285 9.32791
65 2 7.85755 3.99818 8.26173
66 1 13.2239 4.23994 13.2864
67 2 12.777 17.2483 12.0497
68 2 1.65238 18.6916 14.47
69 2 9.15413 5.14525 7.72421
70 4 16.6792 16.0317 0.769234
71 3 12.0232 15.1027 0.412654
72 1 14.1295 16.4392 4.34503
73 2 11.4468 4.92783 0.811982
74 2 11.4576 17.9847 1.50093
75 2 13.6167 15.3612 4.62351
76 1 15.2043 17.6482 0.357069
77 2 16.0281 18.3875 0.640576
78 2 15.2545 17.1144 19.1063
79 2 14.2935 17.448 0.932563
80 4 12.4659 14.4193 1.84243
81 3 12.0923 12.8734 2.57883
82 1 14.266 14.3987 17.7053
83 2 13.6235 13.4287 17.9111
84 2 14.8825 14.6249 18.4654
85 2 13.4484 15.0113 17.741
86 1 8.68197 18.0509 3.56866
87 2 21.7475 3.74105 16.1421
88 2 8.82397 0.245837 3.83468
89 2 11.0196 0.98745 13.2385
90 4 12.3103 11.4601 3.15776
91 3 10.9733 10.4416 3.49421
92 1 13.521 10.7098 4.454
93 2 14.4696 10.6632 3.9342
94 2 13.5532 11.0089 5.55459
95 2 13.2249 9.64873 4.71158
96 1 12.7252 9.7784 1.82692
97 2 18.019 18.0408 13.8556
98 2 14.6479 14.3568 16.7134
99 4 11.0928 9.14188 2.51752
100 3 9.83815 8.85568 1.55825
101 1 21.2251 4.42059 16.6958
102 2 20.333 4.77686 16.3434
103 2 21.8415 5.35541 16.8104
104 2 20.8675 3.60412 17.3834
105 1 11.8446 7.42517 3.22717
106 2 12.1773 6.99371 2.17912
107 2 12.8155 7.23778 3.70791
108 2 10.944 7.07081 3.76338
109 4 8.25659 9.06104 1.15419
110 1 8.24662 9.57136 19.2534
111 2 7.74228 10.8873 19.8636
112 2 7.53811 9.44867 18.3699
113 2 6.00051 9.13793 2.19525
114 1 11.4726 3.90152 0.213095
115 2 11.7693 3.50371 1.37005
116 2 10.6547 3.48605 19.7091
117 2 12.5534 4.12739 19.5941
118 4 20.1826 11.9834 1.23915
119 3 19.318 11.0748 2.5037
120 1 19.5921 13.4967 0.642035
121 2 21.7581 12.7321 2.90124
122 2 19.6135 14.4918 0.965209
123 2 0.809883 18.7579 16.5129
124 1 21.8216 12.1765 1.8578
125 2 0.915759 11.3317 2.09384
126 2 0.527528 13.1776 1.41878
127 2 0.815068 1.75854 8.58758
128 4 19.1196 10.3406 3.87432
129 3 18.6749 8.65675 3.57566
130 1 20.0176 10.8953 19.4315
131 2 21.1076 11.4496 19.1508
132 2 20.266 9.73112 19.394
133 2 19.3928 11.3837 18.632
134 1 7.62304 0.603798 8.67849
135 2 16.5494 18.0417 10.6197
136 2 9.17773 1.6413 14.7925
137 2 7.69809 1.27613 7.64131
138 4 17.125 8.00364 3.62661
139 3 16.2264 8.75069 2.09996
140 1 17.2706 6.044 3.00327
141 2 18.1004 5.48894 3.33857
142 2 17.6059 6.0155 1.84868
143 2 14.8401 0.459549 15.5313
144 1 16.4641 8.18996 5.33186
145 2 15.7948 9.01067 5.71174
146 2 16.0674 7.24894 5.64235
147 2 17.4298 8.39076 5.88774
148 4 15.5379 9.38254 0.806459
149 3 15.2933 8.25013 19.6429
150 1 13.8656 9.75794 1.39357
151 2 4.29137 18.3556 4.78366
152 2 13.5317 1.84986 2.53854
153 1 16.7155 10.7761 0.321858
154 2 18.0198 10.502 0.390174
155 2 16.7354 11.5389 19.1952
156 2 16.3277 11.7139 1.16124
157 4 14.6537 7.08828 18.8732
158 3 15.8112 6.89331 17.726
159 1 12.9362 7.82533 18.3451
160 2 12.564 8.23357 19.088
161 2 13.0367 8.66475 17.5401
162 2 12.249 6.92232 18.404
163 1 14.7076 5.69922 0.150692
164 2 14.0727 4.8623 19.4535
165 2 13.7423 2.64278 4.72885
166 2 13.45 2.46117 2.10596
167 4 17.2641 6.27443 17.1935
168 1 17.0395 4.53125 16.9585
169 2 3.41433 14.1312 15.327
170 2 16.5496 4.11763 17.8993
171 2 16.341 4.36399 16.1485
172 1 18.4838 6.80052 18.3612
173 2 18.8068 6.25935 19.3909
174 2 18.7413 7.87571 18.3067
175 2 14.9923 16.821 3.73294
176 4 1.51903 15.8711 7.48251
177 3 2.60138 14.9122 6.86956
178 1 0.170806 15.3551 8.48088
179 2 0.38111 16.0367 9.12023
180 2 18.6226 2.5838 13.367
181 2 20.4079 1.53059 7.02978
182 1 1.61243 17.4512 6.41944
183 2 0.711924 17.6009 5.80162
184 2 1.78591 18.4471 7.03938
185 2 2.38904 17.3058 5.65581
186 4 3.21756 13.5941 5.99586
187 3 2.57076 12.2288 6.70628
188 1 5.04719 13.9879 6.42529
189 2 5.33845 14.5154 5.51189
190 2 5.04746 14.7463 7.21241
191 2 5.72672 13.1477 6.67032
192 1 2.75163 13.5352 4.21905
193 2 2.31766 14.4358 3.78592
194 2 3.50038 13.0292 3.57973
195 2 1.95674 12.7357 4.08211
196 4 2.86518 11.7109 8.28303
197 3 3.82717 10.426 8.29914
198 1 1.18846 11.3162 9.10662
199 2 0.674598 12.293 9.28828
200 2 0.630611 10.5816 8.5616
201 2 1.07856 10.9557 10.1863
202 1 3.65777 12.902 9.46296
203 2 3.8967 12.4866 10.4565
204 2 4.65842 13.1734 9.03977
205 2 2.95082 13.7126 9.679
206 4 3.85092 9.027 7.3959
207 3 4.2438 7.82658 8.50463
208 1 2.35649 8.7043 6.55849
209 2 1.87062 7.7694 6.84998
210 2 2.03574 8.94688 5.57207
211 2 5.82927 13.6241 2.76299
212 1 5.37784 9.38807 6.22967
213 2 5.69583 8.54077 5.62594
214 2 5.21363 10.197 5.44657
215 2 6.20195 9.72136 6.88299
216 4 4.38786 6.19608 8.83941
217 3 5.12705 6.16273 10.3106
218 1 2.96005 5.0437 9.02335
219 2 2.04437 5.31942 8.47174
220 2 3.36132 4.11712 8.64539
221 2 2.72352 4.81492 10.0801
222 1 5.36981 5.51724 7.35098
223 2 5.32441 6.2279 6.5657
224 2 6.3896 5.14889 7.43796
225 2 4.76754 4.66486 6.90065
226 4 5.75828 5.34617 11.6601
227 1 6.06486 3.57621 11.1328
228 2 5.96523 2.81495 11.9006
229 2 5.34057 3.34807 10.3342
230 2 7.03994 3.56919 10.6039
231 1 7.33318 6.20127 12.0776
232 2 8.06526 6.21647 11.2519
233 2 7.16723 7.26296 12.2855
234 4 9.63776 18.8256 8.86486
235 3 9.26383 17.0676 8.68787
236 1 10.7732 0.76552 7.54491
237 2 11.5118 0.719397 8.15938
238 2 10.3021 19.0096 7.06996
239 2 10.3665 1.77405 7.29634
240 1 10.3738 0.40268 10.25
241 2 8.42115 0.692203 9.73257
242 2 9.86549 0.896345 10.9986
243 2 11.5365 18.919 10.4567
244 4 9.78879 15.4507 9.15649
245 3 11.0447 15.006 7.99251
246 1 9.94915 15.339 11.0505
247 2 8.84976 15.3965 11.2669
248 2 10.4681 14.4812 11.484
249 2 10.4089 16.1859 11.573
250 1 8.12381 14.6078 8.66033
251 2 7.31141 15.3413 8.84323
252 2 8.20543 14.3474 7.59313
253 2 7.81283 13.6531 9.17195
254 4 10.8071 13.6261 7.04481
255 3 10.2053 12.3481 7.95541
256 1 12.6977 13.2502 6.72832
257 2 12.9848 13.1223 5.69471
258 2 13.3229 14.06 7.16313
259 2 13.1084 12.3319 7.17149
260 1 9.77165 13.8726 5.42604
261 2 9.48725 12.8418 5.14621
262 2 8.93322 14.4663 5.75791
263 2 10.2663 14.4629 4.63042
264 4 9.98932 10.7744 7.74704
265 3 11.1925 9.65438 7.57135
266 1 8.8203 10.3184 6.44253
267 2 8.2535 9.43962 6.70824
268 2 8.2032 11.1804 6.16473
269 2 9.34186 10.0177 5.53241
270 1 9.29159 10.4429 9.40003
271 2 9.05165 9.38184 9.48323
272 2 9.81921 10.7302 10.3125
273 2 8.32054 10.9707 9.49168
274 4 11.9405 8.57374 8.54819
275 3 11.7493 6.93507 7.97987
276 1 11.3125 8.0421 10.2152
277 2 11.7921 7.07781 10.4228
278 2 11.6925 8.74658 10.9769
279 2 10.2329 7.85073 10.2732
280 1 13.6856 9.10233 8.3182
281 2 14.4062 8.60685 8.97252
282 2 14.0448 9.02461 7.28574
283 2 13.6078 10.1752 8.52915
284 4 12.1079 5.45116 7.34256
285 1 13.6356 5.63527 6.06011
286 2 13.3185 5.12234 5.19065
287 2 13.8432 6.65216 5.58609
288 1 12.4135 3.82727 8.41399
289 2 11.574 3.14426 8.62311
290 2 13.0648 3.43066 7.62389
291 2 13.1377 3.93644 9.22674
292 4 19.7376 7.19287 8.68861
293 3 18.4404 6.38238 7.92958
294 1 19.1317 8.3143 10.0916
295 2 18.6141 7.84883 10.9117
296 2 19.9159 9.04291 10.201
297 2 18.3899 9.01787 9.81344
298 1 20.6114 5.56396 8.74338
299 2 6.88957 12.1979 2.55141
300 2 2.60201 1.02573 16.7537
301 2 21.7123 5.33236 8.95892
302 4 19.1806 4.82946 8.07036
303 3 18.8377 3.65254 9.05655
304 1 19.1961 3.81455 6.26753
305 2 6.36803 11.8125 2.64317
306 2 6.46445 1.06923 13.5863
307 2 4.33914 0.877405 8.97802
308 1 19.9276 17.6688 15.2601
309 2 1.01398 16.9004 16.402
310 2 19.4854 18.3816 16.0394
311 2 19.6305 14.9941 15.7814
312 4 17.8501 2.39076 9.52264
313 3 16.9782 1.7634 8.18806
314 1 18.9926 1.34884 10.6974
315 2 18.5636 1.05171 11.6484
316 2 19.353 0.5281 10.5502
317 2 19.8954 2.00397 11.036
318 1 16.3597 3.00183 10.3147
319 2 16.2843 3.6141 11.2489
320 2 15.7762 3.4103 9.505
321 2 15.7747 2.08265 10.5872
322 4 17.9999 1.02937 6.97623
323 3 17.4405 18.822 6.04667
324 1 18.6974 2.5028 6.04932
325 2 19.0548 17.9687 7.11425
326 2 4.89864 0.761663 8.32428
327 2 19.2685 4.41115 5.40696
328 1 19.8949 0.276736 7.18406
329 2 21.9605 14.3106 8.61547
330 2 6.18535 15.1394 12.0517
331 2 9.06851 1.55509 18.9336
332 4 17.2839 17.2017 6.24583
333 3 15.8204 16.6206 6.58026
334 1 8.41245 3.07482 2.2555
335 2 9.21382 2.31239 2.45302
336 2 8.19484 3.16088 1.21624
337 2 8.8661 4.08533 2.49287
338 1 18.0405 15.9495 5.08331
339 2 19.0892 15.987 5.52126
340 2 17.4871 15.1245 5.10614
341 2 18.2626 16.5712 4.21058
342 4 14.2577 17.1847 6.18685
343 1 5.63315 0.474482 12.7375
344 2 6.22102 18.576 13.4049
345 2 5.18151 0.339304 11.3563
346 2 17.9356 15.9457 19.4364
347 1 11.1045 17.6183 2.48191
348 2 7.79506 17.4378 4.0233
349 2 14.5675 0.23505 3.04153
350 2 12.744 17.5304 12.6869
351 4 21.0195 15.5015 15.1111
352 3 21.5822 15.072 13.4648
353 1 2.81983 18.9987 16.3569
354 2 21.0843 3.47884 1.86913
355 2 4.12568 0.409441 16.2695
356 2 5.56576 14.4527 2.71973
357 1 1.48269 18.688 15.8302
358 2 20.4693 3.9051 2.19044
359 2 18.1121 12.5681 5.89233
360 2 20.1983 10.0869 4.67514
361 4 0.636748 14.7855 12.019
362 3 1.16522 13.2032 12.276
363 1 2.37099 15.9023 12.4604
364 2 2.74648 15.7477 13.5251
365 2 2.13058 16.849 12.4093
366 2 3.19556 15.7927 11.9516
367 1 0.441029 15.8935 16.2832
368 2 0.410085 2.9057 5.72101
369 2 21.4043 8.70095 6.09057
370 2 2.05862 17.5445 15.648
371 4 1.88406 12.1648 13.294
372 3 1.84659 10.7072 12.4015
373 1 1.65147 1.77583 9.37946
374 2 1.59526 1.60934 10.4073
375 2 2.49006 1.25719 8.64201
376 2 1.92841 3.05816 9.2761
377 1 1.03283 12.0306 14.9539
378 2 1.95317 11.6347 15.6843
379 2 0.968643 13.0949 15.2574
380 2 0.186306 11.5458 15.3982
381 4 3.08284 9.50867 12.4649
382 3 3.138 9.11029 14.0839
383 1 4.68612 10.2135 11.768
384 2 5.54109 10.3348 12.4176
385 2 4.86175 9.59092 10.8787
386 2 4.2752 11.1676 11.3934
387 1 2.67476 7.84013 11.7382
388 2 3.5457 7.39889 12.2243
389 2 1.86019 7.12112 11.8747
390 2 2.40093 7.67819 10.5317
391 4 3.22651 7.90356 15.2035
392 3 4.01088 6.64756 14.392
393 1 4.23941 8.4353 16.7819
394 2 3.47482 8.48424 17.5936
395 2 5.04126 7.69738 17.0836
396 2 4.7479 9.40902 16.7948
397 1 1.52659 7.24156 15.6224
398 2 1.30232 6.42863 14.9185
399 2 1.28309 6.93685 16.6883
400 2 0.790386 8.04792 15.3568
401 4 4.54923 5.21631 13.7271
402 1 3.16069 3.93762 13.3493
403 2 2.20503 4.49748 13.0971
404 2 3.45736 3.51936 12.3926
405 2 2.92366 3.19418 14.0378
406 1 5.82746 4.3362 14.6987
407 2 6.02727 3.44789 14.0813
408 2 5.4109 3.9355 15.6375
409 4 10.3387 17.6398 14.8247
410 3 9.59597 16.1961 15.1356
411 1 10.202 18.7102 13.3912
412 2 11.3964 0.60903 18.816
413 2 13.966 14.3202 1.85731
414 2 11.3916 17.4136 16.0254
415 1 9.00125 0.695936 15.2517
416 2 8.47183 0.745636 16.2463
417 2 4.87298 1.59622 18.6369
418 2 5.35987 2.19204 18.2343
419 4 8.75363 14.8405 15.4098
420 3 8.75315 13.7654 14.1582
421 1 9.49926 13.9504 16.8788
422 2 8.99226 13.1035 17.3065
423 2 10.5245 13.6513 16.6096
424 2 9.65781 14.6516 17.7537
425 1 7.03437 15.5621 15.8173
426 2 6.74167 16.0751 14.9014
427 2 6.14288 14.9588 16.056
428 2 6.89552 16.1444 16.757
429 4 8.60921 12.1033 14.2297
430 3 9.91752 11.6075 14.9342
431 1 8.28341 11.4623 12.523
432 2 8.70424 10.469 12.3088
433 2 7.23028 11.4236 12.2892
434 2 8.75443 12.1178 11.7888
435 1 7.0349 11.3431 14.9366
436 2 6.12673 11.6436 14.3724
437 2 7.22897 10.2607 14.8552
438 2 6.87073 11.516 16.0121
439 4 11.0341 10.4034 14.965
440 3 10.12 9.05447 14.5708
441 1 11.5685 10.3633 16.6692
442 2 10.8011 10.2246 17.4345
443 2 18.8401 16.9361 17.6886
444 2 12.6335 10.4043 16.9738
445 1 12.3523 10.6087 13.5515
446 2 11.9607 9.79263 12.944
447 2 12.1118 11.583 13.0874
448 4 9.94842 7.58391 15.2965
449 3 9.2633 6.59805 14.1269
450 1 8.65318 7.71013 16.6773
451 2 8.33251 6.75259 17.1092
452 2 9.025 8.29793 17.5401
453 2 7.79922 8.35312 16.3843
454 1 11.5998 6.74457 15.6731
455 2 12.4314 7.45638 15.7116
456 2 11.3589 6.27558 16.6334
457 2 11.6864 5.94224 14.9375
458 4 8.20458 5.425 13.4808
459 1 7.14824 5.15248 14.9708
460 2 7.01953 6.10128 15.5241
461 2 7.79641 4.57523 15.6837
462 1 9.42884 4.18569 12.74
463 2 9.00331 3.72394 11.841
464 2 10.2854 4.77224 12.3957
465 2 9.79935 3.43181 13.4549
466 4 17.6005 12.3428 7.34057
467 3 18.7132 12.7794 8.50943
468 1 16.2258 13.4585 7.32044
469 2 16.1781 14.5138 7.77458
470 2 15.4107 13.2449 6.65965
471 2 8.98571 0.840352 18.6916
472 1 15.5771 0.363179 14.573
473 2 16.6539 18.6817 14.8429
474 2 16.2265 1.38239 14.4312
475 2 15.2764 18.9141 13.6933
476 4 18.5003 11.9659 10.0874
477 3 17.0522 12.5349 10.8102
478 1 19.9591 12.5196 11.1619
479 2 20.6476 11.7534 11.3998
480 2 20.5399 13.1961 10.5239
481 2 19.5849 13.0806 11.9925
482 1 16.9088 17.2573 11.2613
483 2 16.0871 17.2767 12.0275
484 2 17.8829 17.2811 11.7531
485 2 16.7784 16.4585 10.5528
486 4 16.145 13.4163 11.8949
487 3 15.1409 12.2885 12.5412
488 1 16.8509 14.3262 13.3854
489 2 17.6182 13.7551 13.9541
490 2 17.2429 15.3151 13.1206
491 2 16.0649 14.4828 14.1181
492 1 15.1065 14.539 10.7485
493 2 15.1939 14.2301 9.70076
494 2 14.1023 14.3791 11.1699
495 2 15.2112 15.6287 10.8873
496 4 15.1201 10.6977 12.7731
497 3 16.6816 10.3885 13.2929
498 1 13.7948 10.4326 14.0508
499 2 13.9155 9.39399 14.3906
500 2 13.9591 11.13 14.8838
501 1 14.9421 9.80727 11.1666
502 2 15.1592 8.70354 11.1818
503 2 13.856 9.82126 11.0235
504 2 15.3621 10.3331 10.2997
505 4 17.8649 9.95559 14.3381
506 3 17.8953 8.4275 14.9122
507 1 19.526 9.99803 13.5947
508 2 19.7615 10.9613 13.0698
509 2 20.2389 9.91662 14.4502
510 2 19.8106 9.16522 12.8681
511 1 17.6247 10.9626 15.8069
512 2 16.6291 10.5735 16.0575
513 2 18.5189 10.7313 16.5091
514 2 17.4991 12.0904 15.5568
515 4 17.5195 6.76929 14.7876
516 1 16.1746 6.40227 13.592
517 2 15.2603 6.93716 13.9024
518 2 16.4288 6.69903 12.5681
519 2 15.863 5.34169 13.5154
520 1 18.9118 6.043 13.8058
521 2 19.1459 5.01404 13.9786
522 2 18.8206 5.92363 12.6911
523 2 19.8413 6.5597 13.9008
ITEM: TIMESTEP
12500
ITEM: NUMBER OF ATOMS
523
ITEM: BOX BOUNDS pp pp pp
1.0095045842468053e-01 2.1899049541575518e+01
8.7551409616976272e-02 1.8992411590383043e+01
9.1773144022399222e-02 1.9908226855977642e+01
ITEM: ATOMS id type x y z
1 4 7.11096 4.01843 1.54224
2 3 7.85274 5.64979 1.85652
3 1 20.8873 4.81692 8.08139
4 2 5.25917 14.0779 11.9712
5 2 2.20301 15.2993 0.985339
6 2 21.4564 3.49646 8.54878
7 1 21.3322 8.29325 4.51694
8 2 18.3727 1.53659 15.5272
9 2 0.26882 7.66136 3.71586
10 2 0.467672 8.79493 4.71587
11 4 7.20327 7.20826 1.25549
12 3 5.62328 6.91941 0.80375
13 1 6.75068 8.2843 3.66463
14 2 6.88394 7.31559 19.4201
15 2 6.35067 8.91765 4.43735
16 2 7.17049 7.31624 4.02385
17 1 6.88315 8.55338 2.23936
18 2 18.2613 11.3901 6.38875
19 2 16.9266 3.88257 15.8124
20 2 19.6137 16.9764 19.1862
21 4 4.484 5.60904 1.38702
22 3 5.37769 4.27968 1.50092
23 1 3.29409 5.54454 0.220524
24 2 2.50302 6.5654 0.174365
25 2 3.58966 4.9796 19.0802
26 2 2.27299 5.10938 0.904365
27 1 3.39404 6.45596 3.14804
28 2 4.04543 7.09628 3.70809
29 2 2.49258 6.98653 2.77772
30 2 2.78328 5.84363 3.87199
31 4 6.58184 2.68121 4.21452
32 3 5.01258 2.57814 3.78965
33 1 20.497 18.0401 14.2695
34 2 20.9379 17.3089 16.336
35 2 0.342655 3.05507 14.5993
36 2 0.891955 2.64473 0.734478
37 1 7.76934 2.78343 2.66984
38 2 20.803 0.679801 14.5925
39 2 17.595 6.50582 3.00333
40 2 7.47588 1.7132 2.50999
41 4 0.60524 1.36689 4.38155
42 3 2.57615 1.80636 4.52468
43 1 3.11549 15.2711 1.63883
44 2 21.3618 8.17817 5.57145
45 2 4.23344 14.978 1.43598
46 2 20.0404 11.7777 18.4128
47 1 15.4464 6.09748 7.60735
48 2 16.4325 5.87309 7.18581
49 2 15.3261 7.18515 7.85445
50 2 15.2873 5.4294 8.55093
51 4 3.53063 2.24738 3.10162
52 1 13.6714 18.9241 5.49995
53 2 12.9414 3.15219 1.7467
54 2 3.23741 3.5114 2.41519
55 2 13.5143 6.53564 1.76899
56 1 10.7526 16.6923 2.62492
57 2 5.26363 13.4242 18.2246
58 2 14.9533 18.8242 3.50197
59 2 2.34214 14.678 2.19554
60 4 12.8426 15.0348 2.77641
61 3 13.1877 4.10406 12.4663
62 1 8.66355 5.32804 7.03899
63 2 7.95647 5.01797 6.24636
64 2 9.59002 5.48508 6.493
65 2 8.84838 4.59778 7.8468
66 1 12.7023 3.42838 13.3318
67 2 10.6408 0.472407 11.7161
68 2 2.21934 2.07573 15.2537
69 2 8.37947 6.3037 7.43172
70 4 18.8631 18.2951 0.0967763
71 3 11.505 13.4976 0.418321
72 1 13.846 15.3913 4.26244
73 2 10.8098 5.08046 17.3049
74 2 12.8336 17.3914 1.93416
75 2 13.0018 15.6531 4.90962
76 1 18.8523 18.493 1.87704
77 2 17.7603 18.438 2.09846
78 2 19.4673 17.4337 2.89252
79 2 19.3996 0.526361 2.11078
80 4 12.1676 13.1054 1.79886
81 3 11.4653 11.9833 3.04781
82 1 14.0155 13.4418 17.3123
83 2 13.7781 12.5907 16.7656
84 2 14.7614 12.9795 18.0547
85 2 13.1089 13.8763 17.8169
86 1 9.68192 16.8897 3.35467
87 2 20.8072 3.78602 18.5087
88 2 9.15016 17.656 3.05145
89 2 10.3083 1.86333 15.4945
90 4 11.9565 10.6024 3.91346
91 3 10.8661 9.30983 4.22668
92 1 13.1645 11.1884 5.3206
93 2 12.7502 12.1045 5.7457
94 2 13.4758 10.3176 5.95055
95 2 14.1469 11.453 4.90213
96 1 12.7511 9.42131 2.272
97 2 19.7128 18.0139 13.4109
98 2 14.7149 13.9729 16.6106
99 4 10.9835 8.56606 2.68916
100 3 9.8842 8.9122 1.46759
101 1 20.2211 2.85481 18.5199
102 2 20.2138 2.33747 17.4166
103 2 19.1994 3.08232 19.0634
104 2 20.6951 1.9481 19.0173
105 1 10.635 6.80421 3.48868
106 2 11.6653 6.40017 3.76794
107 2 9.85866 7.08646 4.23618
108 2 10.2514 5.98087 2.93676
109 4 8.43427 9.94262 1.75038
110 1 7.88755 10.7153 0.173584
111 2 7.81583 11.7645 0.326053
112 2 7.61937 9.64878 18.8636
113 2 5.85662 8.77854 1.87079
114 1 10.2489 4.51159 17.9835
115 2 10.4961 4.45599 19.0409
116 2 9.18175 4.34757 17.5669
117 2 10.927 3.54871 17.3221
118 4 20.9057 11.4344 0.157508
119 3 19.8399 11.0844 1.59386
120 1 19.4481 12.1558 19.3929
121 2 0.588511 13.5157 0.140405
122 2 20.1321 13.1481 19.3869
123 2 1.24966 0.793112 17.5435
124 1 0.779781 12.5643 0.372363
125 2 1.28763 12.6995 1.40701
126 2 1.51048 12.621 19.4
127 2 1.08362 2.05915 10.0062
128 4 18.5974 11.6012 2.64952
129 3 17.9488 10.2838 3.47866
130 1 21.4625 9.84943 19.4579
131 2 0.708425 9.81254 0.41222
132 2 21.1975 8.93914 0.226906
133 2 21.3615 9.6061 18.391
134 1 9.06961 0.480683 8.0459
135 2 16.1214 15.9268 9.77938
136 2 13.6091 1.32643 14.9744
137 2 7.98927 18.6537 7.56873
138 4 17.2464 8.7822 3.37929
139 3 15.8761 8.94271 2.29573
140 1 18.3959 7.29534 3.05574
141 2 18.9896 7.37498 3.93805
142 2 19.058 7.40919 2.30489
143 2 14.2936 15.9767 14.8636
144 1 16.4426 8.51149 5.34624
145 2 17.0685 8.67368 6.29067
146 2 15.4404 9.00287 5.40712
147 2 16.0541 7.47607 5.40288
148 4 15.4123 9.62378 0.859182
149 3 15.0699 8.6032 19.4677
150 1 13.7473 9.8092 1.52821
151 2 3.40598 1.37011 1.78981
152 2 9.35687 18.5068 19.869
153 1 16.1192 11.1926 0.107547
154 2 18.2045 12.4205 18.772
155 2 16.5191 11.1611 19.225
156 2 17.4504 12.089 1.85821
157 4 14.5471 6.97506 19.1362
158 3 14.9337 6.32093 17.6428
159 1 12.8649 7.78768 18.618
160 2 12.1012 8.40121 19.1727
161 2 13.0699 8.41714 17.6361
162 2 12.1848 6.89203 17.9949
163 1 14.0685 6.02619 0.801301
164 2 14.2259 4.81287 0.82409
165 2 16.7247 18.6199 11.34
166 2 9.13231 0.0759537 0.11659
167 4 16.6138 5.85615 17.2465
168 1 16.202 4.14429 16.5926
169 2 4.53225 13.7042 18.3923
170 2 16.2192 3.2761 17.3058
171 2 15.346 4.39903 16.1156
172 1 17.7619 5.99767 18.5298
173 2 18.193 5.22284 19.0289
174 2 18.3971 6.842 18.5282
175 2 14.2628 14.58 4.62727
176 4 0.791146 15.9357 5.89886
177 3 1.05733 14.2593 6.00478
178 1 0.986354 16.7961 7.5033
179 2 1.91187 16.0799 8.27761
180 2 18.8284 1.53385 16.1502
181 2 20.9673 17.6745 8.44191
182 1 0.804161 16.6571 4.03003
183 2 21.8587 16.2656 3.49048
184 2 0.593317 17.6966 4.01543
185 2 1.80544 16.6176 3.62055
186 4 2.52259 13.4375 5.78278
187 3 2.89581 12.7555 7.24932
188 1 3.83952 14.7357 5.53325
189 2 3.7986 15.3473 4.62484
190 2 3.56425 15.4288 6.36401
191 2 4.8905 14.376 5.60758
192 1 2.71355 12.1397 4.5274
193 2 3.00272 12.63 3.61637
194 2 3.51008 11.4936 4.87921
195 2 1.83079 11.5202 4.35527
196 4 2.25231 12.2493 8.69315
197 3 2.56615 10.5997 8.74711
198 1 0.487177 12.6725 8.85307
199 2 0.234857 13.6758 8.40338
200 2 21.7296 11.9058 8.36977
201 2 21.7905 12.5711 9.81927
202 1 3.21012 12.8883 10.1218
203 2 2.91403 12.537 11.1394
204 2 4.29635 12.8051 9.93838
205 2 3.19614 14.0066 10.1609
206 4 3.08975 9.27592 7.85711
207 3 3.75535 8.07206 8.79916
208 1 1.99355 8.57364 6.47452
209 2 1.1945 7.85552 6.53402
210 2 2.13451 9.11019 5.56579
211 2 4.77747 17.6407 19.1835
212 1 4.68994 10.0257 7.11396
213 2 5.28732 9.20629 6.68742
214 2 4.52654 10.7419 6.30044
215 2 5.23918 10.5799 7.86441
216 4 4.08503 6.49739 8.79216
217 3 5.1429 6.32216 10.0899
218 1 2.44553 5.68815 8.86651
219 2 1.89308 6.11047 7.99776
220 2 2.50579 4.59551 8.72143
221 2 1.81225 5.90077 9.76464
222 1 5.0472 5.74002 7.28634
223 2 4.62128 6.14296 6.35287
224 2 6.16508 5.75893 7.28545
225 2 4.66173 4.6762 7.34201
226 4 5.97719 5.59649 11.3782
227 1 6.4038 3.84459 10.9147
228 2 6.25634 3.74175 9.82771
229 2 7.41412 3.47058 11.0652
230 2 5.74009 3.10467 11.3753
231 1 7.60832 6.37806 11.8659
232 2 8.43684 6.29671 11.1505
233 2 7.51725 7.4741 11.9614
234 4 10.0249 17.767 7.83068
235 3 9.77172 16.1355 7.90013
236 1 11.6979 17.8188 7.04058
237 2 12.6374 17.5472 7.68713
238 2 11.7007 17.3941 5.94879
239 2 11.7566 18.7508 6.74132
240 1 8.22014 1.00529 9.07317
241 2 12.9166 16.3164 7.94995
242 2 8.4118 1.6615 9.93112
243 2 7.42737 1.78013 8.34724
244 4 9.00678 15.1666 8.96468
245 3 9.34486 13.6588 8.44259
246 1 9.72735 15.5586 10.749
247 2 10.2976 16.5701 10.6772
248 2 8.9504 15.6454 11.505
249 2 10.4677 14.8442 11.0733
250 1 7.14014 15.1683 9.09686
251 2 6.97661 15.0561 10.1687
252 2 6.43863 15.835 8.55733
253 2 6.87073 14.2011 8.58189
254 4 10.5351 13.1003 7.30517
255 3 10.3643 11.452 7.31137
256 1 12.2688 13.5843 8.33272
257 2 12.6196 12.6427 8.7233
258 2 12.9164 14.2938 7.80464
259 2 11.9688 14.3119 9.11525
260 1 10.4896 14.2465 5.81722
261 2 10.7574 13.6654 4.9299
262 2 9.47025 14.4708 5.50848
263 2 11.0148 15.2073 5.88919
264 4 9.52525 10.103 7.92482
265 3 10.6917 9.27389 8.71145
266 1 8.64884 9.10962 6.62225
267 2 7.60767 9.50108 6.615
268 2 9.10503 9.21349 5.62205
269 2 8.56358 8.0452 6.8855
270 1 8.08547 10.711 8.96674
271 2 7.32193 9.94445 8.84919
272 2 8.30991 10.8253 10.0303
273 2 7.7685 11.6519 8.49834
274 4 12.086 8.34004 8.78196
275 3 11.8862 7.10214 7.57242
276 1 12.3047 7.59788 10.4922
277 2 11.4818 6.99842 10.9035
278 2 13.2342 6.99234 10.4344
279 2 12.4073 8.39144 11.2529
280 1 13.6677 9.31852 8.45801
281 2 14.3468 9.37687 9.33431
282 2 14.2439 8.69378 7.74778
283 2 13.4952 10.3129 8.01989
284 4 12.3424 5.48623 7.22553
285 1 14.0577 5.20535 6.61291
286 2 14.4437 4.20116 6.84409
287 2 14.414 5.35147 5.61523
288 1 12.1546 4.44408 8.6838
289 2 12.9244 4.57978 9.48261
290 2 11.1662 4.75712 9.08596
291 2 12.0484 3.40095 8.43317
292 4 18.9742 7.30317 9.41086
293 3 18.372 6.22979 8.2822
294 1 19.4976 8.65617 8.21512
295 2 20.2183 8.71527 7.35636
296 2 18.3487 8.99598 7.90679
297 2 19.8798 9.45827 8.90998
298 1 21.662 5.59992 7.2033
299 2 6.41427 16.473 3.32744
300 2 1.31064 3.18115 13.8033
301 2 0.697813 5.24753 6.79617
302 4 18.8777 4.57269 8.31682
303 3 18.749 3.68469 9.67407
304 1 18.2764 3.63796 6.85104
305 2 6.55336 15.6351 2.85386
306 2 6.34455 1.44965 16.0514
307 2 5.10782 0.527848 6.2783
308 1 20.2504 16.9368 15.4289
309 2 1.43909 14.8992 17.1196
310 2 19.396 16.5514 15.9366
311 2 20.0379 14.714 15.2644
312 4 17.7976 2.35745 10.0059
313 3 18.8243 1.0678 9.23231
314 1 18.1792 2.58724 11.891
315 2 19.1795 2.86949 12.3121
316 2 17.9443 3.87199 12.0213
317 2 17.7516 1.79681 12.6352
318 1 16.0098 2.32233 10.4198
319 2 15.795 3.06669 11.2374
320 2 15.3522 2.47004 9.5586
321 2 15.8063 1.27224 10.8645
322 4 19.0748 0.843235 7.70265
323 3 17.8708 18.7543 7.128
324 1 18.3934 2.35989 6.78764
325 2 21.0776 2.30963 7.57099
326 2 5.43771 0.393867 7.08313
327 2 17.9589 4.61027 6.40316
328 1 20.962 1.22738 7.16526
329 2 21.1039 18.2084 7.53193
330 2 4.43885 12.2616 14.9263
331 2 6.366 2.66677 17.914
332 4 17.4985 18.2473 5.59423
333 3 16.0475 17.0617 5.69756
334 1 9.27614 2.43131 2.84358
335 2 9.43885 1.55823 3.55708
336 2 9.44486 2.09415 1.77205
337 2 9.96031 3.31975 3.12818
338 1 18.6844 16.8637 5.21841
339 2 19.5286 17.6353 5.05724
340 2 18.6692 16.4126 6.32551
341 2 18.4748 16.1185 4.40163
342 4 14.7116 17.3215 4.81425
343 1 5.45742 1.1119 15.6921
344 2 4.36837 1.77198 15.311
345 2 4.62282 14.6295 11.9875
346 2 18.8728 0.540963 18.8985
347 1 12.0667 16.4813 2.30584
348 2 9.80605 16.6254 4.46676
349 2 14.3864 0.444168 6.16167
350 2 10.5794 18.6523 11.8089
351 4 21.3455 15.2988 14.9875
352 3 0.288558 15.4853 13.4499
353 1 1.14171 1.45984 16.5313
354 2 0.372626 2.53429 3.65912
355 2 4.97678 0.103558 15.3093
356 2 4.25653 18.0173 18.9636
357 1 2.19706 2.02293 16.4728
358 2 21.7584 4.28615 1.48604
359 2 20.1794 12.3776 7.22754
360 2 19.1918 12.1724 3.81774
361 4 1.52574 14.8073 12.6203
362 3 2.48736 13.7285 13.4743
363 1 2.66711 16.1616 11.9597
364 2 3.53432 15.9966 11.2742
365 2 3.18614 16.5599 12.8338
366 2 2.21663 17.2338 11.4708
367 1 0.9706 15.1288 16.2093
368 2 21.7198 1.44101 6.26594
369 2 20.7092 8.83026 3.78179
370 2 21.8764 3.36822 14.0598
371 4 2.73617 12.2726 14.3546
372 3 2.62818 11.2046 13.2288
373 1 0.474812 1.10453 10.3798
374 2 21.1992 1.29416 10.5725
375 2 0.559193 18.7347 9.40383
376 2 1.07179 0.65702 11.3982
377 1 1.59407 11.9991 15.8848
378 2 0.616283 11.6997 15.5615
379 2 1.75751 11.2012 16.6502
380 2 1.47399 13.2819 16.2044
381 4 2.84468 9.49273 12.9699
382 3 2.97852 8.81127 14.4312
383 1 4.5325 9.34251 12.0271
384 2 5.37831 9.7236 12.6381
385 2 4.82178 8.27077 11.9117
386 2 4.57314 9.92153 11.0487
387 1 1.47642 9.05448 11.8441
388 2 1.75092 7.99656 11.646
389 2 0.604416 8.973 12.5843
390 2 1.18741 9.89284 11.2264
391 4 3.39783 7.30907 15.0489
392 3 3.77172 6.44331 13.7123
393 1 4.85739 7.68732 16.2965
394 2 4.9249 6.91541 17.0715
395 2 5.82758 7.77951 15.8142
396 2 4.65447 8.63659 16.7758
397 1 1.99533 6.37964 15.8749
398 2 1.19538 6.14277 15.2064
399 2 2.44924 5.41382 16.1136
400 2 1.57656 6.81484 16.7906
401 4 4.64878 5.13473 13.306
402 1 3.42593 3.65459 12.9937
403 2 2.78575 3.70808 12.0402
404 2 3.93155 2.68766 13.0669
405 2 2.61942 3.76176 13.7581
406 1 5.77273 4.78065 14.8037
407 2 6.00074 3.71173 14.6822
408 2 5.11115 4.75789 15.6938
409 4 10.6598 15.1395 14.3861
410 3 10.002 15.1601 15.813
411 1 11.0873 1.4535 16.1749
412 2 13.49 2.74624 1.36152
413 2 13.6562 12.8896 1.77993
414 2 11.6376 1.79602 17.2874
415 1 12.3557 1.38889 15.3341
416 2 11.7392 1.67152 14.4428
417 2 1.98358 0.404177 19.3124
418 2 1.67747 18.7756 19.5394
419 4 8.4818 14.6883 16.3802
420 3 7.92642 13.3284 15.6426
421 1 8.88645 14.4699 18.225
422 2 8.04405 14.1253 18.8195
423 2 9.81306 13.9277 18.2769
424 2 9.15354 15.5262 18.5557
425 1 7.20511 15.9947 16.1409
426 2 7.23924 16.3199 15.1194
427 2 6.28832 15.4735 16.4038
428 2 7.49629 16.754 16.8893
429 4 8.17045 12.4812 14.282
430 3 9.76437 12.0013 14.3439
431 1 8.118 13.4057 12.6285
432 2 7.60791 12.8179 11.8141
433 2 7.64097 14.3746 12.6271
434 2 9.16826 13.3824 12.275
435 1 6.86504 11.1447 14.4953
436 2 6.22514 11.1829 13.5812
437 2 7.32244 10.1413 14.6266
438 2 6.33663 11.4076 15.4435
439 4 10.8086 10.9519 15.1482
440 3 10.4055 9.45512 14.5871
441 1 10.9794 11.3709 16.9412
442 2 10.9832 10.5033 17.6195
443 2 1.22616 3.00264 0.573534
444 2 11.4447 12.3208 17.2128
445 1 12.3885 11.3767 14.0761
446 2 12.1881 11.3147 12.9875
447 2 12.8428 12.3552 14.2771
448 4 10.221 7.86635 14.9713
449 3 9.08843 7.22809 13.9109
450 1 9.48359 7.63713 16.7314
451 2 9.77702 6.67726 17.1665
452 2 9.63654 8.4386 17.4634
453 2 8.41346 7.67852 16.4956
454 1 11.7859 7.07495 14.3366
455 2 12.7265 7.43759 14.7658
456 2 11.7787 5.97822 14.5233
457 2 11.9024 7.05512 13.2486
458 4 8.19803 5.81821 13.5624
459 1 7.07152 5.60197 15.0514
460 2 6.90755 6.60328 15.4235
461 2 7.69611 5.05861 15.7975
462 1 9.5069 4.45654 13.7
463 2 9.06431 3.47868 13.9683
464 2 10.0252 4.35355 12.7433
465 2 10.206 4.70669 14.516
466 4 18.6157 12.5303 7.26437
467 3 18.3673 11.8144 8.80407
468 1 17.9326 14.0941 7.59218
469 2 16.9385 14.4356 7.32534
470 2 18.7414 14.8208 7.65734
471 2 6.94238 3.53547 18.0645
472 1 14.5029 16.4617 14.0513
473 2 14.055 17.425 14.1586
474 2 14.5887 15.8593 13.2641
475 2 16.2517 18.3873 11.8478
476 4 17.8488 13.1415 9.47674
477 3 16.4481 12.8335 10.3987
478 1 19.4333 13.6737 10.6391
479 2 19.1593 14.1427 11.5985
480 2 19.9622 12.7833 10.9872
481 2 20.201 14.2847 10.0968
482 1 16.2358 16.8908 9.27997
483 2 16.4327 16.6077 8.12474
484 2 17.2659 17.3123 9.54242
485 2 15.5067 17.6107 9.49865
486 4 15.5989 13.174 11.743
487 3 14.7565 12.038 12.5606
488 1 16.5501 14.0312 13.146
489 2 15.8752 13.8816 14.0279
490 2 17.516 13.6833 13.5394
491 2 16.5202 15.1028 12.8836
492 1 14.2907 14.2039 10.9866
493 2 14.2915 15.2392 11.3174
494 2 14.5534 14.3106 9.925
495 2 13.2913 13.7668 11.1135
496 4 15.1201 10.7685 13.4438
497 3 16.402 10.9825 14.3923
498 1 13.5346 10.387 14.2769
499 2 13.3268 9.37838 13.8802
500 2 13.7454 10.2163 15.3499
501 1 15.7126 9.5373 12.1703
502 2 14.8586 9.2629 11.5044
503 2 16.4391 9.95856 11.4819
504 2 16.0868 8.63836 12.6621
505 4 17.5086 9.89069 15.0568
506 3 16.8397 8.33969 14.9907
507 1 18.9576 9.99134 13.9883
508 2 19.343 10.9835 14.2751
509 2 19.7585 9.36156 14.2754
510 2 18.7242 9.9741 12.8899
511 1 18.0523 10.5726 16.623
512 2 17.247 10.6309 17.4435
513 2 18.9696 10.1235 17
514 2 18.3303 11.6341 16.6348
515 4 17.1145 6.69849 15.1757
516 1 15.839 6.24063 13.9171
517 2 14.9678 6.85238 14.2464
518 2 16.1726 6.63076 12.943
519 2 15.5473 5.16364 13.8716
520 1 18.8043 6.33635 14.5628
521 2 18.9933 5.39913 14.0561
522 2 19.103 7.08683 13.7638
523 2 19.4164 6.42678 15.4661
ITEM: TIMESTEP
13000
ITEM: NUMBER OF ATOMS
523
ITEM: BOX BOUNDS pp pp pp
1.0380040827833348e-01 2.1896199591721853e+01
9.0023088606010049e-02 1.8989939911393947e+01
9.4364007525699733e-02 1.9905635992474338e+01
ITEM: ATOMS id type x y z
1 4 6.45335 4.32403 2.24793
2 3 7.61736 5.42713 1.63106
3 1 20.8555 3.88829 8.38315
4 2 5.82979 2.80295 18.4632
5 2 6.19116 15.5325 19.0566
6 2 21.6451 4.30087 9.36557
7 1 0.45098 9.14706 3.57304
8 2 19.546 15.8225 17.8771
9 2 21.6472 9.20309 4.54151
10 2 0.475377 8.45578 2.80685
11 4 7.47014 6.97479 1.10256
12 3 5.7208 6.85376 0.227679
13 1 7.04722 9.79103 4.57772
14 2 7.75726 6.72203 19.0812
15 2 6.09468 9.65388 5.07621
16 2 7.36084 10.8253 4.63852
17 1 7.41065 8.83397 3.5141
18 2 15.3735 12.8063 7.75886
19 2 17.3295 4.39168 18.5261
20 2 18.4161 17.3187 19.2385
21 4 4.38718 5.99644 0.513533
22 3 4.96343 4.93247 1.82714
23 1 3.66925 5.51299 18.7661
24 2 2.9484 5.85503 18.0692
25 2 4.7027 5.04666 18.1152
26 2 3.38284 4.33711 19.2043
27 1 2.83494 6.32275 1.60607
28 2 2.3682 5.37299 1.9373
29 2 2.92541 6.69632 2.60829
30 2 1.92029 6.92121 1.52676
31 4 6.25073 3.27058 4.01914
32 3 4.79306 2.52289 4.06691
33 1 20.9848 18.6509 14.6148
34 2 20.0791 17.519 16.054
35 2 0.969917 1.45488 16.1734
36 2 20.4939 6.9956 5.64822
37 1 7.40286 2.69524 2.46789
38 2 4.25698 18.4069 0.0913444
39 2 18.8123 6.83596 3.14605
40 2 7.09785 1.80563 1.84203
41 4 1.45569 0.556369 4.55294
42 3 2.57564 0.893038 3.62245
43 1 5.99293 15.0377 0.219784
44 2 1.54914 8.79728 4.03636
45 2 4.86323 15.3879 0.389244
46 2 21.3104 13.431 17.6206
47 1 15.1854 6.33652 7.53059
48 2 16.0159 6.23949 6.74418
49 2 15.4358 7.2746 8.0485
50 2 15.4343 5.22458 7.92819
51 4 3.37694 2.22464 3.20899
52 1 14.3943 18.9774 3.45534
53 2 13.5046 2.52158 5.39121
54 2 2.33701 3.26185 4.11384
55 2 14.7481 5.30109 1.06368
56 1 10.6513 16.5517 1.77426
57 2 5.60861 10.3258 19.0397
58 2 16.9411 17.1158 2.22442
59 2 6.26531 15.0209 1.3148
60 4 13.0942 15.5096 3.07388
61 3 13.4292 4.67715 10.8334
62 1 8.37101 5.41955 6.36305
63 2 8.26961 5.18951 7.43521
64 2 8.30171 4.51366 5.82163
65 2 9.41143 5.69558 6.146
66 1 13.959 4.16019 11.634
67 2 6.80808 17.624 13.1735
68 2 21.247 3.8247 17.2313
69 2 7.6407 6.03687 5.88851
70 4 19.2928 18.6846 18.9974
71 3 11.924 12.6438 0.200498
72 1 14.8909 15.7454 2.38689
73 2 8.8713 2.84752 19.0948
74 2 12.1882 17.8686 1.59795
75 2 15.7434 15.2369 3.05811
76 1 21.1949 18.8582 19.4779
77 2 0.20624 18.1032 19.6398
78 2 21.1435 18.2326 18.4867
79 2 21.5779 0.98631 19.1548
80 4 12.2376 13.1871 1.77481
81 3 11.9987 12.5328 3.45747
82 1 15.9794 13.0971 18.2308
83 2 16.8328 12.665 18.5032
84 2 15.9636 14.1357 18.6263
85 2 15.0968 12.4816 18.3271
86 1 9.45295 15.8912 1.28947
87 2 19.6139 4.36593 2.7717
88 2 9.29914 16.0377 0.140803
89 2 14.6772 2.0193 18.6763
90 4 12.4918 10.8909 3.87561
91 3 11.1681 9.97062 4.32155
92 1 13.4189 11.279 5.40307
93 2 14.1376 12.1204 5.57386
94 2 12.5067 11.3334 6.09614
95 2 13.9566 10.4628 5.84748
96 1 12.9976 9.20413 3.01092
97 2 20.2806 0.684087 13.7713
98 2 15.9309 13.0848 17.108
99 4 11.1983 8.48682 3.10217
100 3 10.0791 8.82202 1.88178
101 1 20.1532 4.77377 1.66506
102 2 19.505 4.76866 0.803876
103 2 20.8227 3.94149 1.64878
104 2 20.587 5.80364 1.44523
105 1 10.4393 7.18786 4.18692
106 2 10.6367 6.95834 5.30876
107 2 9.34079 7.46356 4.15949
108 2 10.466 6.22887 3.57923
109 4 8.45057 9.16885 2.04414
110 1 8.67407 11.0014 0.809636
111 2 8.28632 11.7623 19.8223
112 2 7.37934 10.7669 1.06954
113 2 6.9497 7.87601 3.37494
114 1 8.85889 3.53704 18.2123
115 2 9.29309 2.82572 17.2867
116 2 7.70048 3.90707 17.8228
117 2 9.48718 4.33731 18.747
118 4 20.98 11.8876 19.5129
119 3 20.0205 11.8216 1.09036
120 1 20.6763 13.123 18.4613
121 2 1.97999 11.3896 19.3232
122 2 20.4338 15.4409 17.8533
123 2 3.15207 18.8576 0.402394
124 1 1.0771 11.461 0.312192
125 2 1.49839 12.5293 0.756919
126 2 1.47859 10.9449 1.33359
127 2 3.17606 2.49305 10.2746
128 4 19.6334 11.8309 2.62161
129 3 19.2567 10.1966 3.11146
130 1 20.8323 9.85858 18.428
131 2 20.0368 9.65036 17.9699
132 2 21.8414 9.91238 18.3057
133 2 20.7219 8.71233 19.6651
134 1 8.11559 0.530061 6.45068
135 2 13.2208 15.8872 8.14612
136 2 12.1405 1.29556 18.3606
137 2 7.40121 18.5573 6.60255
138 4 17.8469 9.14876 3.1414
139 3 16.6705 9.45177 1.71807
140 1 18.7194 7.57305 2.43789
141 2 19.7206 7.7575 2.20112
142 2 18.2751 7.1778 1.45343
143 2 12.2522 17.1842 15.6807
144 1 16.9899 9.15627 4.86613
145 2 17.8917 9.42435 5.42546
146 2 16.5436 10.2014 4.77214
147 2 16.5425 8.20805 5.2607
148 4 16.0154 9.6819 0.267549
149 3 15.4529 8.32953 19.3781
150 1 13.4698 10.1746 2.08993
151 2 6.91416 11.373 2.13595
152 2 13.1531 13.8051 16.5492
153 1 14.3036 10.5614 0.996857
154 2 19.7834 13.7875 18.2695
155 2 14.0338 7.65444 15.4425
156 2 18.801 13.0676 2.72948
157 4 14.6115 7.08853 18.6182
158 3 15.1766 6.60948 17.0814
159 1 12.8101 7.52592 18.4533
160 2 12.5185 8.0176 19.5109
161 2 12.7009 8.44119 17.7619
162 2 12.4149 6.71188 18.1356
163 1 15.1178 5.57087 19.6119
164 2 14.8425 4.54273 19.3422
165 2 10.1683 2.65437 14.214
166 2 12.6713 13.5954 16.7607
167 4 16.8471 6.23211 16.9123
168 1 17.4008 4.51437 17.4465
169 2 5.8166 10.7219 18.3583
170 2 16.8936 3.52888 17.0144
171 2 18.4242 4.30093 17.2387
172 1 17.9892 7.4927 17.874
173 2 18.9701 7.40039 18.3813
174 2 17.4931 8.14593 18.5932
175 2 15.1126 15.5024 1.42085
176 4 1.22793 15.9787 5.02967
177 3 2.18926 14.6661 5.04355
178 1 0.793985 16.8503 6.5612
179 2 21.8851 17.3944 6.87607
180 2 18.8543 16.1437 18.4537
181 2 21.5091 0.495736 0.847373
182 1 1.04057 16.4379 3.44476
183 2 1.29797 17.5865 3.47344
184 2 1.79094 15.9327 2.92782
185 2 0.122753 16.2865 2.94318
186 4 3.08565 13.3883 5.93889
187 3 2.26653 12.6747 7.13954
188 1 4.65075 14.074 6.29092
189 2 5.03614 14.6465 5.45772
190 2 4.49429 14.7549 7.11267
191 2 5.33356 13.2545 6.52256
192 1 3.06689 12.0086 4.56589
193 2 4.008 11.6159 4.14087
194 2 2.40606 11.1374 4.54004
195 2 2.71475 12.8074 3.69185
196 4 1.95667 12.1806 8.72556
197 3 2.34023 10.5487 8.53215
198 1 0.347155 12.7022 9.17666
199 2 0.396725 13.5651 9.97888
200 2 21.5352 13.285 8.41804
201 2 21.6339 11.9071 9.65512
202 1 3.24749 13.1582 9.70731
203 2 3.01272 12.9754 10.7745
204 2 4.29582 12.877 9.67142
205 2 3.09368 14.2253 9.39959
206 4 3.32489 9.47954 7.63785
207 3 3.44298 7.8265 8.29035
208 1 2.70601 9.12244 5.99126
209 2 1.8459 8.47118 5.83435
210 2 3.44071 9.21498 5.15471
211 2 7.06653 18.1592 19.6491
212 1 4.89904 10.4941 7.49593
213 2 5.26125 10.5774 6.46526
214 2 4.65638 11.4615 7.9177
215 2 5.69247 10.0929 8.12138
216 4 3.15973 6.42266 9.06741
217 3 4.38674 6.04071 10.1497
218 1 1.52866 6.22238 10.0599
219 2 0.683152 6.169 9.36121
220 2 1.60135 5.23928 10.5254
221 2 1.35512 6.9474 10.8498
222 1 3.10208 5.03694 7.72675
223 2 2.1353 5.00282 7.21466
224 2 3.92254 5.07599 6.98886
225 2 3.2453 4.05202 8.2615
226 4 5.6129 5.37795 11.1511
227 1 5.95305 3.5976 10.5111
228 2 5.41893 2.85374 11.1261
229 2 5.57685 3.66693 9.48795
230 2 7.03715 3.39403 10.4958
231 1 7.07852 6.45299 11.7578
232 2 7.59591 6.99661 10.9493
233 2 6.66686 7.32687 12.2877
234 4 9.43129 18.1997 9.05589
235 3 8.79891 16.6696 9.41694
236 1 10.6849 18.2438 7.79388
237 2 10.8929 18.4713 6.41835
238 2 11.4928 17.5452 7.64127
239 2 9.67581 0.498716 8.97627
240 1 9.20671 1.17141 5.81805
241 2 14.9048 1.36484 2.67958
242 2 9.57512 2.08331 6.33726
243 2 9.45029 1.08302 4.65445
244 4 8.37693 15.1228 9.68344
245 3 8.52561 14.0821 8.42699
246 1 9.4906 14.6663 11.1488
247 2 10.0157 13.6827 10.9598
248 2 10.146 15.4019 11.5982
249 2 8.85211 14.423 12.0053
250 1 6.62618 15.8459 9.67005
251 2 5.81326 15.1385 9.75645
252 2 6.54901 16.7541 10.2815
253 2 6.4969 16.3273 8.70499
254 4 9.43615 12.9266 7.7321
255 3 9.30164 11.6221 8.68783
256 1 11.2116 13.4073 7.82276
257 2 11.373 13.9337 8.78522
258 2 11.991 12.6665 7.6758
259 2 11.5219 14.1072 7.01724
260 1 8.63752 12.6686 6.11879
261 2 9.07614 13.4291 5.47649
262 2 8.86983 11.7003 5.70107
263 2 7.60762 12.7052 6.25161
264 4 9.05884 10.132 9.24523
265 3 10.6114 9.55879 9.33734
266 1 8.56494 8.80576 7.9861
267 2 9.11828 9.11095 7.07284
268 2 8.88972 7.77815 8.22464
269 2 7.51141 8.76945 7.70602
270 1 8.04383 10.2797 10.8164
271 2 6.94689 10.341 10.7707
272 2 8.2232 9.32991 11.37
273 2 8.39328 11.067 11.4962
274 4 11.971 8.7565 9.58735
275 3 11.8123 7.32683 8.77782
276 1 11.7378 8.23945 11.3236
277 2 11.1178 9.07382 11.6764
278 2 10.9693 7.44915 11.2386
279 2 12.4915 7.88575 12.02
280 1 13.3128 9.59034 8.65906
281 2 13.6039 9.03474 7.76022
282 2 13.0446 10.601 8.3423
283 2 14.1988 9.69071 9.2848
284 4 12.0453 6.12511 7.82467
285 1 13.6893 5.83331 6.95776
286 2 13.8058 4.73259 6.99665
287 2 13.9734 5.91967 5.88864
288 1 11.139 4.61009 7.99896
289 2 11.8071 3.76008 8.26062
290 2 10.3511 4.66061 8.74522
291 2 10.811 4.46951 6.9623
292 4 18.529 7.64184 8.7175
293 3 19.0206 5.95309 8.13351
294 1 19.0217 8.93665 7.46448
295 2 19.1997 8.74031 6.43311
296 2 18.1152 9.48993 7.35971
297 2 19.8965 9.49211 7.80972
298 1 21.7104 3.68532 7.11827
299 2 8.22084 18.5329 0.994728
300 2 21.7117 18.883 15.2566
301 2 0.603018 3.94378 6.19463
302 4 19.2395 4.45223 8.54099
303 3 18.0577 4.07086 9.75845
304 1 18.8945 3.15052 6.61931
305 2 8.25264 18.3405 1.56735
306 2 7.8424 1.45893 14.4094
307 2 4.27263 17.3722 7.94349
308 1 20.2689 17.374 14.9753
309 2 1.06395 15.3446 17.5614
310 2 19.2876 17.0544 14.5149
311 2 20.3408 14.029 15.4078
312 4 17.6991 2.45443 10.0249
313 3 17.4475 1.55618 8.52878
314 1 18.7146 1.61316 11.2994
315 2 19.7607 1.6096 11.0143
316 2 18.8478 2.297 12.2785
317 2 17.999 0.854968 11.5161
318 1 15.7112 2.36759 10.1976
319 2 15.1188 1.43952 10.1706
320 2 15.5549 2.82606 11.171
321 2 15.2941 3.19233 9.62743
322 4 18.2112 1.39292 7.15314
323 3 17.4925 0.410322 6.2057
324 1 20.2964 3.46317 6.59412
325 2 20.4185 1.37027 6.82181
326 2 4.862 17.5018 7.22779
327 2 18.361 3.91923 5.95342
328 1 20.1631 0.550985 7.24458
329 2 11.4163 4.80905 19.071
330 2 4.63482 12.4394 15.4925
331 2 15.8242 0.284392 0.919433
332 4 17.8815 17.8793 5.67027
333 3 16.3725 17.0908 4.95469
334 1 8.69157 2.88605 3.15069
335 2 9.25351 3.51483 2.40567
336 2 8.44903 3.39273 4.11674
337 2 9.19718 1.82552 3.29123
338 1 19.0295 16.4098 6.14754
339 2 18.9344 16.1801 7.17515
340 2 18.6356 15.5194 5.71196
341 2 20.0393 16.6135 5.7247
342 4 15.6537 17.7039 3.30996
343 1 8.33403 1.29794 15.2356
344 2 9.17 0.61265 15.3295
345 2 5.18158 3.23945 18.1236
346 2 17.5431 18.8227 0.328279
347 1 11.8635 16.8421 2.26297
348 2 9.10768 15.0256 1.84589
349 2 13.4033 0.260081 4.06545
350 2 6.14778 17.4149 13.0283
351 4 21.1264 15.3525 15.3792
352 3 0.455007 14.8934 14.1372
353 1 0.546557 2.80909 16.5526
354 2 11.12 4.52454 18.5353
355 2 7.64546 0.750792 16.2119
356 2 6.50849 17.7441 0.1456
357 1 0.623639 4.08257 16.6283
358 2 21.3053 6.55606 6.67803
359 2 17.191 12.3817 6.39758
360 2 20.8771 12.3103 3.33625
361 4 1.71429 14.4131 13.3958
362 3 2.49383 13.1347 14.0304
363 1 2.42523 15.5222 11.8468
364 2 3.57345 15.3212 11.3124
365 2 2.44961 16.6202 11.8465
366 2 1.77864 14.9306 11.1084
367 1 21.4596 15.5569 17.2925
368 2 20.1944 0.578807 8.73347
369 2 0.423176 10.1617 3.49873
370 2 1.91516 16.6052 6.28034
371 4 3.35842 12.0014 14.9576
372 3 2.58419 10.6968 14.4318
373 1 3.4375 0.96291 11.077
374 2 3.15441 1.09145 10.158
375 2 4.40932 0.927757 11.0755
376 2 2.7387 0.122783 11.4157
377 1 2.49658 12.3892 16.5746
378 2 1.43845 12.6897 16.2542
379 2 2.37387 11.4887 17.2811
380 2 3.37482 12.9621 16.957
381 4 2.60018 9.72678 13.0164
382 3 2.80046 8.14399 13.4076
383 1 4.11629 10.363 11.852
384 2 4.63806 11.2692 12.2329
385 2 5.04586 9.75141 11.8847
386 2 3.73728 10.4607 10.7816
387 1 0.940448 9.82887 12.0295
388 2 1.26962 9.44641 11.0767
389 2 21.7423 9.2256 12.3284
390 2 0.597681 10.9527 11.9494
391 4 3.22359 7.35382 14.769
392 3 4.45378 6.26732 14.2822
393 1 4.26163 8.09912 16.1974
394 2 4.26043 7.3153 16.9543
395 2 5.29884 8.3633 15.977
396 2 3.78721 8.96225 16.6736
397 1 1.59701 6.54356 15.2831
398 2 1.23917 5.97647 14.4075
399 2 1.83245 5.79523 16.0154
400 2 0.814871 7.24223 15.6927
401 4 4.8159 5.00855 13.3639
402 1 3.32477 3.76989 13.1903
403 2 2.61573 3.75177 12.2759
404 2 3.83408 2.82424 12.9845
405 2 2.72623 3.83786 14.1343
406 1 6.25936 4.05107 14.169
407 2 6.42741 3.1899 13.4682
408 2 5.9542 3.48481 15.0715
409 4 10.9416 14.3522 14.9025
410 3 9.47746 14.4403 15.6609
411 1 13.9724 1.89309 17.6557
412 2 13.2759 3.06796 5.88479
413 2 13.9016 11.8762 0.42176
414 2 2.39447 12.967 2.81077
415 1 12.7607 1.71648 17.5521
416 2 12.482 1.84624 16.3136
417 2 5.61886 14.6129 14.9574
418 2 5.40169 15.4346 15.1623
419 4 8.42458 14.1933 16.8535
420 3 7.65823 12.8361 16.3571
421 1 9.23937 13.7804 18.4605
422 2 8.57459 13.6239 19.2988
423 2 9.71411 12.8431 18.3252
424 2 10.1509 14.4102 18.6637
425 1 7.24884 15.5437 17.12
426 2 6.2687 15.0306 17.2958
427 2 7.42002 16.0666 18.0891
428 2 6.90273 16.3128 16.3601
429 4 7.92703 12.0233 14.9445
430 3 9.37241 11.6047 14.2857
431 1 7.39836 13.1302 13.5818
432 2 6.32294 13.2724 13.4114
433 2 7.87771 14.0946 13.6251
434 2 7.81127 12.6207 12.6907
435 1 7.09216 10.3722 15.2307
436 2 7.1008 9.58367 14.4483
437 2 7.64334 9.93081 16.0831
438 2 6.11329 10.6974 15.4751
439 4 10.7579 10.9277 14.6609
440 3 10.4598 9.31181 14.8594
441 1 11.4707 12.0807 15.8391
442 2 11.0917 12.144 16.9058
443 2 6.23515 11.6793 2.48857
444 2 12.583 11.8965 15.8512
445 1 12.2747 10.9637 13.364
446 2 11.7684 11.0206 12.3761
447 2 12.6669 11.9724 13.5955
448 4 9.76462 7.75102 14.9814
449 3 8.96486 7.25038 13.6173
450 1 8.71762 7.42827 16.4489
451 2 7.85208 8.11675 16.4839
452 2 8.40707 6.37218 16.4133
453 2 9.10241 7.54494 17.4692
454 1 11.3743 6.75288 15.2194
455 2 12.2712 7.22776 14.83
456 2 11.3842 6.62233 16.3185
457 2 11.3532 5.79158 14.6777
458 4 8.43048 5.73325 13.0392
459 1 7.48017 4.83785 14.5102
460 2 7.11425 5.62051 15.1982
461 2 8.16399 4.20439 15.1071
462 1 9.65278 4.52024 12.2741
463 2 9.16752 3.64087 11.8015
464 2 10.3379 5.00158 11.5588
465 2 10.3294 4.01096 12.9959
466 4 16.8624 13.1546 7.69301
467 3 17.6649 12.2712 9.1017
468 1 17.1054 14.9465 8.39835
469 2 16.2305 15.6225 8.62255
470 2 17.9759 15.5779 8.4669
471 2 16.3468 0.454306 0.913762
472 1 12.5719 15.8773 15.7772
473 2 13.5099 15.895 15.1807
474 2 12.6517 15.2174 16.5766
475 2 10.5672 1.85258 14.2559
476 4 17.7407 13.7245 10.0883
477 3 16.4453 13.7314 11.1202
478 1 19.4681 13.9826 10.913
479 2 19.485 14.9733 11.4828
480 2 19.562 13.1648 11.6611
481 2 20.2805 13.9935 10.2026
482 1 14.0737 15.6954 8.88656
483 2 14.7624 16.5318 8.78552
484 2 14.4374 14.7528 8.74692
485 2 13.7589 15.7555 9.89454
486 4 15.3223 13.3882 12.3898
487 3 15.2374 11.8102 12.2237
488 1 16.5204 13.8199 13.7549
489 2 16.0452 14.1854 14.6807
490 2 17.0431 12.921 14.0741
491 2 17.1743 14.6424 13.4251
492 1 13.8338 14.4792 12.3199
493 2 14.2753 15.4901 12.3064
494 2 13.3171 14.3507 11.3437
495 2 13.1207 14.518 13.1648
496 4 15.1418 10.2877 12.7399
497 3 16.357 10.1937 13.8505
498 1 13.4419 9.99159 13.3804
499 2 13.1752 8.94052 13.5207
500 2 14.0416 8.50783 15.7729
501 1 15.8068 9.15173 11.292
502 2 16.6838 9.53175 10.7419
503 2 16.134 8.244 11.8152
504 2 15.0789 8.75272 10.5632
505 4 17.4917 9.25358 14.7068
506 3 17.0801 7.74722 14.0598
507 1 19.255 9.80031 14.6792
508 2 19.4922 10.8253 14.9905
509 2 19.6238 9.16277 15.5029
510 2 19.8002 9.47392 13.8223
511 1 16.9385 9.58532 16.4422
512 2 17.6563 9.98905 17.0945
513 2 16.1179 10.3598 16.247
514 2 16.2762 8.89958 17.0916
515 4 17.2682 6.21103 14.6086
516 1 16.011 5.14402 13.7898
517 2 16.1313 4.12651 14.2122
518 2 15.0533 5.43113 14.2282
519 2 15.9464 4.99723 12.6932
520 1 18.8541 5.30739 14.5091
521 2 18.944 4.83698 15.4705
522 2 18.6265 4.52734 13.7535
523 2 19.7183 5.9486 14.3787
ITEM: TIMESTEP
13500
ITEM: NUMBER OF ATOMS
523
ITEM: BOX BOUNDS pp pp pp
1.0388993190808016e-01 2.1896110068092099e+01
9.0100729857995887e-02 1.8989862270142009e+01
9.4445392643651260e-02 1.9905554607356386e+01
ITEM: ATOMS id type x y z
1 4 6.15382 3.74143 1.88563
2 3 7.38712 4.91734 1.58079
3 1 21.1956 4.33553 8.33366
4 2 1.85661 1.97366 18.953
5 2 7.51029 14.2405 2.37165
6 2 21.725 4.855 8.95682
7 1 0.260904 6.83736 2.39339
8 2 16.5553 1.27006 14.7287
9 2 20.2304 6.40804 5.67561
10 2 0.953985 7.49484 1.80771
11 4 7.35904 6.70131 1.14301
12 3 5.75348 6.8858 0.793457
13 1 5.98823 9.18657 2.68963
14 2 4.53918 14.7914 17.8944
15 2 4.9241 9.1924 2.91954
16 2 6.12743 9.44679 1.61756
17 1 7.21959 9.03401 3.37355
18 2 15.1204 13.4515 7.33902
19 2 16.4989 3.93203 17.6376
20 2 17.7055 15.0555 14.8014
21 4 4.87926 5.60413 0.0971581
22 3 4.79765 4.01762 1.00992
23 1 5.61644 5.40892 18.2044
24 2 5.71882 4.81856 17.2208
25 2 5.78757 6.56637 18.0335
26 2 6.68301 5.30944 18.6521
27 1 3.13915 6.14429 0.0786655
28 2 2.39156 5.32363 19.4517
29 2 2.45772 6.03782 0.975305
30 2 3.08212 7.1509 19.4922
31 4 6.23577 3.34949 4.48207
32 3 4.56579 2.90071 4.10332
33 1 19.0137 17.1657 13.4185
34 2 17.3362 18.1456 12.3711
35 2 1.05953 2.81207 15.5294
36 2 3.13 4.55215 7.64819
37 1 6.84486 2.14707 2.04855
38 2 15.6477 4.30219 18.2741
39 2 17.1009 7.71386 2.66675
40 2 6.20767 1.43965 2.52555
41 4 1.44838 0.279172 5.56359
42 3 2.72551 1.21914 5.64701
43 1 6.86598 13.3986 2.29859
44 2 21.7143 6.44485 1.62741
45 2 6.1292 13.1692 3.15344
46 2 1.05395 13.9492 0.119561
47 1 14.4012 6.0829 7.37869
48 2 15.2704 5.48106 7.18291
49 2 14.587 7.15082 6.96517
50 2 14.4949 6.53178 8.40284
51 4 2.86984 2.62149 4.29607
52 1 17.1283 0.453485 0.518564
53 2 13.9993 0.591625 9.24988
54 2 2.49956 1.82004 2.89759
55 2 15.5845 3.96196 1.37387
56 1 10.3853 16.1103 3.35478
57 2 5.58522 11.5125 16.886
58 2 16.8648 1.56877 19.5796
59 2 7.0766 12.7572 1.22633
60 4 13.2761 16.1722 3.25781
61 3 12.7467 4.6316 10.6233
62 1 5.75379 6.17513 5.805
63 2 6.69015 6.26723 5.27115
64 2 5.40534 5.16175 5.82121
65 2 5.02419 6.7755 5.21402
66 1 13.6614 5.10555 11.2416
67 2 9.83114 0.297853 12.6706
68 2 20.0017 6.81788 18.7374
69 2 5.85579 6.59596 6.78412
70 4 20.5106 0.316247 19.3929
71 3 12.6235 13.3899 0.830238
72 1 14.5177 17.3284 2.22175
73 2 7.86011 2.90247 17.4294
74 2 11.7662 17.1946 1.70862
75 2 15.1095 16.5141 1.57095
76 1 20.6319 18.4326 17.5457
77 2 21.3272 4.32641 17.6712
78 2 21.4388 1.10589 0.80026
79 2 20.1405 2.74008 17.14
80 4 12.5742 14.1986 2.19426
81 3 11.9103 13.2493 3.43141
82 1 15.4582 14.4838 1.22796
83 2 16.0872 14.9479 1.93599
84 2 14.7412 14.0627 1.88531
85 2 15.9431 13.6086 0.761509
86 1 9.13608 16.2932 3.92865
87 2 21.7458 4.65792 3.53096
88 2 8.23074 16.7297 3.72292
89 2 12.941 18.1334 18.015
90 4 12.3945 11.7414 4.17123
91 3 11.6012 10.4684 5.03886
92 1 13.9075 12.1731 5.08761
93 2 14.6848 12.5 4.31253
94 2 13.4655 12.9297 5.76343
95 2 14.1999 11.3311 5.7674
96 1 12.6073 10.6251 2.67565
97 2 19.7569 15.8785 13.7039
98 2 15.058 15.1993 0.521173
99 4 11.7175 9.44934 3.76357
100 3 10.0594 8.76954 3.69943
101 1 0.390054 3.86018 3.2796
102 2 1.15051 3.95083 3.98149
103 2 0.843624 4.19782 2.28526
104 2 21.8806 2.98041 3.39646
105 1 13.013 8.00529 3.94711
106 2 12.5954 7.1627 3.42008
107 2 14.0165 8.34545 3.56728
108 2 13.1835 7.74977 5.07345
109 4 8.93789 8.80343 2.37883
110 1 8.63226 8.07226 0.770829
111 2 9.07251 7.37919 0.325758
112 2 4.74821 14.9457 17.1414
113 2 7.13449 8.95731 4.54801
114 1 8.75641 2.17007 17.3036
115 2 9.43087 2.63906 16.741
116 2 9.19754 1.99687 18.395
117 2 8.29242 1.25723 17.1572
118 4 21.6287 11.7643 19.5134
119 3 21.3929 10.8579 1.54243
120 1 0.446061 13.3151 19.3972
121 2 1.88931 10.3536 18.7348
122 2 21.0351 18.9673 15.4893
123 2 2.89801 1.20887 16.3941
124 1 1.08748 10.3025 19.3468
125 2 6.82737 17.2665 6.5105
126 2 0.828553 9.31553 19.3712
127 2 2.03885 15.3347 11.2063
128 4 20.4394 11.5641 2.53977
129 3 18.8949 10.9304 2.93781
130 1 20.0162 11.3497 18.4361
131 2 20.2177 11.1879 17.2799
132 2 19.3348 10.6779 18.7026
133 2 19.4008 11.9886 18.2435
134 1 7.05361 2.02949 5.56314
135 2 13.7062 16.684 9.78909
136 2 12.0893 1.23867 18.0309
137 2 6.64472 1.04602 4.82198
138 4 17.6337 10.0045 2.84514
139 3 16.4564 10.1035 1.64918
140 1 18.1166 8.22844 2.37899
141 2 19.011 7.84043 2.93934
142 2 18.4199 8.16106 1.33236
143 2 9.93469 14.7241 14.7227
144 1 16.8714 10.3458 4.49406
145 2 17.9162 10.1039 4.93565
146 2 16.5718 11.3795 4.79878
147 2 16.0992 9.75966 5.16747
148 4 15.5357 9.25896 0.479222
149 3 15.6644 7.69728 0.515842
150 1 13.3015 10.5746 1.50637
151 2 2.0014 17.347 1.17931
152 2 14.6176 12.4615 17.7851
153 1 13.9121 9.8565 0.503599
154 2 0.479861 13.8906 18.5203
155 2 14.1659 9.06694 16.2949
156 2 19.8704 12.8757 2.38316
157 4 15.7189 6.19074 19.5037
158 3 17.0727 6.29233 18.4081
159 1 14.3938 6.32663 18.353
160 2 13.4412 6.25887 18.5921
161 2 14.4461 7.27525 17.703
162 2 14.7137 5.60989 17.4365
163 1 16.3398 4.74871 0.623072
164 2 17.2381 4.27205 0.901252
165 2 12.5281 17.0133 13.6895
166 2 14.7015 11.7468 18.0317
167 4 18.1624 5.75333 17.2743
168 1 17.8221 3.86821 17.0661
169 2 5.65902 12.2952 16.8506
170 2 17.6367 3.61585 15.9427
171 2 17.8854 3.00105 17.6507
172 1 19.8573 5.89543 17.9879
173 2 20.8909 5.77521 18.0511
174 2 19.7901 5.39615 19.2357
175 2 13.8028 17.6129 1.57013
176 4 1.17251 15.9955 5.29348
177 3 2.7104 15.1804 5.26295
178 1 1.05454 17.6468 4.75848
179 2 0.852726 16.5823 7.07299
180 2 17.0434 0.486142 14.4031
181 2 2.29442 0.875971 16.6457
182 1 21.7249 14.8551 4.57488
183 2 20.6586 14.6165 4.99083
184 2 21.1437 15.0475 3.67906
185 2 0.69095 14.1438 4.48725
186 4 3.71063 14.0293 6.07148
187 3 2.51885 13.0117 6.95027
188 1 4.6881 14.8809 7.27981
189 2 4.78825 15.929 6.96071
190 2 4.12924 15.0739 8.21941
191 2 5.73427 14.4676 7.43774
192 1 4.77386 13.1592 4.94638
193 2 5.49979 12.4343 5.31062
194 2 4.25804 12.5585 4.17994
195 2 5.45251 13.9382 4.57242
196 4 1.30364 12.0768 7.80414
197 3 1.90358 10.5585 8.21011
198 1 21.6422 11.7498 6.75645
199 2 20.6983 12.2629 7.16075
200 2 0.146537 11.7911 5.70606
201 2 21.2487 10.6729 6.65303
202 1 1.37821 12.8378 9.71141
203 2 2.32792 12.496 10.1374
204 2 1.51434 13.8989 9.41183
205 2 0.449204 12.8621 10.3172
206 4 2.54959 9.0649 7.88348
207 3 2.74148 8.22016 9.39673
208 1 1.51719 8.37331 6.66494
209 2 0.433128 8.36509 6.64124
210 2 1.91409 8.09684 5.66446
211 2 6.60602 17.2958 16.8307
212 1 4.41943 9.25965 7.59224
213 2 5.0671 8.56811 8.13954
214 2 4.53351 8.95851 6.53192
215 2 4.84982 10.2565 7.76921
216 4 3.0366 6.71152 10.0555
217 3 4.35522 6.91247 10.9796
218 1 1.513 6.16166 11.0913
219 2 0.701352 6.00036 10.3546
220 2 1.61673 5.18975 11.5753
221 2 1.16683 6.85007 11.8682
222 1 3.19315 5.24244 8.55259
223 2 2.38753 5.96404 8.26577
224 2 4.22647 5.5667 8.21789
225 2 2.99879 4.42171 9.2945
226 4 5.64263 5.91123 11.5961
227 1 6.28684 5.21443 9.94783
228 2 5.89932 5.82399 9.08319
229 2 7.3727 5.10901 9.7954
230 2 5.88936 4.21091 9.75097
231 1 6.91442 7.04208 12.4
232 2 7.40757 7.80432 11.7807
233 2 6.35204 7.62493 13.1551
234 4 8.64994 18.4581 8.26615
235 3 8.25372 16.7263 9.01258
236 1 9.31209 0.756001 9.26126
237 2 8.98148 0.711913 10.407
238 2 10.3861 1.3094 9.61316
239 2 7.88253 2.36253 11.9592
240 1 8.34176 2.40351 5.69258
241 2 15.4668 1.08408 3.0541
242 2 9.41411 1.83059 5.1938
243 2 8.02133 3.52915 6.13235
244 4 8.19249 15.3548 10.0351
245 3 8.50137 13.9874 9.08477
246 1 9.60853 15.6404 11.378
247 2 10.5171 15.9053 10.766
248 2 9.23346 16.4206 12.0263
249 2 9.78585 14.8016 12.0789
250 1 6.43197 15.6396 10.9156
251 2 6.08647 16.658 10.6754
252 2 5.69086 14.8188 10.7508
253 2 6.55161 15.4292 11.9825
254 4 8.85734 12.9077 7.88753
255 3 9.25877 11.4601 8.56148
256 1 10.3294 13.5061 6.94321
257 2 10.4867 12.7724 6.12533
258 2 10.1227 14.4742 6.46759
259 2 11.1871 13.4252 7.63071
260 1 7.69974 12.3421 6.49418
261 2 7.44762 13.023 5.64018
262 2 8.40899 11.6315 5.99798
263 2 6.80912 11.8335 6.84892
264 4 8.76172 9.86508 8.61493
265 3 10.0086 9.10768 9.40168
266 1 8.15735 9.04169 6.97874
267 2 7.61715 8.10429 7.1593
268 2 7.54082 9.7586 6.42778
269 2 8.94765 8.89083 6.23652
270 1 7.26618 9.94761 9.73324
271 2 6.67333 10.73 9.23053
272 2 6.5954 9.10117 9.92192
273 2 7.66979 10.3452 10.6814
274 4 11.5809 8.776 9.04049
275 3 11.7246 7.90254 7.54531
276 1 12.5767 7.88416 10.2537
277 2 11.9642 7.70496 11.1539
278 2 12.9118 6.91265 9.88212
279 2 13.4352 8.45636 10.6372
280 1 12.5089 10.3247 8.55123
281 2 13.161 10.0277 7.72092
282 2 11.7356 11.0493 8.28234
283 2 13.121 10.7129 9.38294
284 4 11.6647 6.32653 7.2567
285 1 13.1309 5.55278 6.70445
286 2 12.8922 4.48048 6.97335
287 2 13.2218 5.45412 5.69407
288 1 10.0244 5.31295 7.51287
289 2 10.0437 4.51441 8.30934
290 2 9.48655 6.04759 8.11046
291 2 9.42464 4.92057 6.68957
292 4 18.2372 7.18137 9.74476
293 3 18.8272 6.18009 8.4615
294 1 19.4918 8.13606 10.4597
295 2 19.52 8.06051 11.5524
296 2 20.4274 7.81014 10.12
297 2 19.5437 9.20323 10.1269
298 1 21.1291 4.02218 6.8005
299 2 9.24482 17.4614 19.2934
300 2 1.41364 0.812794 9.13862
301 2 20.9976 4.74996 5.97745
302 4 19.6217 4.84347 9.19965
303 3 18.6844 3.47431 9.34313
304 1 19.6742 2.39467 5.53802
305 2 9.67789 18.6352 18.9648
306 2 10.1544 17.5869 13.7658
307 2 5.37524 1.29737 10.2205
308 1 18.0347 17.3831 12.5297
309 2 0.338913 16.352 17.1503
310 2 18.0879 16.7474 11.6523
311 2 20.1169 15.6479 16.3746
312 4 18.213 1.90886 9.689
313 3 18.5004 1.26239 7.95722
314 1 19.2542 1.05346 10.9585
315 2 19.4144 1.97348 11.6992
316 2 18.7056 0.213418 11.3815
317 2 20.4092 0.992113 10.8727
318 1 16.4511 1.75244 10.2091
319 2 15.9259 0.851518 10.4251
320 2 16.6488 1.95784 11.276
321 2 15.9481 2.62336 9.80308
322 4 19.1173 0.848357 6.50428
323 3 17.9547 18.5728 5.91126
324 1 20.4782 2.57763 6.56275
325 2 20.7127 17.4939 6.96674
326 2 5.59633 1.91519 10.152
327 2 19.6557 2.86247 4.4032
328 1 20.3581 18.5554 6.85549
329 2 15.9684 17.3149 15.6896
330 2 3.24332 13.6039 14.8429
331 2 19.1266 0.0322922 19.7386
332 4 17.9305 17.9886 4.28836
333 3 16.8466 18.7917 3.45206
334 1 8.29849 1.90725 1.7996
335 2 8.98382 2.57303 2.24591
336 2 8.25437 0.880113 2.13283
337 2 8.60002 1.82047 0.784111
338 1 18.1405 16.0857 3.8011
339 2 18.9299 15.7578 3.00738
340 2 17.827 15.1073 4.2526
341 2 17.212 16.1672 3.22828
342 4 15.6059 18.8238 2.1205
343 1 9.36675 17.6092 14.695
344 2 9.85292 18.2467 15.4924
345 2 2.17047 2.56706 19.3511
346 2 20.8566 17.5125 18.4379
347 1 11.6374 16.48 2.70244
348 2 9.3305 16.1764 5.0915
349 2 17.9543 0.715005 0.165436
350 2 10.3777 18.5438 12.6729
351 4 21.4337 16.5891 16.0917
352 3 0.428684 15.7971 14.9363
353 1 0.361814 3.73239 16.0606
354 2 16.5802 16.9781 14.9463
355 2 8.6569 16.762 14.7456
356 2 6.9072 16.751 16.4448
357 1 21.3413 3.2057 17.1377
358 2 19.5385 6.78893 5.77426
359 2 17.5026 13.4777 6.6005
360 2 20.9173 11.4602 3.85564
361 4 0.491688 14.8005 13.6873
362 3 0.957624 13.2757 14.3627
363 1 2.00754 15.3333 12.361
364 2 2.65155 13.9465 12.3005
365 2 3.03793 15.3841 12.6753
366 2 1.70591 16.3325 12.7159
367 1 21.0192 18.536 16.3906
368 2 20.8511 0.620592 6.57507
369 2 21.3234 7.37059 3.01435
370 2 1.06801 18.4151 3.69712
371 4 2.46031 12.5964 14.5563
372 3 2.80313 11.1998 13.8425
373 1 2.29356 0.194715 8.90822
374 2 8.4631 1.50968 12.5031
375 2 3.44299 0.70071 9.36685
376 2 1.7909 18.6618 9.88249
377 1 2.27305 11.8051 16.2163
378 2 3.18214 11.3368 16.6063
379 2 1.576 12.4448 16.7418
380 2 1.63558 10.8516 16.3302
381 4 2.88245 9.92249 12.6727
382 3 3.13481 8.35727 13.4001
383 1 4.47545 10.1872 11.6732
384 2 4.21007 10.1892 10.5987
385 2 5.00976 11.0963 11.9608
386 2 5.05246 9.22658 11.815
387 1 1.04354 10.0975 11.9284
388 2 0.992803 9.35371 10.9745
389 2 21.8529 10.1073 12.2713
390 2 0.850036 11.1038 11.3977
391 4 3.10494 7.43884 14.7519
392 3 3.85477 5.92424 14.32
393 1 3.94364 8.29369 16.1348
394 2 5.03741 8.22277 16.3163
395 2 3.77927 9.39877 15.9754
396 2 3.36101 8.07323 17.0531
397 1 1.39074 7.01976 15.2396
398 2 0.577109 7.61067 14.8665
399 2 1.3594 5.9394 14.9951
400 2 1.17339 7.07547 16.284
401 4 4.60939 4.78328 13.335
402 1 3.61492 3.25914 12.8002
403 2 3.98177 3.0078 11.7304
404 2 3.93906 2.26137 13.1165
405 2 2.4807 3.42327 12.729
406 1 5.87574 4.15521 14.5496
407 2 6.23895 3.24684 14.0249
408 2 5.35074 3.76667 15.4533
409 4 10.6864 12.8874 16.2164
410 3 10.5564 12.664 17.8306
411 1 13.1013 18.8389 18.8502
412 2 13.904 0.627097 8.56278
413 2 13.1746 9.87529 19.4485
414 2 7.75871 17.7186 6.51167
415 1 12.6678 1.19809 18.8573
416 2 12.9859 1.87909 19.5453
417 2 0.551396 2.61732 17.8697
418 2 1.77081 3.09765 16.664
419 4 8.8511 12.998 17.7348
420 3 8.89391 12.6604 15.9219
421 1 7.96568 11.6609 18.5568
422 2 7.63545 10.7284 18.1596
423 2 8.66906 11.4817 19.4229
424 2 7.09823 12.2515 18.9153
425 1 8.23258 14.7831 17.9633
426 2 7.30929 14.7365 18.5149
427 2 8.8802 15.115 18.7097
428 2 8.12765 15.3843 17.1025
429 4 8.3392 11.744 14.3154
430 3 9.70732 11.203 13.4689
431 1 7.01911 12.9131 13.6791
432 2 7.32437 13.9856 13.598
433 2 6.33653 12.5182 12.9229
434 2 6.39123 12.9718 14.5934
435 1 7.289 10.2721 14.4866
436 2 6.8668 10.1761 13.4654
437 2 7.63222 9.30005 14.7922
438 2 6.39317 10.4214 15.019
439 4 11.2122 10.5993 13.952
440 3 10.7526 9.17509 14.5985
441 1 11.8064 11.6735 15.4767
442 2 12.6338 11.5721 16.2413
443 2 1.1691 17.2822 0.977501
444 2 12.4128 12.3521 14.8507
445 1 12.3088 10.6264 12.3307
446 2 11.7093 10.1998 11.4985
447 2 12.4912 11.6726 12.0082
448 4 10.6441 7.55823 14.9109
449 3 9.09244 7.15099 14.2991
450 1 10.4436 7.4246 16.7785
451 2 11.4318 7.27785 17.1862
452 2 10.0743 8.41215 17.0898
453 2 9.76947 6.5963 16.978
454 1 11.8976 6.35403 14.1366
455 2 11.3225 5.92699 13.3048
456 2 12.8663 6.75283 13.7669
457 2 12.2025 5.52556 14.8084
458 4 8.16011 5.98208 13.4314
459 1 7.08923 5.04137 14.8301
460 2 6.85787 5.7971 15.6
461 2 7.87619 4.43927 15.28
462 1 9.05134 4.71583 12.332
463 2 8.3549 4.0286 11.8077
464 2 9.68799 5.31705 11.6628
465 2 9.75806 4.11062 12.9324
466 4 16.6085 13.6365 7.76718
467 3 16.9789 12.4381 9.02375
468 1 17.2755 14.9879 8.71986
469 2 16.7971 15.9951 8.96861
470 2 18.3515 15.1443 8.62819
471 2 18.1254 15.6521 14.4402
472 1 10.6574 14.6514 15.4662
473 2 11.4565 15.0316 14.8085
474 2 10.4606 15.4663 16.2807
475 2 12.8207 16.8873 12.7809
476 4 17.4217 13.6688 10.1804
477 3 16.509 14.0358 11.4831
478 1 19.2184 13.4425 10.9597
479 2 19.1722 14.4663 11.4441
480 2 19.3372 12.7665 11.8116
481 2 20.1425 13.5512 10.4143
482 1 13.5695 16.3675 8.70045
483 2 12.5402 16.5433 8.53369
484 2 13.9026 15.3909 8.58309
485 2 14.0277 16.884 7.84009
486 4 15.2954 13.5535 12.5059
487 3 15.235 11.9891 12.1077
488 1 15.3968 13.7877 14.3365
489 2 14.5229 13.3236 14.8288
490 2 16.2802 13.4679 14.8962
491 2 15.4903 14.8785 14.545
492 1 13.6311 14.2302 12.106
493 2 13.5957 15.295 12.2989
494 2 13.2572 13.8694 11.1517
495 2 12.9827 13.9015 12.9298
496 4 15.1279 10.3454 12.4548
497 3 16.1664 9.88139 13.609
498 1 13.4795 9.79493 12.804
499 2 13.2192 8.74513 12.967
500 2 14.6039 9.4976 15.5756
501 1 15.761 9.46243 11.0046
502 2 15.4452 9.80155 10.0147
503 2 16.8485 9.44431 11.1257
504 2 15.4467 8.40506 11.1616
505 4 17.4175 9.6602 14.649
506 3 17.0351 8.072 15.1975
507 1 18.9617 10.0143 13.7583
508 2 18.9044 11.0853 13.4728
509 2 19.8764 9.89374 14.4033
510 2 19.1334 9.38518 12.9191
511 1 17.1479 10.7288 16.1328
512 2 16.4914 11.4796 15.7815
513 2 16.6249 10.1085 16.7565
514 2 18.087 11.1083 16.5386
515 4 17.746 6.56025 15.1945
516 1 16.8801 5.32118 14.011
517 2 16.4252 4.39613 14.3983
518 2 16.164 5.64208 13.2484
519 2 17.7334 4.96507 13.4192
520 1 19.5021 6.40365 14.5402
521 2 20.0563 5.74367 15.2102
522 2 19.5529 5.94605 13.5192
523 2 20.0189 7.34083 14.3162
ITEM: TIMESTEP
14000
ITEM: NUMBER OF ATOMS
523
ITEM: BOX BOUNDS pp pp pp
1.0326887577090105e-01 2.1896731124229277e+01
8.9562105852589724e-02 1.8990400894147459e+01
9.3880796155282553e-02 1.9906119203844824e+01
ITEM: ATOMS id type x y z
1 4 7.63931 3.15951 2.1193
2 3 9.24591 3.96313 2.30216
3 1 20.786 4.94568 7.5139
4 2 3.96698 12.7735 1.76575
5 2 7.97026 12.2264 1.85767
6 2 -0.0523624 5.3101 8.28571
7 1 1.66607 7.36765 2.24356
8 2 11.6137 4.21526 17.4533
9 2 15.9344 9.95967 7.5404
10 2 1.35493 7.89879 1.00573
11 4 8.90202 5.44459 1.71126
12 3 8.12658 5.3932 0.323434
13 1 6.58077 9.02744 2.20822
14 2 2.91934 0.146707 17.5857
15 2 5.56725 9.31253 2.41354
16 2 6.7379 9.65342 1.26016
17 1 7.4196 8.09799 2.77977
18 2 15.8494 12.1256 7.68424
19 2 20.4371 5.67079 17.2523
20 2 17.0252 17.3725 14.4934
21 4 6.4052 5.14859 0.268391
22 3 6.30632 3.70141 1.20683
23 1 6.22914 4.52568 18.1827
24 2 6.78457 5.13361 17.5623
25 2 6.31612 3.37794 17.9762
26 2 5.23117 4.53087 18.0031
27 1 5.32551 6.60435 0.27459
28 2 5.60929 7.16159 19.2608
29 2 4.39984 6.07909 19.6141
30 2 4.47715 7.05243 0.999593
31 4 6.20652 2.37697 4.17314
32 3 4.44866 2.55331 4.6725
33 1 17.1025 17.3428 11.7359
34 2 15.7272 18.4277 10.547
35 2 13.1631 2.0984 19.9695
36 2 3.34889 4.82991 7.27714
37 1 8.18551 1.60093 1.37801
38 2 15.2393 3.95993 1.49173
39 2 19.7998 7.52748 3.29514
40 2 9.15769 1.6463 0.790521
41 4 1.17759 18.5109 5.33737
42 3 2.09878 1.42144 5.51178
43 1 8.97442 12.0082 2.39848
44 2 2.56617 8.17488 2.35298
45 2 9.33948 13.0232 2.45268
46 2 0.772167 13.5389 0.0339463
47 1 12.731 4.92453 5.27853
48 2 13.2939 4.48086 6.21565
49 2 13.0558 4.34787 4.37203
50 2 13.0508 5.90997 5.21664
51 4 2.83383 2.46095 4.41428
52 1 16.3558 18.6027 0.817498
53 2 16.4528 1.56327 15.4398
54 2 2.02163 3.99267 3.77838
55 2 14.7464 5.25912 2.27711
56 1 8.65465 17.0754 4.02042
57 2 5.56039 13.4232 17.5822
58 2 21.6772 18.5061 15.5582
59 2 9.21833 11.5317 3.3357
60 4 11.4544 17.479 2.05384
61 3 13.7617 4.48418 11.397
62 1 5.04813 6.28573 5.11314
63 2 5.73942 6.028 5.87842
64 2 5.28958 5.66126 4.22995
65 2 5.11264 7.34608 4.79754
66 1 13.9128 3.51623 11.9119
67 2 12.1731 1.54514 8.07975
68 2 18.2541 8.42066 18.8663
69 2 4.03121 6.04662 5.34671
70 4 19.4109 0.381941 17.6105
71 3 10.2611 15.9095 0.939432
72 1 13.4453 17.1905 2.04655
73 2 9.62035 3.75526 17.0686
74 2 7.90925 14.8992 3.59703
75 2 13.913 18.2641 1.61678
76 1 20.8262 18.903 16.834
77 2 21.3189 4.34167 13.1412
78 2 6.18176 16.2251 6.91649
79 2 0.0754066 2.42576 12.832
80 4 10.146 15.1922 2.28652
81 3 11.2916 13.9832 2.71488
82 1 16.1967 13.6393 0.808146
83 2 16.7433 14.1972 19.8979
84 2 17.1734 12.6664 1.17952
85 2 15.4868 13.2984 0.167435
86 1 8.53888 18.384 4.53975
87 2 20.0605 2.66247 1.62804
88 2 8.25992 18.4363 5.607
89 2 13.421 18.28 18.3528
90 4 12.3053 12.7155 3.22251
91 3 11.5795 11.7083 4.25694
92 1 13.9189 13.5074 3.67247
93 2 14.4939 13.1331 4.54647
94 2 14.5786 13.1661 2.909
95 2 13.9176 14.5647 3.86867
96 1 12.3757 11.5886 1.80306
97 2 17.4184 16.4088 12.1786
98 2 16.0518 14.484 1.54793
99 4 11.6321 10.2843 3.29857
100 3 10.3741 9.17063 3.56311
101 1 19.9438 3.37186 0.800652
102 2 20.5652 3.47748 19.8467
103 2 20.4519 4.27928 1.39363
104 2 19.1462 3.50288 0.170292
105 1 13.1964 9.36443 4.03178
106 2 14.0636 9.97172 3.73562
107 2 13.1333 9.36289 5.16858
108 2 13.3808 8.28834 3.72982
109 4 9.27271 8.22442 2.76803
110 1 9.8962 6.73137 2.22063
111 2 11.5048 6.634 2.39167
112 2 3.09298 0.618754 17.0772
113 2 7.3511 7.49488 3.75758
114 1 9.6794 2.70634 16.7018
115 2 8.85535 2.31392 16.3253
116 2 10.4385 2.57954 15.8278
117 2 10.3042 2.15604 17.5042
118 4 0.612962 10.8643 0.816146
119 3 21.5011 10.815 2.31088
120 1 21.8225 12.8198 0.163429
121 2 2.29997 10.1806 0.300918
122 2 0.224423 17.501 18.409
123 2 9.43177 17.6935 15.092
124 1 1.29792 9.52959 19.6767
125 2 4.74568 0.296461 3.04714
126 2 1.73929 6.97442 3.38506
127 2 2.96308 17.8233 12.6317
128 4 19.9729 11.2808 2.68721
129 3 19.3279 9.84259 2.6494
130 1 20.9343 11.6153 19.1935
131 2 21.3575 10.5587 19.1108
132 2 20.0964 11.491 0.137015
133 2 20.6613 12.0042 18.3021
134 1 7.11875 2.37888 5.67371
135 2 12.6587 17.0946 5.32744
136 2 11.6628 1.50167 19.3707
137 2 6.69596 3.24585 6.33974
138 4 17.981 9.10866 3.27011
139 3 16.8902 9.07661 1.96904
140 1 18.7483 7.52444 3.89049
141 2 18.2807 6.58717 3.49112
142 2 18.9 7.38274 4.89759
143 2 13.0952 13.858 16.5108
144 1 17.2863 9.85156 4.90792
145 2 17.9026 9.09581 5.49287
146 2 17.5858 10.8918 5.20001
147 2 16.2866 9.50488 5.11698
148 4 15.9044 9.32118 0.645202
149 3 15.7203 7.75489 19.7681
150 1 13.604 11.1204 1.47185
151 2 1.21463 4.39401 1.8406
152 2 13.0295 15.8492 0.131971
153 1 14.5805 10.4851 1.16412
154 2 20.7223 13.2246 0.415176
155 2 13.4442 7.83858 15.6283
156 2 19.0502 12.027 1.75384
157 4 15.5234 6.10836 19.8794
158 3 16.6628 5.81433 18.5573
159 1 14.1126 5.64122 18.6435
160 2 12.985 5.81076 18.8017
161 2 14.2908 5.62977 17.5979
162 2 14.3427 4.51314 18.7062
163 1 15.3576 4.89543 1.40957
164 2 16.4048 4.90082 1.94002
165 2 13.2809 3.33421 16.8751
166 2 12.7993 15.079 0.583396
167 4 17.9466 6.24219 17.5994
168 1 19.4562 5.0304 17.2763
169 2 5.86338 12.7937 17.241
170 2 19.5239 4.30768 18.003
171 2 19.3361 4.67463 16.3286
172 1 19.0296 7.57649 18.2462
173 2 19.3295 8.09073 17.2727
174 2 19.7353 7.14934 18.9745
175 2 13.3577 16.9061 3.17465
176 4 2.64854 16.7167 6.37158
177 3 2.16442 15.3353 6.98625
178 1 2.38653 17.1625 4.56889
179 2 19.4435 14.9268 3.49625
180 2 11.6615 3.80668 17.9217
181 2 9.12919 17.145 15.2984
182 1 19.6965 15.3348 4.59564
183 2 20.8083 15.4526 5.01515
184 2 18.9636 15.9614 5.12441
185 2 19.4506 14.4079 5.15101
186 4 2.68906 13.8937 7.31491
187 3 1.85236 12.5705 8.10762
188 1 4.11173 13.994 8.41782
189 2 4.61504 14.9299 8.02774
190 2 4.03857 14.1224 9.51942
191 2 4.76874 13.0678 8.51582
192 1 3.2548 13.3441 5.54878
193 2 4.19318 12.8185 5.70223
194 2 2.60571 12.7807 4.88182
195 2 3.3733 14.3712 5.14857
196 4 0.770502 11.4712 7.77083
197 3 1.47735 10.0316 7.68731
198 1 0.432281 11.4729 5.84665
199 2 1.50269 11.5195 5.49394
200 2 21.4627 10.8552 5.36428
201 2 21.8579 12.5218 5.75524
202 1 20.9473 11.5916 8.42904
203 2 20.6775 10.5927 8.82383
204 2 20.9828 12.2675 9.3659
205 2 20.1643 11.9397 7.65247
206 4 2.46895 8.8629 7.1599
207 3 3.49123 8.61656 8.58519
208 1 1.76958 7.20775 6.68823
209 2 2.1692 6.83599 5.75552
210 2 0.681842 6.96224 6.75707
211 2 5.0917 15.3448 14.8978
212 1 3.68678 9.60112 5.8938
213 2 3.50263 9.06718 4.94344
214 2 3.63629 10.7002 5.71105
215 2 4.74205 9.42487 6.28887
216 4 3.62088 7.46469 9.68216
217 3 5.0623 7.24931 10.3334
218 1 2.15869 7.12751 10.8931
219 2 2.51876 6.62221 11.8149
220 2 1.76546 8.08425 11.2192
221 2 1.31867 6.53494 10.4616
222 1 3.59715 5.45236 8.24304
223 2 2.61825 5.69472 8.55766
224 2 4.24863 6.32732 7.80718
225 2 4.16314 4.81388 8.92901
226 4 5.92701 6.15602 11.315
227 1 6.40343 4.68033 10.2142
228 2 5.85488 3.75275 10.4761
229 2 6.35104 4.94153 9.13348
230 2 7.44423 4.42978 10.4522
231 1 7.4129 6.97247 12.1222
232 2 8.21455 7.20732 11.398
233 2 7.1536 7.89628 12.6515
234 4 8.84776 17.9031 8.34338
235 3 8.68916 17.1644 9.8459
236 1 7.07018 18.853 8.33237
237 2 6.5013 0.678402 8.60984
238 2 7.03572 18.7303 7.16755
239 2 5.28244 18.4841 13.4814
240 1 8.49013 2.53801 5.50029
241 2 13.7688 16.738 1.13125
242 2 8.91864 3.2982 6.0489
243 2 9.06571 1.72059 5.0024
244 4 8.94715 15.6303 10.5344
245 3 9.29393 14.4254 9.37487
246 1 10.6885 15.431 11.3856
247 2 10.7723 14.59 12.0765
248 2 11.5456 15.4954 10.7027
249 2 10.8483 16.2765 12.1023
250 1 7.31466 14.9635 11.3489
251 2 6.93986 13.9588 11.07
252 2 7.43082 14.8037 12.4256
253 2 6.50679 15.6924 11.1722
254 4 9.42942 13.554 7.9983
255 3 8.94836 11.9498 8.06665
256 1 11.1965 13.5264 7.52383
257 2 11.7426 12.5623 7.57262
258 2 11.3179 13.7775 6.4608
259 2 11.7931 14.2197 8.13106
260 1 8.14874 14.2104 6.81113
261 2 7.81945 15.2742 7.01201
262 2 8.60542 14.2132 5.79368
263 2 7.19159 13.6083 6.75906
264 4 8.99376 10.248 8.01958
265 3 10.5896 9.76898 7.95187
266 1 8.23015 9.7463 6.30954
267 2 7.26055 10.1826 6.00616
268 2 8.95648 9.91435 5.49021
269 2 8.08687 8.65093 6.40751
270 1 8.15421 9.62981 9.56592
271 2 7.17332 10.1646 9.65391
272 2 7.97248 8.54204 9.67229
273 2 8.81561 9.89953 10.4016
274 4 11.5733 8.37249 8.45258
275 3 11.1179 7.07054 7.56197
276 1 11.594 8.12353 10.3185
277 2 12.5627 7.68148 10.6014
278 2 11.6396 9.16514 10.6605
279 2 10.7779 7.54691 10.7873
280 1 13.2366 9.05598 7.97505
281 2 14.0811 8.38523 7.78726
282 2 13.1533 9.7592 7.12679
283 2 13.5478 9.68984 8.83871
284 4 10.5433 6.49688 6.11523
285 1 11.195 5.07872 5.27449
286 2 10.699 4.12088 5.55634
287 2 10.6445 5.36841 4.22761
288 1 8.63993 6.05802 6.26109
289 2 8.51219 5.25037 6.957
290 2 8.16613 6.79589 6.88676
291 2 8.09592 6.01229 5.3155
292 4 19.2076 6.53855 10.6488
293 3 20.3747 5.64156 9.98731
294 1 19.0319 8.41836 9.62002
295 2 19.4841 9.2217 10.1189
296 2 19.0248 8.60512 8.55142
297 2 17.9651 8.31605 9.75419
298 1 20.7857 4.22831 6.28542
299 2 12.4955 18.9164 16.932
300 2 3.60575 16.5464 7.55316
301 2 0.494146 4.77247 5.85399
302 4 19.3815 4.91309 8.61011
303 3 19.3805 3.11386 9.06952
304 1 19.9521 2.51488 4.73787
305 2 14.3037 0.849931 6.83499
306 2 7.46121 16.9103 17.9123
307 2 0.519018 2.34195 8.50255
308 1 15.8296 17.8412 11.3749
309 2 3.7518 17.0475 18.5375
310 2 15.1858 17.0684 11.8504
311 2 21.661 14.9635 17.7503
312 4 18.4237 1.86808 9.66084
313 3 17.7372 0.966267 8.34861
314 1 19.4591 0.649786 10.6395
315 2 19.6525 0.555112 11.7813
316 2 18.8163 18.6674 10.2319
317 2 20.3244 0.45562 10.0642
318 1 16.7702 2.42202 10.2211
319 2 16.8048 3.37593 10.775
320 2 16.4501 2.9507 9.2335
321 2 15.895 1.78274 10.3831
322 4 18.7974 1.21203 6.90537
323 3 18.5069 0.123754 5.96985
324 1 20.0904 3.42915 5.53017
325 2 21.6713 15.7523 7.23922
326 2 0.960154 2.16712 7.98755
327 2 20.3198 1.65479 4.11836
328 1 21.6617 16.9836 7.55784
329 2 0.565798 16.7355 2.3057
330 2 2.95838 14.1434 14.4578
331 2 6.1797 16.8476 6.82648
332 4 17.7638 18.9865 4.28885
333 3 18.2192 0.583201 2.66227
334 1 7.13945 0.58516 0.955768
335 2 6.87826 18.9968 19.6863
336 2 7.6926 18.5372 1.05289
337 2 6.12045 0.558284 1.29553
338 1 15.896 0.381697 4.54015
339 2 15.6641 0.189332 3.47027
340 2 15.0997 18.8228 5.0039
341 2 15.9402 1.4365 4.72141
342 4 17.7772 0.281006 1.16389
343 1 7.4966 15.8357 17.6205
344 2 8.33734 15.3754 16.9086
345 2 4.05167 12.1686 2.02935
346 2 3.45983 16.4676 19.4499
347 1 8.80624 15.757 3.6062
348 2 8.99859 0.257015 4.07013
349 2 15.6971 0.959014 0.260377
350 2 11.9834 2.1531 8.51506
351 4 21.521 16.1069 16.9807
352 3 20.3401 15.768 15.3206
353 1 19.9971 3.05329 12.4415
354 2 21.8268 16.6602 2.55343
355 2 6.87251 15.229 17.9601
356 2 5.74302 15.2065 15.5582
357 1 21.2417 3.53878 12.5289
358 2 15.7873 9.90259 8.18874
359 2 18.2 12.6791 7.13901
360 2 20.16 11.6831 4.1125
361 4 20.337 14.3736 14.6115
362 3 0.400466 13.898 15.0565
363 1 3.2338 17.31 11.6739
364 2 4.15749 17.7345 11.1748
365 2 3.75999 16.3648 11.5436
366 2 2.27475 17.2123 11.2119
367 1 21.2792 17.829 17.4827
368 2 21.866 16.7466 8.82474
369 2 1.4076 9.03344 0.91266
370 2 2.2779 16.4346 3.53717
371 4 1.79154 13.1785 15.2474
372 3 2.0329 11.6724 14.4631
373 1 1.09008 17.7158 7.10452
374 2 5.7345 0.465173 13.1608
375 2 20.6902 17.498 7.73452
376 2 1.30506 18.7451 7.60566
377 1 2.5335 12.8691 17.0091
378 2 2.72071 13.8194 17.5841
379 2 2.18736 11.9447 17.4684
380 2 3.56897 12.5452 16.8957
381 4 2.51349 10.6358 13.1504
382 3 2.87939 9.15821 13.743
383 1 4.05868 11.4067 12.4593
384 2 4.53584 10.7519 11.7031
385 2 3.66907 12.3299 11.9367
386 2 4.84221 11.765 13.1385
387 1 1.0315 10.4011 11.8326
388 2 1.32331 9.91748 10.8696
389 2 0.524336 9.68406 12.4217
390 2 0.421185 11.3107 11.9003
391 4 3.36242 7.96192 14.7977
392 3 3.86448 6.6932 13.7591
393 1 4.85503 8.41284 15.7621
394 2 4.47713 9.11122 16.5199
395 2 5.22316 7.53602 16.2977
396 2 5.62887 8.78464 15.0988
397 1 1.84827 7.64778 15.7505
398 2 1.82061 8.57914 16.3792
399 2 0.95075 7.51581 15.0663
400 2 1.90899 6.76192 16.3779
401 4 4.47491 5.40452 13.0305
402 1 3.05232 4.39305 12.4048
403 2 3.39483 3.37862 12.4511
404 2 2.42277 4.44849 13.2447
405 2 2.63243 4.67047 11.424
406 1 5.43237 4.27435 14.1869
407 2 5.26698 3.28005 13.7662
408 2 4.88913 4.28849 15.158
409 4 11.4669 12.1425 16.985
410 3 11.1969 11.2033 18.3692
411 1 12.6787 18.7751 17.8582
412 2 15.777 1.13609 15.1981
413 2 14.693 8.55724 19.3234
414 2 4.01946 18.6135 3.09395
415 1 12.408 0.803774 19.0752
416 2 12.8829 1.92563 18.3393
417 2 16.4825 18.0806 19.4896
418 2 19.5386 2.58955 13.3158
419 4 9.4209 11.4034 18.3286
420 3 9.64142 12.1026 16.7283
421 1 8.48351 9.77286 18.7153
422 2 7.55443 9.27391 18.2909
423 2 9.41005 9.10813 18.8933
424 2 8.07783 10.0172 19.6924
425 1 8.5392 12.8488 18.9964
426 2 7.60135 12.8699 18.4379
427 2 8.20703 12.6273 0.235711
428 2 9.08387 13.7576 18.8403
429 4 9.05642 12.0419 15.0375
430 3 10.1042 11.4711 14.054
431 1 8.88979 13.8207 14.744
432 2 9.77035 14.3177 15.2287
433 2 8.89701 14.3275 13.7872
434 2 7.98495 14.1672 15.2637
435 1 7.60435 10.9025 15.035
436 2 7.34508 10.7565 14.0044
437 2 7.82312 10.0004 15.625
438 2 6.77029 11.3635 15.6178
439 4 11.3301 10.3853 14.2615
440 3 10.5984 8.9469 14.5721
441 1 12.2687 11.0291 15.7882
442 2 12.4259 10.1741 16.4609
443 2 1.27519 4.55654 1.22107
444 2 13.2018 11.5165 15.3934
445 1 12.1525 10.7578 12.6708
446 2 11.3925 10.4492 11.9251
447 2 12.2618 11.8423 12.706
448 4 10.2303 7.41213 15.0996
449 3 8.92287 6.70016 14.3956
450 1 10.0514 7.34737 16.9897
451 2 10.4568 8.21187 17.5049
452 2 9.04602 7.15382 17.4007
453 2 10.5552 6.45182 17.4136
454 1 11.6598 6.32489 14.6262
455 2 12.4383 6.28973 15.3791
456 2 11.2416 5.39941 14.2499
457 2 12.231 6.79116 13.8078
458 4 8.15593 5.7316 13.2555
459 1 6.93046 4.58392 14.4326
460 2 6.94202 5.13484 15.3604
461 2 7.54538 3.67937 14.5352
462 1 9.31011 4.40451 12.5172
463 2 10.1315 4.24091 13.2351
464 2 8.85615 3.43818 12.4007
465 2 9.82749 4.78738 11.6454
466 4 17.1195 12.7536 8.21754
467 3 17.402 12.2952 9.77905
468 1 17.0282 14.5804 8.73174
469 2 16.1206 15.216 8.89383
470 2 17.8338 15.1361 8.30248
471 2 17.6928 17.593 14.318
472 1 11.9207 13.8637 17.0136
473 2 11.9063 14.4303 17.9796
474 2 11.2309 14.2635 16.1933
475 2 13.8522 3.1772 16.4617
476 4 17.4568 13.9223 10.4242
477 3 16.1565 14.2014 11.3553
478 1 19.199 14.0332 11.1382
479 2 18.897 13.9892 12.1932
480 2 19.7033 13.076 10.9525
481 2 19.7661 14.9345 11.0542
482 1 13.1268 16.6089 6.23015
483 2 13.0273 17.272 7.07752
484 2 14.152 16.3244 5.9705
485 2 12.4692 15.6672 6.51358
486 4 14.7483 13.4168 11.8467
487 3 15.0348 12.226 12.9266
488 1 14.0796 14.8021 12.8813
489 2 13.0928 14.6104 13.3032
490 2 14.8058 15.0637 13.6494
491 2 14.1425 15.7821 12.3538
492 1 13.7673 12.7711 10.3879
493 2 13.6526 13.4594 9.5389
494 2 14.11 11.7659 10.0659
495 2 12.7234 12.6047 10.7639
496 4 15.051 10.5514 12.5972
497 3 15.8484 9.84725 13.9174
498 1 13.3801 9.91276 12.7397
499 2 13.2406 8.86271 12.4079
500 2 13.4781 8.26164 16.2256
501 1 16.0901 9.95771 11.2401
502 2 16.4487 10.737 10.5844
503 2 16.9499 9.32708 11.5463
504 2 15.4817 9.29863 10.6092
505 4 17.1402 9.82857 14.9288
506 3 17.7892 8.36784 15.1612
507 1 18.5072 10.7625 14.21
508 2 18.0571 11.5581 13.56
509 2 19.0818 11.262 15.058
510 2 19.1901 10.22 13.575
511 1 16.7985 10.6583 16.4588
512 2 16.4475 11.6853 16.3564
513 2 16.129 10.0629 17.0144
514 2 17.7589 10.8152 17.0827
515 4 17.6877 6.70508 15.2129
516 1 16.3862 5.66338 14.1955
517 2 15.4962 5.46628 14.8039
518 2 16.2043 5.98559 13.1659
519 2 16.9921 4.74445 14.1459
520 1 19.2396 6.25527 14.2047
521 2 19.4595 7.11847 13.5262
522 2 20.0388 6.36193 14.9785
523 2 19.2219 5.36185 13.559
ITEM: TIMESTEP
14500
ITEM: NUMBER OF ATOMS
523
ITEM: BOX BOUNDS pp pp pp
1.0197326737918466e-01 2.1898026732620956e+01
8.8438462208182855e-02 1.8991524537791811e+01
9.2702970344603841e-02 1.9907297029655478e+01
ITEM: ATOMS id type x y z
1 4 7.149 3.01411 1.95297
2 3 8.09481 4.2588 2.70413
3 1 20.0073 4.66664 6.41908
4 2 2.1176 15.0677 0.912185
5 2 5.02782 13.3086 3.75377
6 2 20.0897 5.50507 5.83876
7 1 1.43166 6.58781 4.0837
8 2 10.6702 2.27037 3.03319
9 2 15.9102 9.67563 7.19515
10 2 1.73511 5.64113 3.97512
11 4 8.63944 5.6617 1.75478
12 3 8.00097 5.96088 0.344664
13 1 7.33453 7.66082 3.02179
14 2 19.9971 1.44297 1.39864
15 2 6.54799 6.88145 3.37806
16 2 6.86744 8.2545 2.1593
17 1 8.05776 8.32215 3.95362
18 2 16.6512 11.5453 7.70517
19 2 20.0173 4.27702 17.5361
20 2 16.8093 0.811228 15.2064
21 4 6.60287 4.59806 19.7378
22 3 5.92468 3.48199 0.946697
23 1 7.02494 3.67325 18.2447
24 2 7.98301 3.1182 18.2232
25 2 6.5587 2.78118 18.3296
26 2 6.90135 3.90551 17.1528
27 1 5.26595 5.78878 19.3813
28 2 5.26358 6.79908 19.2498
29 2 4.63769 5.36383 18.3839
30 2 4.60687 5.18951 0.226299
31 4 6.95426 1.72087 4.03064
32 3 5.22986 1.0387 4.00706
33 1 13.3582 17.6499 11.5838
34 2 15.2724 17.3722 10.9896
35 2 10.2692 16.9207 18.7347
36 2 3.95373 3.71385 8.49058
37 1 8.38788 1.93714 1.174
38 2 16.4005 4.87064 1.65086
39 2 18.3188 7.36538 5.03205
40 2 9.6609 2.03409 1.13428
41 4 2.55644 17.675 5.25085
42 3 3.16519 18.567 4.17488
43 1 6.01224 12.9968 3.86169
44 2 2.04186 7.56781 3.95482
45 2 6.76763 13.6459 4.4258
46 2 20.3036 13.321 18.3145
47 1 13.0022 4.88265 5.95164
48 2 13.3649 4.47979 6.86605
49 2 13.1898 4.1455 5.17827
50 2 13.6776 5.7544 5.56145
51 4 3.74531 0.975872 4.76855
52 1 19.472 17.6162 0.50527
53 2 14.8766 3.0058 16.3182
54 2 2.81628 2.54783 4.5173
55 2 12.5875 4.67233 0.466626
56 1 8.93553 16.1602 3.5378
57 2 6.05177 14.6156 16.2563
58 2 20.9426 0.8249 18.0941
59 2 6.37229 12.0088 4.12529
60 4 11.4507 17.2394 19.8855
61 3 14.0278 4.42447 11.4895
62 1 4.34605 4.80454 4.705
63 2 4.03725 4.49219 5.68603
64 2 4.12161 5.88317 4.61117
65 2 3.72673 4.19627 4.062
66 1 14.1866 5.52096 11.1585
67 2 10.303 3.43717 8.54214
68 2 19.2015 8.34239 18.899
69 2 5.37808 4.57843 4.53272
70 4 18.8214 18.4762 18.1183
71 3 11.5227 16.0409 1.13877
72 1 11.4442 0.105492 0.707754
73 2 7.29083 2.57866 14.4652
74 2 8.54385 13.9926 2.95606
75 2 12.0056 0.692963 19.7321
76 1 21.107 18.7253 17.7427
77 2 20.0411 3.80569 13.2954
78 2 4.36302 15.2283 12.5871
79 2 21.1574 5.26409 13.6955
80 4 10.5619 14.8443 1.66939
81 3 11.1391 13.3449 1.85992
82 1 16.3639 13.5201 0.180947
83 2 17.4378 13.3443 0.939151
84 2 16.7701 14.2688 19.47
85 2 15.4778 13.9422 0.375928
86 1 8.68726 17.1023 4.40276
87 2 0.1361 5.36553 19.5321
88 2 8.26094 18.0709 3.99805
89 2 10.3675 18.6716 17.2632
90 4 11.952 12.5796 3.12229
91 3 10.9097 11.6652 3.99641
92 1 12.9352 13.6986 4.00782
93 2 12.5322 14.7316 3.91734
94 2 12.9657 13.3817 5.05799
95 2 13.9512 13.5823 3.53059
96 1 12.7926 11.0385 2.68149
97 2 13.4374 17.3948 12.8625
98 2 16.331 12.5131 19.227
99 4 11.9934 10.323 4.24909
100 3 11.074 9.08845 3.57757
101 1 0.17136 6.01916 0.516485
102 2 21.6259 7.11245 0.602525
103 2 0.676503 6.00735 19.1397
104 2 0.729313 5.38162 1.41531
105 1 12.7778 10.8018 5.85051
106 2 12.979 9.84342 6.31424
107 2 13.7595 11.2535 5.63975
108 2 12.0795 11.5402 6.18158
109 4 9.83664 8.00064 3.71371
110 1 9.97047 6.89558 2.29745
111 2 10.8808 6.77826 1.18785
112 2 19.4131 1.14543 1.5146
113 2 7.49786 9.0033 4.64215
114 1 7.09359 1.54577 14.6527
115 2 6.98721 1.00669 13.5479
116 2 7.75578 0.848642 15.0376
117 2 6.0848 1.2931 15.0869
118 4 0.989882 11.2281 1.2705
119 3 21.4674 10.3107 1.35405
120 1 19.5936 12.8838 18.9637
121 2 3.00577 9.99209 2.1774
122 2 0.380835 17.3986 16.7938
123 2 7.71341 17.2871 16.9119
124 1 2.75911 11.1267 2.14938
125 2 4.98262 1.13831 12.1565
126 2 0.364459 5.86079 3.68789
127 2 21.7293 17.8208 12.0858
128 4 19.9939 10.4786 2.02913
129 3 19.2466 9.24344 2.80535
130 1 18.9294 11.7112 18.3175
131 2 19.0619 10.649 18.9998
132 2 17.8359 11.8375 18.6071
133 2 18.9605 11.8387 17.1674
134 1 7.53674 1.46263 5.75284
135 2 12.8343 17.3756 5.60117
136 2 11.2413 0.865037 15.8242
137 2 7.82112 0.286135 5.80964
138 4 17.5525 8.81121 3.46195
139 3 16.4239 8.66774 2.15722
140 1 17.9042 7.12035 4.10345
141 2 18.4075 6.4831 3.36779
142 2 16.8864 6.64526 4.27804
143 2 13.8494 13.2591 17.6702
144 1 17.2445 10.3474 4.59953
145 2 18.0712 10.2649 5.32057
146 2 17.5134 11.2524 4.13316
147 2 16.3381 10.3773 5.25096
148 4 15.7526 9.20185 0.686317
149 3 16.0106 7.94432 19.2955
150 1 13.4484 10.575 1.53904
151 2 1.23389 3.22699 6.97058
152 2 15.503 18.117 18.9757
153 1 14.1126 10.1881 0.564578
154 2 19.7317 13.1434 0.543436
155 2 13.6662 7.70633 15.4634
156 2 19.3123 11.1218 0.9213
157 4 15.7818 6.28467 19.2526
158 3 17.4048 5.77259 18.7861
159 1 14.7778 5.89483 17.7395
160 2 13.7009 5.85292 18.103
161 2 14.8402 6.6163 17.0061
162 2 14.9733 5.01087 17.2652
163 1 15.5319 5.1589 1.00038
164 2 14.7823 4.46339 1.25107
165 2 10.6295 3.11495 12.2708
166 2 14.5365 17.3803 18.3784
167 4 18.4909 6.2558 17.6569
168 1 19.1497 4.67511 17.0571
169 2 6.53294 14.9051 16.7039
170 2 18.2754 4.0593 16.999
171 2 19.7126 4.73583 16.1453
172 1 19.7648 7.46385 18.4813
173 2 20.9268 7.64978 18.2668
174 2 20.0092 6.80181 19.4788
175 2 10.4729 0.609722 0.546565
176 4 3.20829 16.8275 7.71541
177 3 2.74884 15.2559 8.1286
178 1 4.03134 16.8317 6.15433
179 2 19.8489 14.3029 3.47286
180 2 11.0772 2.22536 3.66781
181 2 7.64412 16.3394 16.521
182 1 20.5763 14.5359 4.16954
183 2 21.696 14.5863 3.70096
184 2 20.3705 15.4654 4.84336
185 2 20.2468 13.7122 4.92913
186 4 3.2145 13.723 7.91768
187 3 2.34254 12.8535 6.72294
188 1 3.41084 12.7767 9.43435
189 2 4.2205 13.3076 9.94161
190 2 2.5753 12.6273 10.0853
191 2 3.82784 11.836 9.07167
192 1 4.76573 13.8486 7.03045
193 2 5.75571 14.2038 7.30929
194 2 4.99615 12.8932 6.49231
195 2 4.46788 14.3562 6.08698
196 4 1.23129 11.5335 6.97516
197 3 1.93169 9.98511 6.87831
198 1 21.7116 11.2745 5.64215
199 2 20.8226 11.9126 5.95014
200 2 21.6423 11.264 4.51515
201 2 21.5031 10.0957 5.7106
202 1 0.275874 11.7808 8.41755
203 2 21.9357 12.8943 8.78476
204 2 20.9966 11.5642 8.21758
205 2 0.839874 11.3293 9.26383
206 4 3.26318 9.07132 7.00064
207 3 3.97671 9.3562 8.54552
208 1 3.0716 7.13814 7.43582
209 2 3.82701 6.3196 7.25651
210 2 2.10733 6.71706 7.21507
211 2 0.31959 15.2656 12.8388
212 1 4.63452 9.47168 5.72954
213 2 4.6698 8.61469 5.05845
214 2 4.43693 10.3558 5.14385
215 2 5.59423 9.73591 6.17862
216 4 3.61604 7.86895 9.1988
217 3 5.07511 7.27433 9.74916
218 1 2.20665 8.3472 10.3659
219 2 2.34207 9.32705 10.8628
220 2 1.36548 8.32112 9.67637
221 2 1.94125 7.66472 11.1709
222 1 3.5532 2.67537 8.82733
223 2 4.35753 2.07583 9.0763
224 2 3.20625 2.2715 7.87563
225 2 2.64277 2.69373 9.43051
226 4 5.73589 6.07269 10.6628
227 1 6.12735 4.37912 9.90262
228 2 5.53828 3.52051 10.2253
229 2 5.96973 4.32026 8.80246
230 2 7.16428 4.08961 10.0924
231 1 7.24349 7.02773 11.3461
232 2 8.1044 7.06468 10.6592
233 2 6.98112 8.06438 11.6214
234 4 8.75459 17.9297 8.59381
235 3 9.6122 17.3132 9.95093
236 1 7.19996 18.0376 9.31213
237 2 6.21861 18.5327 8.77277
238 2 7.15276 17.0267 9.3144
239 2 7.66695 1.11165 10.1724
240 1 7.53798 2.29606 6.82917
241 2 11.9503 0.351812 1.97577
242 2 7.38111 1.78166 7.75484
243 2 7.69367 3.30871 7.03169
244 4 9.77826 15.8661 10.6022
245 3 10.526 14.8483 9.62065
246 1 10.5512 16.0478 12.3591
247 2 11.1342 15.207 12.7013
248 2 10.862 17.0773 12.4603
249 2 9.70089 16.0465 13.0523
250 1 8.06218 15.1184 11.2581
251 2 8.29752 14.126 11.7293
252 2 7.69005 15.7358 12.0669
253 2 7.32568 14.8224 10.4966
254 4 10.2044 13.8871 8.34019
255 3 9.76969 12.3203 8.87761
256 1 11.7878 13.7227 7.37244
257 2 11.5599 13.9703 6.33295
258 2 12.5176 14.4357 7.77761
259 2 12.1126 12.691 7.55368
260 1 8.75871 14.4801 7.40287
261 2 7.82437 14.4058 8.00788
262 2 9.0304 15.4606 7.08045
263 2 8.59854 13.9012 6.47496
264 4 9.30635 10.7215 8.82349
265 3 10.2819 9.34601 8.75057
266 1 8.30286 10.7225 7.2064
267 2 7.72915 11.665 7.28542
268 2 8.90506 10.7121 6.26948
269 2 7.52076 9.95912 7.04034
270 1 8.27405 10.5348 10.3383
271 2 7.53754 11.3352 10.5291
272 2 7.80052 9.53911 10.3996
273 2 9.01046 10.5529 11.1736
274 4 11.059 7.94401 8.13239
275 3 10.8191 7.7889 6.47148
276 1 10.1131 6.50641 8.98022
277 2 10.8109 5.69502 9.17136
278 2 9.9882 6.88261 10.0086
279 2 9.10049 6.19556 8.72291
280 1 12.8938 7.82981 8.56953
281 2 13.4586 7.25642 7.82652
282 2 13.3168 8.84087 8.64465
283 2 12.9237 7.35828 9.56164
284 4 10.3039 6.514 5.54119
285 1 11.4464 5.04183 5.82878
286 2 10.9547 4.58969 6.78055
287 2 10.9477 4.42583 5.13534
288 1 8.57012 5.62136 5.88128
289 2 8.76243 4.7161 6.46752
290 2 7.87873 6.25287 6.42798
291 2 8.04023 5.2107 5.02349
292 4 19.5469 6.52069 10.1791
293 3 20.8927 5.99957 8.88703
294 1 19.4864 8.51768 9.83025
295 2 19.7968 9.19572 10.6015
296 2 20.054 8.9533 8.9824
297 2 18.3535 8.59307 9.68395
298 1 19.3711 3.53491 5.65576
299 2 12.2296 4.61718 1.39026
300 2 2.35913 18.127 8.43909
301 2 0.669948 2.94258 5.10895
302 4 19.8439 4.69913 8.35032
303 3 20.3022 2.76809 8.43203
304 1 21.6768 2.88112 4.54469
305 2 12.4672 16.9311 11.4561
306 2 5.53397 16.2823 0.198636
307 2 2.48536 1.86549 13.0466
308 1 14.2524 17.0685 10.7911
309 2 0.0765202 12.3025 0.531524
310 2 14.4292 16.0921 11.2448
311 2 20.2792 18.335 19.7449
312 4 18.8827 1.74021 8.75272
313 3 18.0753 1.75631 7.32071
314 1 19.0218 18.9552 9.16636
315 2 19.8237 18.6045 8.5849
316 2 19.2204 0.281294 10.3602
317 2 18.2927 18.026 9.08739
318 1 17.9477 2.65508 10.1934
319 2 17.0196 2.26918 10.7159
320 2 18.9441 3.05214 10.5704
321 2 17.4354 3.44457 9.50751
322 4 17.6884 2.70891 6.0822
323 3 16.9682 1.91328 4.89515
324 1 20.5818 3.24781 5.10397
325 2 21.0435 17.1983 5.50998
326 2 2.97472 1.78729 13.5582
327 2 16.2649 3.6081 6.46913
328 1 21.6659 17.5497 6.31758
329 2 0.718419 17.2136 4.05155
330 2 2.14056 13.9722 15.3361
331 2 4.92899 15.2302 12.2987
332 4 16.5386 1.24001 3.46721
333 3 17.5659 18.833 3.28166
334 1 8.13054 0.693723 0.483503
335 2 7.16051 0.575119 0.297225
336 2 8.19505 1.03065 19.2144
337 2 8.53664 18.6164 0.789288
338 1 16.0678 2.04427 1.11112
339 2 15.007 2.10124 1.25525
340 2 16.4167 3.074 1.24882
341 2 16.3992 1.21972 0.572007
342 4 17.2999 17.9314 1.85315
343 1 6.33583 16.8248 19.3152
344 2 5.95442 17.5737 18.6869
345 2 1.7748 15.5713 0.511991
346 2 1.37413 9.78097 19.2805
347 1 9.13068 15.0138 2.909
348 2 9.22483 16.9444 5.44317
349 2 16.1952 17.1046 2.45869
350 2 10.7934 2.82468 8.83731
351 4 19.942 16.5712 17.5183
352 3 19.9059 15.4037 16.1314
353 1 19.6511 6.05396 12.145
354 2 0.914616 16.0921 3.70425
355 2 7.62008 17.2762 19.4699
356 2 0.434492 15.0394 13.6469
357 1 19.9969 5.02093 13.0641
358 2 16.1 9.174 7.51533
359 2 18.8088 12.7238 6.96965
360 2 20.3193 11.7174 2.99374
361 4 19.9894 13.8099 15.3366
362 3 21.5915 13.1372 15.3885
363 1 0.662644 17.6888 11.2253
364 2 1.24837 18.6009 11.2645
365 2 1.0384 16.6211 11.2981
366 2 0.072745 17.4518 10.2664
367 1 21.5727 17.4291 17.5486
368 2 1.9408 16.5857 6.56526
369 2 2.04901 11.4436 3.20353
370 2 4.62094 17.6429 5.71863
371 4 1.38162 12.8502 15.8939
372 3 2.05624 11.4524 15.3315
373 1 0.979274 18.1032 5.99361
374 2 6.79157 18.4498 10.5121
375 2 21.3527 16.8926 7.4429
376 2 1.02983 18.8321 6.72732
377 1 1.87597 12.9286 17.7386
378 2 1.59238 11.9051 17.9955
379 2 2.76779 13.5517 17.6212
380 2 1.16692 13.5755 18.2894
381 4 2.50557 11.1217 13.7617
382 3 2.47595 9.46962 13.7415
383 1 4.15687 11.6347 13.2156
384 2 4.84555 11.8394 14.0681
385 2 4.4431 10.648 12.7782
386 2 4.25328 12.4494 12.5047
387 1 1.31366 12.0755 12.7549
388 2 1.40282 11.8149 11.7322
389 2 0.314203 11.6586 13.0837
390 2 1.56792 13.0587 13.0294
391 4 3.42219 8.3616 14.5681
392 3 4.39901 7.41713 13.47
393 1 4.59309 9.07724 15.9469
394 2 5.39712 8.36302 16.1791
395 2 5.03294 10.0714 15.7735
396 2 3.97586 9.22854 16.8415
397 1 2.23024 7.15248 15.3526
398 2 1.82671 7.63913 16.2929
399 2 1.25734 7.13759 14.7466
400 2 2.64553 6.16001 15.5272
401 4 4.40702 5.87622 12.6378
402 1 2.87708 4.92561 12.4796
403 2 3.16418 3.95344 12.1354
404 2 2.32687 4.65265 13.383
405 2 2.34708 5.35578 11.625
406 1 5.6144 4.98334 13.8319
407 2 5.98095 4.03481 13.3883
408 2 4.96168 4.6823 14.6593
409 4 11.7038 11.8931 17.2982
410 3 11.3589 11.6708 19.0579
411 1 11.0366 0.79585 16.9784
412 2 15.537 2.65336 16.3865
413 2 13.731 10.5557 19.1342
414 2 5.45077 1.83334 12.6931
415 1 11.6431 1.65753 17.6676
416 2 12.1129 2.06536 18.648
417 2 20.3559 17.3387 0.826012
418 2 18.794 6.52966 12.5627
419 4 9.79061 12.0705 19.2761
420 3 10.0894 12.3221 17.0488
421 1 8.80979 10.4616 19.3597
422 2 9.4811 9.5435 19.5383
423 2 7.98123 10.8429 0.160394
424 2 8.36386 10.1442 18.3698
425 1 9.301 13.8746 19.6254
426 2 8.94822 14.2362 18.6525
427 2 6.20567 13.2628 2.72499
428 2 8.4165 13.8607 0.481191
429 4 9.35854 12.06 15.6194
430 3 9.91252 10.9437 14.5098
431 1 9.34369 13.6336 14.6588
432 2 9.05321 14.5798 15.1953
433 2 10.4032 13.6676 14.3866
434 2 8.65284 13.3147 13.8802
435 1 7.62655 11.51 15.7823
436 2 7.25606 11.4408 14.7469
437 2 7.3905 10.49 16.1985
438 2 6.92167 12.1953 16.3419
439 4 11.314 9.93761 14.6335
440 3 10.6532 8.44032 14.7943
441 1 12.486 10.6995 15.8835
442 2 12.8118 9.82067 16.5189
443 2 0.809721 3.19478 7.77239
444 2 13.3557 11.0866 15.3012
445 1 11.8488 9.96022 12.8684
446 2 11.0691 9.37701 12.321
447 2 11.7446 11.0253 12.6017
448 4 10.3344 6.86158 14.5114
449 3 9.18921 7.00709 13.3079
450 1 9.93962 6.11276 16.144
451 2 10.7925 6.29344 16.8138
452 2 9.00547 6.64045 16.4558
453 2 9.71436 5.01371 16.1064
454 1 11.8863 6.03556 13.9338
455 2 12.2836 6.40304 12.9754
456 2 12.7046 6.06095 14.674
457 2 11.6481 4.95704 13.8471
458 4 7.86317 6.05904 12.7962
459 1 6.76276 5.88752 14.3251
460 2 6.34942 6.87509 14.5728
461 2 7.33726 5.45836 15.1536
462 1 8.40951 4.42482 12.1846
463 2 9.16571 4.12208 12.958
464 2 7.67897 3.62159 12.2567
465 2 8.99488 4.42474 11.246
466 4 17.5777 12.6367 7.8774
467 3 18.2314 12.4521 9.45921
468 1 16.6996 14.2808 8.4472
469 2 15.5795 14.2477 8.57594
470 2 17.0789 15.1833 8.00174
471 2 16.7327 0.168342 15.5887
472 1 12.8301 13.3558 17.2204
473 2 12.4321 14.1297 17.8183
474 2 13.043 13.7208 16.1654
475 2 10.7735 3.29109 13.0956
476 4 17.4378 13.9103 10.1652
477 3 16.3282 13.3795 11.3424
478 1 18.4581 15.1297 11.0693
479 2 19.181 15.5831 10.3252
480 2 17.8235 16.0375 11.2932
481 2 19.0786 14.6886 11.8655
482 1 12.6632 17.2394 6.67635
483 2 12.1132 16.3335 6.99846
484 2 12.1543 18.0904 7.07626
485 2 13.6471 17.2607 7.2628
486 4 14.9523 12.6231 11.8501
487 3 15.118 11.0774 11.3602
488 1 14.7247 13.257 13.6606
489 2 13.6658 13.0639 13.8811
490 2 15.3916 12.8454 14.403
491 2 14.98 14.3322 13.7107
492 1 13.2535 13.1583 11.0845
493 2 12.4976 12.6492 11.6861
494 2 12.9292 14.1713 11.368
495 2 13.0791 12.8189 10.0326
496 4 14.9016 9.83795 12.5356
497 3 15.3183 10.1664 14.1813
498 1 13.1248 9.32787 12.5448
499 2 13.054 8.29202 12.1989
500 2 14.1402 7.80786 14.8915
501 1 15.7738 8.19885 11.9246
502 2 16.8582 8.2118 12.0932
503 2 15.2759 7.2621 12.2712
504 2 15.5632 8.3275 10.8406
505 4 16.4643 10.4034 15.4232
506 3 16.8947 8.91191 15.7496
507 1 17.8159 11.4935 14.9393
508 2 17.5844 12.5152 15.2639
509 2 18.7716 11.1966 15.4332
510 2 18.0116 11.5702 13.8966
511 1 15.8432 11.1195 16.9943
512 2 16.522 12.0465 17.1993
513 2 14.8202 11.2948 16.7765
514 2 15.7967 10.5283 17.9918
515 4 18.1664 7.79494 15.8154
516 1 17.5348 6.44802 14.754
517 2 16.999 6.68654 13.8238
518 2 18.2586 5.64389 14.5088
519 2 16.7566 6.01644 15.4181
520 1 19.5213 8.62794 14.8946
521 2 19.0927 8.90378 13.921
522 2 19.9433 9.50491 15.3755
523 2 20.3809 8.05524 14.5403
ITEM: TIMESTEP
15000
ITEM: NUMBER OF ATOMS
523
ITEM: BOX BOUNDS pp pp pp
1.0081575972775347e-01 2.1899184240272355e+01
8.7434589337224367e-02 1.8992528410662736e+01
9.1650690661479572e-02 1.9908349309338476e+01
ITEM: ATOMS id type x y z
1 4 7.28023 3.51367 1.92114
2 3 7.76759 4.61382 2.92804
3 1 18.9084 4.55921 6.79038
4 2 21.6617 17.3858 18.6997
5 2 3.15424 13.8803 1.88198
6 2 18.4197 5.66595 6.40377
7 1 21.0886 7.19423 5.65943
8 2 14.7734 3.51592 2.63141
9 2 15.6524 6.28087 8.17791
10 2 0.0940612 7.15323 5.23776
11 4 8.54164 6.2328 2.69667
12 3 8.39515 6.21553 1.09094
13 1 7.39344 7.81516 3.28338
14 2 3.28664 6.7993 2.87214
15 2 6.32407 7.63727 3.48111
16 2 7.49234 8.51925 2.42529
17 1 8.06878 8.21938 4.54816
18 2 17.809 11.5972 7.01319
19 2 18.6124 4.13016 17.4866
20 2 17.3851 1.95705 12.4021
21 4 7.34817 5.58803 19.6741
22 3 6.91801 3.96161 0.433908
23 1 8.1132 5.0219 18.0581
24 2 7.42697 4.26248 17.6354
25 2 8.05114 5.86155 17.2743
26 2 9.01066 4.54227 18.2726
27 1 5.9334 6.60354 18.9847
28 2 5.43833 5.65113 18.5014
29 2 5.06157 6.69981 19.7268
30 2 5.78022 7.29002 18.0634
31 4 6.63881 1.81327 3.43378
32 3 5.56306 0.466589 3.39849
33 1 14.6181 18.185 10.7482
34 2 15.4321 16.0313 9.60483
35 2 13.297 17.8261 1.79951
36 2 2.75199 0.737798 7.86917
37 1 7.87039 1.7912 2.15858
38 2 15.8142 3.75579 0.48643
39 2 17.3699 6.84507 4.1111
40 2 8.88906 2.10227 2.24002
41 4 2.82337 17.5491 4.98912
42 3 3.51158 18.9555 5.11966
43 1 4.09491 14.475 2.48275
44 2 20.075 6.97708 5.50188
45 2 4.52559 15.3056 1.8956
46 2 20.8475 12.7452 18.6176
47 1 13.5358 5.45442 5.60181
48 2 13.3065 4.39436 5.20279
49 2 14.3192 5.94307 4.93052
50 2 13.9533 5.38618 6.58752
51 4 3.80803 18.9127 3.30456
52 1 17.6125 16.842 0.873059
53 2 15.3334 0.878687 14.8806
54 2 4.16452 17.1346 3.23742
55 2 13.2109 0.90843 18.5793
56 1 9.27334 16.6837 3.69387
57 2 6.46553 16.9897 19.2199
58 2 17.5736 17.8614 18.2333
59 2 3.32291 15.0307 3.24723
60 4 13.326 15.4956 19.825
61 3 13.8856 4.70626 11.1302
62 1 5.34957 4.99295 5.28859
63 2 4.8417 4.41187 6.03673
64 2 5.69983 5.93979 5.74147
65 2 4.71921 5.22206 4.43844
66 1 14.9736 4.69216 11.567
67 2 12.0986 4.07237 9.11149
68 2 20.5499 7.10396 18.591
69 2 6.23601 4.49935 4.92282
70 4 18.7186 18.2487 0.623175
71 3 12.0805 15.6733 1.02117
72 1 14.7403 17.4935 2.32758
73 2 6.54471 1.42041 14.5413
74 2 9.60385 14.7143 3.9634
75 2 13.8806 1.43836 5.03768
76 1 18.0759 18.3146 18.7966
77 2 20.9313 4.7475 11.601
78 2 1.30116 3.55317 15.8549
79 2 21.3305 5.79005 13.0454
80 4 10.599 15.1776 1.58326
81 3 10.863 13.3923 1.76484
82 1 15.6887 14.104 4.48863
83 2 15.6894 13.113 4.54982
84 2 15.0835 14.3741 3.57111
85 2 16.5338 14.4243 4.75231
86 1 8.54451 17.3656 4.5485
87 2 0.352401 4.98876 19.6831
88 2 8.55694 18.5137 4.702
89 2 9.18503 2.25993 15.1523
90 4 11.903 12.4053 2.63013
91 3 10.9552 11.4375 3.6606
92 1 12.4046 13.4206 4.04561
93 2 11.5646 13.7528 4.71009
94 2 13.1901 12.9142 4.61319
95 2 13.0018 14.3789 3.81117
96 1 13.0573 10.8677 2.18957
97 2 14.7867 0.292885 11.8212
98 2 14.6808 14.1015 5.18871
99 4 12.0627 10.2062 3.76325
100 3 10.9187 8.99114 3.87798
101 1 1.00925 5.42589 18.5036
102 2 1.99899 5.68872 18.4476
103 2 0.574611 6.48441 19.1351
104 2 0.586199 5.08096 17.5877
105 1 13.0092 10.364 5.26311
106 2 12.8916 9.46945 5.82693
107 2 14.0753 10.4542 5.05469
108 2 12.7757 11.1558 5.92074
109 4 9.86642 7.78742 4.21056
110 1 10.203 6.48681 2.9887
111 2 10.757 5.25488 3.37655
112 2 3.20235 5.99789 3.43203
113 2 7.54705 8.32579 5.48724
114 1 6.19449 0.89084 15.3842
115 2 7.19771 0.235649 15.5536
116 2 6.09214 1.57532 16.2022
117 2 5.20762 0.320226 15.007
118 4 1.08983 9.27675 1.42075
119 3 21.7204 9.95754 2.6701
120 1 18.8284 13.1032 16.6427
121 2 4.16087 10.5287 0.852766
122 2 19.721 0.851659 18.7755
123 2 10.2076 17.2039 15.9262
124 1 2.95307 9.69931 1.26159
125 2 1.95828 18.1123 10.5917
126 2 0.203757 6.2762 5.64465
127 2 20.3989 18.1096 12.717
128 4 20.5328 10.8051 3.26278
129 3 18.9723 10.0467 2.62602
130 1 19.1913 11.7923 16.4814
131 2 19.3159 11.129 17.4093
132 2 1.87718 10.3032 18.3871
133 2 18.8387 11.3127 15.5546
134 1 7.09762 2.48411 5.16162
135 2 15.0741 18.239 6.92838
136 2 8.39378 1.96478 13.575
137 2 7.4756 3.49009 5.47269
138 4 17.6739 9.1499 3.10438
139 3 16.9291 9.12435 1.61764
140 1 18.0849 7.38373 3.5902
141 2 19.047 7.26084 4.06864
142 2 18.0328 6.7613 2.63272
143 2 13.3732 12.4248 17.5407
144 1 16.5012 9.80952 4.53812
145 2 17.1706 10.2405 5.33991
146 2 15.763 10.5802 4.34913
147 2 15.8613 8.94901 4.95342
148 4 15.9663 9.10819 0.258191
149 3 15.6144 7.64488 19.773
150 1 14.012 10.7996 1.27952
151 2 1.32092 5.30858 7.4809
152 2 16.9409 12.4549 18.7799
153 1 14.5935 10.3564 0.0981161
154 2 18.4154 13.5766 15.7309
155 2 14.351 6.74517 14.7736
156 2 20.6655 12.2139 2.72342
157 4 16.1504 6.01459 19.2207
158 3 17.0217 6.18152 17.7994
159 1 14.6767 5.28194 18.2409
160 2 14.802 5.95332 17.3982
161 2 14.467 4.16158 18.1621
162 2 13.8101 5.51872 18.7275
163 1 16.1934 4.91553 0.664428
164 2 16.36 5.33523 1.63415
165 2 16.9771 14.728 15.3336
166 2 17.3652 12.5967 17.8473
167 4 18.522 6.46168 17.6011
168 1 19.414 4.78865 17.5942
169 2 5.98753 16.7719 19.7778
170 2 20.018 4.68846 16.6885
171 2 19.7041 4.44954 18.6232
172 1 19.5011 7.63679 18.8725
173 2 19.5363 7.71528 0.122979
174 2 19.9155 8.76025 18.5872
175 2 13.192 1.72531 4.67938
176 4 2.02413 16.2571 8.4493
177 3 2.39735 14.8716 9.12809
178 1 3.19602 16.5587 6.4293
179 2 18.3726 14.7517 4.56983
180 2 14.5137 2.95561 3.13026
181 2 10.6594 16.7976 16.2035
182 1 18.7807 15.7952 4.03782
183 2 19.3733 15.6832 3.21673
184 2 18.0082 16.5116 3.91258
185 2 19.4368 15.8969 4.92691
186 4 3.86318 13.6912 8.90418
187 3 3.128 12.4419 8.10402
188 1 4.22681 12.6862 10.363
189 2 3.38511 11.9517 10.5449
190 2 5.02043 12.0251 9.95915
191 2 4.61606 13.2389 11.2387
192 1 5.46775 14.0337 8.05097
193 2 5.92013 14.9989 8.03882
194 2 6.1427 13.2412 8.39847
195 2 5.2076 13.9114 6.96731
196 4 1.82057 11.805 7.10662
197 3 2.21412 10.2309 6.94394
198 1 1.81498 12.7645 5.53438
199 2 2.51766 12.2234 4.72355
200 2 0.959984 12.6706 4.94886
201 2 2.19541 13.8534 5.38537
202 1 21.7811 11.6249 7.27061
203 2 21.1121 12.7779 7.00822
204 2 21.3328 11.1627 6.48311
205 2 21.6079 11.164 8.21807
206 4 3.65634 9.41449 6.98348
207 3 4.61504 9.42483 8.38389
208 1 3.28585 7.47092 7.452
209 2 3.93439 6.7039 7.00063
210 2 2.25682 7.11068 7.2476
211 2 18.8382 4.03246 11.4916
212 1 4.59726 9.51564 5.3244
213 2 3.8733 9.54766 4.49371
214 2 5.36753 10.2842 5.32999
215 2 5.32089 8.67364 5.2063
216 4 3.78125 8.06957 9.16361
217 3 5.03312 7.85657 10.3605
218 1 2.46019 8.58053 10.4126
219 2 1.58967 9.1175 9.9889
220 2 2.08501 7.76046 11.0148
221 2 3.02334 9.26324 11.0864
222 1 3.34063 1.74818 8.03618
223 2 2.73361 2.38086 7.43914
224 2 4.34163 1.70481 7.79759
225 2 3.34322 2.07574 9.08268
226 4 5.50186 6.58076 11.1481
227 1 5.53254 5.12909 9.91719
228 2 6.03892 5.27358 8.95084
229 2 5.8748 4.27435 10.5315
230 2 4.45837 4.91157 9.73601
231 1 7.18346 6.73174 11.9801
232 2 7.94067 6.70499 11.1723
233 2 7.22538 7.75938 12.404
234 4 7.7344 17.8143 9.89273
235 3 8.93639 16.6508 9.38329
236 1 8.55127 0.354097 10.4015
237 2 7.80366 1.15972 10.1818
238 2 9.45826 0.21649 10.0356
239 2 16.9607 4.80819 9.63538
240 1 6.90388 1.76493 6.33548
241 2 15.304 17.1923 3.36343
242 2 6.92288 0.67798 6.7228
243 2 6.90812 2.43639 7.32895
244 4 9.46673 15.5026 10.4189
245 3 10.1251 14.4524 9.39471
246 1 10.9144 16.0406 11.4411
247 2 10.8081 16.0465 12.5425
248 2 11.702 15.2131 11.3766
249 2 11.3561 17.009 11.0851
250 1 7.81492 14.8562 11.3442
251 2 8.02119 14.1434 12.1626
252 2 7.0877 15.6465 11.7469
253 2 7.13489 14.3124 10.6698
254 4 10.7549 13.5892 8.1483
255 3 10.3969 11.965 8.33341
256 1 12.5759 13.5139 7.98335
257 2 13.0444 12.5333 8.07104
258 2 12.9323 13.8573 6.99458
259 2 13.1185 14.1414 8.7157
260 1 9.87761 14.381 6.70852
261 2 9.29888 15.1377 7.19328
262 2 10.5611 14.8754 6.03101
263 2 9.26251 13.7419 6.11016
264 4 9.10904 11.0078 8.60444
265 3 9.77671 9.52487 9.12676
266 1 8.10239 10.7827 7.04643
267 2 7.74002 9.75168 7.02385
268 2 7.30401 11.5408 6.96198
269 2 8.78272 10.9529 6.19433
270 1 8.01471 11.5538 9.94278
271 2 7.52871 12.4927 9.67977
272 2 7.28768 10.7314 10.0605
273 2 8.52197 11.6968 10.913
274 4 10.7859 8.25368 8.76488
275 3 10.4309 7.62042 7.34313
276 1 10.2795 6.8827 10.0036
277 2 11.0871 6.14329 10.1856
278 2 10.1157 7.37238 10.9781
279 2 9.42875 6.29191 9.60476
280 1 12.59 8.90598 8.77274
281 2 12.7515 9.55603 7.89785
282 2 12.6468 9.50797 9.69362
283 2 13.4754 8.24261 8.84234
284 4 10.5391 6.51219 6.11736
285 1 12.3491 6.32556 5.45849
286 2 12.0746 6.4749 4.42898
287 2 12.6768 7.33347 5.70316
288 1 9.19307 5.15098 6.24716
289 2 8.44201 5.347 5.44012
290 2 9.6325 4.18235 5.99697
291 2 8.63368 5.27123 7.22199
292 4 20.2608 6.56677 9.61474
293 3 18.6144 5.76152 9.53365
294 1 19.7177 8.23245 9.05362
295 2 20.0954 9.08847 9.77172
296 2 20.4961 8.26047 8.24287
297 2 18.7534 8.40614 8.51829
298 1 19 3.86937 5.44687
299 2 12.706 0.595015 18.495
300 2 2.92937 17.149 9.21288
301 2 21.8434 2.69883 3.98538
302 4 19.5094 4.35307 8.52581
303 3 18.9801 2.82526 8.62074
304 1 21.1385 3.58721 4.13833
305 2 13.8135 18.341 10.0933
306 2 2.0769 16.9825 18.4091
307 2 4.33743 0.2747 18.0363
308 1 15.3593 16.8993 10.5554
309 2 2.65524 10.1936 18.6239
310 2 16.0437 16.9693 11.4655
311 2 17.4711 16.0871 1.53377
312 4 18.1568 2.00636 7.27124
313 3 16.803 2.51412 6.55943
314 1 19.5695 1.12521 6.63628
315 2 20.1923 0.481444 7.62697
316 2 19.5048 0.671528 5.65155
317 2 20.3301 1.84778 6.54601
318 1 17.6977 0.489615 8.73685
319 2 16.7356 18.8383 8.56031
320 2 18.835 0.538015 9.2091
321 2 17.3682 1.18971 9.63152
322 4 17.1101 2.93361 4.60103
323 3 16.9613 1.77212 3.44347
324 1 20.125 3.79607 4.81385
325 2 21.0917 17.0355 4.78267
326 2 3.76344 18.8652 18.1595
327 2 16.2271 4.21602 4.65517
328 1 0.245325 16.7019 4.58424
329 2 21.544 14.5123 1.38547
330 2 1.68149 14.5876 14.886
331 2 0.8111 3.64684 15.3147
332 4 17.5632 0.889956 1.7457
333 3 16.1897 0.395608 0.623555
334 1 7.84559 0.761872 0.68532
335 2 7.82408 1.09022 19.4797
336 2 9.01406 0.763483 0.934598
337 2 7.41376 18.7161 0.99468
338 1 18.4743 2.19237 1.00573
339 2 19.1761 2.46604 1.84552
340 2 19.0414 2.21445 19.8538
341 2 18.2164 3.32517 1.17102
342 4 16.0049 17.5551 1.06514
343 1 2.37769 16.4076 0.218466
344 2 2.25497 15.849 0.933245
345 2 0.752449 15.6656 17.3536
346 2 21.6479 10.0083 19.8741
347 1 9.7989 15.5954 3.18779
348 2 7.53433 17.2117 5.01642
349 2 15.3311 17.1985 0.171405
350 2 11.9213 4.00618 8.4225
351 4 21.8766 15.6645 18.9038
352 3 20.4013 15.1039 18.1331
353 1 20.9503 6.68865 11.3313
354 2 0.794423 14.4126 2.17565
355 2 2.06623 17.4373 0.483084
356 2 18.0431 4.23364 10.9874
357 1 21.0751 5.68652 12.0862
358 2 16.2808 6.25162 7.97815
359 2 19.4005 13.474 6.84745
360 2 20.6748 11.0184 4.75993
361 4 20.3774 13.7485 17.3813
362 3 21.7103 13.3445 16.2954
363 1 20.1571 17.8424 11.6922
364 2 20.2465 18.7187 10.8529
365 2 20.3207 16.8321 11.2436
366 2 19.0083 17.7937 11.705
367 1 18.9662 0.547599 18.4326
368 2 0.595666 16.4669 8.23357
369 2 3.18303 8.69558 0.96157
370 2 4.27526 16.8378 6.3577
371 4 1.48377 13.2765 15.9697
372 3 1.80717 11.7541 15.4766
373 1 1.37855 16.9971 3.79107
374 2 16.3413 4.24729 9.98992
375 2 0.53317 15.9584 5.4417
376 2 1.13544 17.8626 2.99026
377 1 2.85999 13.6706 17.4708
378 2 3.51705 14.2726 16.7853
379 2 2.35612 14.0375 18.4077
380 2 3.44719 12.7768 17.5942
381 4 2.42506 11.2022 14.0113
382 3 2.85543 9.59575 13.8747
383 1 4.04215 11.9643 13.742
384 2 4.51874 11.5496 12.8509
385 2 4.02921 13.0639 13.6928
386 2 4.65976 11.6193 14.5684
387 1 1.15971 11.3319 12.781
388 2 1.46591 11.2745 11.6816
389 2 0.507472 10.5675 12.6983
390 2 0.611886 12.2992 12.8873
391 4 2.92642 8.18274 14.8139
392 3 3.2023 6.82789 13.8269
393 1 4.29748 8.56911 16.0462
394 2 4.96176 7.70613 16.2014
395 2 5.00537 9.35709 15.7179
396 2 3.80619 8.78552 17.0238
397 1 1.56205 7.38895 15.8853
398 2 0.888837 8.10075 16.3668
399 2 0.902213 6.8188 15.2045
400 2 2.09487 6.71759 16.5288
401 4 4.11054 5.7752 12.8375
402 1 2.88221 4.57471 12.1164
403 2 3.20658 3.899 11.3068
404 2 2.51596 3.83231 12.9206
405 2 2.002 5.14076 11.7833
406 1 5.10146 4.74598 14.1788
407 2 5.25011 3.72805 13.7942
408 2 4.26549 4.70854 14.9252
409 4 11.0583 12.0849 17.1136
410 3 10.9413 12.1443 18.806
411 1 9.28415 1.98436 14.2212
412 2 14.7851 1.54236 15.0709
413 2 14.3706 9.75196 18.7737
414 2 1.37479 18.7338 10.9336
415 1 10.1186 1.71254 13.1814
416 2 9.98695 1.29229 12.1299
417 2 19.2201 0.358029 16.875
418 2 21.0297 7.67386 11.7088
419 4 10.0687 12.7748 0.311377
420 3 9.73905 12.5347 16.257
421 1 9.42394 11.2403 1.16418
422 2 8.55421 10.8377 0.543242
423 2 10.116 10.2395 1.55304
424 2 8.70205 11.6228 2.0749
425 1 9.6663 14.5143 19.8092
426 2 8.98014 14.9338 19.1501
427 2 4.63844 13.6323 2.92457
428 2 10.5138 14.0216 19.0106
429 4 8.50378 11.8141 15.4221
430 3 8.98403 10.2383 15.1508
431 1 8.20282 12.8096 13.9663
432 2 7.86614 13.8544 14.1587
433 2 9.04212 12.7448 13.2539
434 2 7.34899 12.549 13.3252
435 1 6.96761 11.6239 16.4829
436 2 6.45836 10.6888 16.3477
437 2 7.27027 11.5993 17.5301
438 2 6.38143 12.538 16.3035
439 4 10.4809 9.66654 14.9912
440 3 10.5299 8.00807 14.6638
441 1 11.3344 10.2311 16.5596
442 2 10.9446 9.67893 17.3848
443 2 0.805826 4.79442 7.10167
444 2 12.4227 10.0463 16.44
445 1 11.5424 10.2878 13.5119
446 2 10.8574 9.86495 12.7472
447 2 11.5355 11.384 13.4972
448 4 10.6037 6.342 14.6911
449 3 9.11599 5.52965 14.3482
450 1 11.439 5.9881 16.3171
451 2 12.4375 5.60302 16.1609
452 2 11.549 6.90709 16.8991
453 2 10.8283 5.28253 16.9278
454 1 11.7392 5.92967 13.2557
455 2 11.4039 6.52323 12.3992
456 2 12.7375 6.33738 13.4524
457 2 11.762 4.86988 12.9896
458 4 7.64683 5.46962 13.3785
459 1 6.35951 5.2759 14.8654
460 2 6.08247 6.21612 15.4079
461 2 6.80837 4.54938 15.5428
462 1 7.63895 3.89863 12.3766
463 2 6.98847 3.07646 12.7527
464 2 7.1953 4.29516 11.4452
465 2 8.62301 3.44193 12.1217
466 4 18.3006 12.9014 7.68089
467 3 18.7533 12.5473 9.34422
468 1 17.091 14.1782 8.4247
469 2 16.0025 14.0061 8.22284
470 2 17.4458 15.1964 8.26954
471 2 17.2838 2.23827 13.0166
472 1 12.7249 13.0141 16.9406
473 2 12.6765 13.9262 17.3879
474 2 13.145 12.7723 15.9281
475 2 16.6442 15.2382 14.9642
476 4 17.7501 13.6806 10.1565
477 3 16.7579 12.8437 11.1747
478 1 18.5808 14.934 11.201
479 2 18.3927 14.7705 12.2693
480 2 19.64 15.1221 11.1425
481 2 18.0873 15.838 10.887
482 1 14.5109 18.2847 6.03418
483 2 13.4184 18.671 6.15494
484 2 14.5023 17.3624 5.5101
485 2 14.9662 0.210756 5.41772
486 4 15.1556 12.8292 11.841
487 3 14.8115 11.6568 12.8832
488 1 14.9529 14.3985 12.8375
489 2 14.7332 15.2815 12.1583
490 2 14.1425 14.4113 13.567
491 2 15.9037 14.6096 13.3329
492 1 14.0282 12.6379 10.4451
493 2 14.5978 12.5239 9.53953
494 2 13.3271 11.8026 10.4947
495 2 13.4215 13.5655 10.4771
496 4 14.4165 10.0467 13.0217
497 3 15.4625 9.44268 14.1947
498 1 12.7186 9.57052 13.3494
499 2 12.4586 8.54076 13.056
500 2 14.3887 7.53497 14.8244
501 1 15.1187 8.96313 11.6088
502 2 16.2017 8.95737 11.5247
503 2 14.7826 7.90986 11.7417
504 2 14.7665 9.23041 10.608
505 4 16.7121 10.0841 14.8969
506 3 17.4307 8.8217 15.5957
507 1 17.7468 11.1306 13.7681
508 2 17.3073 12.1176 14.0238
509 2 18.8952 11.1661 13.7415
510 2 17.5336 10.9776 12.7137
511 1 15.9613 11.2667 16.154
512 2 15.1571 11.7887 15.5066
513 2 15.446 10.9637 17.0398
514 2 16.6608 12.0633 16.4585
515 4 18.4937 7.5735 15.5303
516 1 17.8194 5.92094 14.7964
517 2 17.121 6.22394 14.0173
518 2 18.6383 5.31217 14.3885
519 2 17.2549 5.35491 15.5633
520 1 20.1036 7.92189 14.6366
521 2 20.3781 8.89909 14.2617
522 2 20.7302 7.80284 15.5453
523 2 20.2638 7.1164 13.9229
ITEM: TIMESTEP
15500
ITEM: NUMBER OF ATOMS
523
ITEM: BOX BOUNDS pp pp pp
9.8247858905169849e-02 2.1901752141094924e+01
8.5207523306227273e-02 1.8994755476693758e+01
8.9316235368237074e-02 1.9910683764631742e+01
ITEM: ATOMS id type x y z
1 4 7.78272 3.27048 1.88201
2 3 8.88347 4.27699 2.67048
3 1 17.6022 4.91741 5.65818
4 2 20.4582 0.257413 18.8795
5 2 3.37481 13.7179 2.12304
6 2 18.0378 5.91493 5.4908
7 1 0.175446 7.00474 8.4188
8 2 10.7883 0.985588 16.5426
9 2 15.15 11.2226 8.12398
10 2 1.58691 3.66724 4.73504
11 4 8.89375 5.76222 1.97275
12 3 8.51888 5.66645 0.378578
13 1 7.27438 6.59039 3.08192
14 2 0.556017 1.92192 12.7384
15 2 6.72495 5.75901 3.60877
16 2 6.58153 6.92346 2.13169
17 1 7.78197 7.6765 4.07314
18 2 18.7034 11.87 7.99794
19 2 19.5894 4.0848 18.1604
20 2 15.1922 1.61071 15.2358
21 4 6.97889 5.22388 19.6643
22 3 6.71766 4.30402 1.3422
23 1 7.18605 3.97676 18.1715
24 2 6.27097 4.30534 17.5561
25 2 7.99404 3.6617 17.5357
26 2 6.48731 3.23784 18.528
27 1 5.75533 6.4161 19.2044
28 2 5.78417 6.20416 18.215
29 2 4.75824 6.1557 19.5838
30 2 6.39052 7.34325 19.2594
31 4 6.03691 1.5513 3.08029
32 3 4.42264 1.86675 3.77623
33 1 14.3054 17.2466 11.8376
34 2 13.9794 18.5858 9.84699
35 2 14.0178 18.0675 19.9423
36 2 3.66102 2.1992 8.0338
37 1 8.20846 1.57451 1.56994
38 2 15.4617 5.65042 2.54494
39 2 19.8716 7.72997 1.34375
40 2 8.45411 0.942056 2.42114
41 4 3.40542 16.8936 4.82769
42 3 4.25002 17.8322 3.59585
43 1 3.8158 14.2818 1.39716
44 2 20.804 7.2508 7.46267
45 2 4.83341 14.5725 1.47715
46 2 1.07236 12.3864 0.403563
47 1 13.7842 5.57952 5.09075
48 2 14.8513 5.57993 4.79484
49 2 13.5911 4.83139 5.84421
50 2 13.5307 5.11809 4.12551
51 4 3.77281 0.32627 3.5822
52 1 16.3385 17.2468 19.1003
53 2 18.2141 14.1589 15.6135
54 2 4.16504 15.7769 4.94689
55 2 17.2347 15.158 19.1536
56 1 9.95854 17.0279 2.54093
57 2 5.61433 17.4138 18.2588
58 2 0.754445 17.6837 19.0553
59 2 3.58963 13.9637 0.293859
60 4 13.1897 16.8602 19.9127
61 3 14.7539 4.76544 13.0552
62 1 6.36408 5.4581 6.22767
63 2 5.66575 6.06783 5.61594
64 2 6.99641 6.13099 6.88734
65 2 6.9648 4.82275 5.56468
66 1 14.0629 5.35081 12.4221
67 2 11.1442 3.60742 3.1832
68 2 18.1644 8.49116 18.1062
69 2 5.83137 4.67525 6.81206
70 4 18.1926 16.6326 19.3872
71 3 12.5669 15.6759 0.850097
72 1 14.1454 18.6447 1.44354
73 2 6.37759 1.07051 15.7431
74 2 8.65524 15.7096 1.57797
75 2 17.1049 2.33836 10.6575
76 1 21.5333 18.1764 19.004
77 2 18.4935 4.15937 10.8349
78 2 19.1247 0.306288 13.9315
79 2 19.4168 4.97054 12.1461
80 4 11.0072 15.0503 0.975946
81 3 11.1117 13.4934 1.54676
82 1 16.8585 12.8476 4.73842
83 2 15.9812 12.0903 5.19615
84 2 17.1697 12.8661 3.72208
85 2 17.4693 12.6379 5.56045
86 1 10.0201 18.0588 3.46245
87 2 0.421027 9.4717 1.35958
88 2 9.19533 18.4982 3.96408
89 2 12.78 18.8953 12.9896
90 4 11.9245 12.239 2.67247
91 3 10.802 12.0585 3.84301
92 1 13.5329 13.1548 2.80476
93 2 13.2887 13.9756 3.55824
94 2 14.3221 12.5013 3.2168
95 2 13.7839 13.4788 1.73184
96 1 12.2568 10.5045 2.38946
97 2 13.8485 16.5569 17.9422
98 2 16.48 13.9045 5.02716
99 4 11.5106 10.4332 4.07978
100 3 10.3555 9.50205 4.39031
101 1 0.770451 3.81906 0.73183
102 2 2.03297 18.3669 1.32756
103 2 0.59452 4.54792 1.47594
104 2 1.50286 18.3984 1.57146
105 1 12.7186 10.7605 5.35535
106 2 13.3666 11.5688 4.90615
107 2 12.2108 11.1303 6.3338
108 2 13.3952 9.86474 5.48476
109 4 9.7591 7.90967 4.16398
110 1 9.96601 7.31418 2.39227
111 2 9.61076 8.2509 1.22248
112 2 21.7617 2.19257 12.3007
113 2 7.30346 7.71565 5.07162
114 1 5.33442 1.305 15.9527
115 2 5.34707 2.29108 15.4522
116 2 4.80065 0.619097 15.2237
117 2 5.18705 0.855178 17.0436
118 4 1.23059 9.36317 2.3783
119 3 0.498431 10.0422 3.66156
120 1 21.1163 13.1424 18.1124
121 2 2.23939 8.3096 3.89271
122 2 13.3365 7.91736 16.1292
123 2 9.71644 15.2888 14.7001
124 1 2.82863 9.00482 2.71627
125 2 7.34069 16.2626 13.8023
126 2 2.20954 3.55812 5.06569
127 2 21.1558 17.1533 11.8549
128 4 21.0563 10.3906 4.65422
129 3 19.4879 10.2538 4.22474
130 1 21.1599 11.6586 17.6938
131 2 20.3353 11.1091 16.8884
132 2 5.22251 11.8358 17.8001
133 2 0.28708 11.3523 17.254
134 1 7.04021 1.93177 4.51741
135 2 14.9076 14.7409 6.59379
136 2 11.5969 17.9353 14.3571
137 2 7.87969 2.45177 4.16551
138 4 18.9067 9.88532 2.6427
139 3 19.0779 11.0816 1.33613
140 1 19.3062 8.02471 2.3321
141 2 18.3403 7.57858 2.39065
142 2 19.6898 7.56935 3.2397
143 2 12.835 13.7289 17.6837
144 1 17.0324 9.87139 2.90559
145 2 16.4947 9.9525 3.85805
146 2 16.6935 10.6081 2.19016
147 2 16.7655 8.89902 2.42967
148 4 15.0082 9.06087 19.7197
149 3 14.8311 7.42111 19.1486
150 1 12.8899 9.92599 1.45083
151 2 1.70433 6.59129 8.04106
152 2 13.7465 12.2628 18.6559
153 1 13.121 9.7066 0.173675
154 2 20.11 14.1115 17.9985
155 2 14.4231 9.09396 17.6247
156 2 20.9054 11.7473 5.03776
157 4 15.3352 5.70924 19.3452
158 3 16.2912 5.4902 18.1107
159 1 13.5597 5.01216 18.6052
160 2 13.5997 5.01468 17.5666
161 2 13.3841 3.91693 18.751
162 2 12.6621 5.64127 18.9742
163 1 15.1678 5.1534 1.49051
164 2 14.9186 4.27441 1.96606
165 2 1.40105 16.0964 17.0748
166 2 13.8427 11.4718 18.1287
167 4 17.9246 6.07583 17.4729
168 1 19.5263 4.94927 17.5963
169 2 5.31951 17.332 18.9381
170 2 19.7011 4.90265 16.485
171 2 20.4663 5.35041 18.0656
172 1 18.2885 7.53387 18.6509
173 2 19.3409 7.00562 18.8792
174 2 17.4954 7.26746 19.2641
175 2 17.7371 2.35294 10.3951
176 4 2.03501 16.5966 7.55864
177 3 2.79787 15.858 8.78027
178 1 2.71214 17.7223 6.40023
179 2 16.7785 15.4492 5.06344
180 2 10.9861 0.839491 17.195
181 2 9.00019 15.6065 15.405
182 1 17.0736 16.4295 5.45754
183 2 18.0167 16.6955 4.89156
184 2 16.3414 17.1074 5.0041
185 2 17.1823 16.1698 6.51202
186 4 4.2357 15.0122 8.95812
187 3 4.13324 14.0741 7.53547
188 1 4.47608 13.5987 10.2912
189 2 3.61959 13.5889 11.0413
190 2 4.18782 12.7648 9.6131
191 2 5.42365 13.2379 10.7058
192 1 5.46745 16.2476 8.88884
193 2 5.35851 16.6183 9.89833
194 2 6.40742 15.821 8.63936
195 2 5.23084 16.9568 8.1346
196 4 3.28655 12.643 7.18593
197 3 4.31523 11.3199 7.52295
198 1 2.85082 12.6537 5.35246
199 2 3.60982 12.6693 4.60589
200 2 2.40486 11.6994 4.97209
201 2 2.23452 13.2983 4.80292
202 1 1.68659 12.1617 8.12323
203 2 2.08703 11.5303 8.9335
204 2 0.942545 13.0742 8.47199
205 2 1.01373 11.2589 7.93528
206 4 4.47865 9.72434 7.4796
207 3 5.25465 9.30201 8.90071
208 1 3.13738 8.48302 8.13439
209 2 3.43215 7.50688 7.80684
210 2 2.09177 8.678 8.21803
211 2 15.5916 17.1093 14.3063
212 1 5.19755 8.8758 6.00157
213 2 4.67036 7.90738 6.02585
214 2 5.14789 9.47255 5.08716
215 2 6.26972 8.62603 6.13642
216 4 4.04369 8.45113 9.84453
217 3 4.66201 6.92627 10.083
218 1 3.71622 9.41176 11.2949
219 2 3.69383 10.4669 10.929
220 2 2.76725 9.33195 11.8392
221 2 4.54466 9.17679 12.0156
222 1 2.92687 2.91826 7.44956
223 2 1.90487 2.47538 7.53914
224 2 3.21012 2.9607 6.43451
225 2 3.04883 3.98282 7.72505
226 4 5.06651 5.69586 11.098
227 1 5.31318 4.06509 10.0565
228 2 5.44389 4.2043 8.97923
229 2 6.15192 3.46988 10.4528
230 2 4.53491 3.27923 10.0757
231 1 6.71092 6.14854 11.8486
232 2 7.45742 5.83329 11.0915
233 2 6.76564 7.24502 11.9218
234 4 8.79719 18.9086 10.4736
235 3 9.17692 17.2812 10.4135
236 1 7.55976 0.305104 9.20365
237 2 6.49498 0.552732 9.40992
238 2 7.60979 1.39873 9.0436
239 2 13.5531 3.93805 9.10577
240 1 7.09114 1.63391 5.8061
241 2 12.8346 18.6471 1.95992
242 2 7.80748 1.2762 6.57139
243 2 6.12565 1.22533 6.04434
244 4 9.47132 15.5802 10.0852
245 3 8.95052 15.367 8.54592
246 1 11.3719 15.6103 10.1878
247 2 11.7734 16.1215 9.31066
248 2 11.6274 16.1889 11.0852
249 2 11.6114 14.5574 10.1186
250 1 8.30956 14.637 11.1996
251 2 8.63831 13.5861 11.3873
252 2 8.29656 15.2396 12.1542
253 2 7.27894 14.7419 10.8516
254 4 9.11577 14.3118 7.28417
255 3 9.22207 12.8067 8.16754
256 1 10.7035 14.6156 6.41013
257 2 10.7034 14.4431 5.33551
258 2 10.9399 15.6859 6.56812
259 2 11.374 13.9436 6.97848
260 1 7.60713 14.6763 6.03857
261 2 7.84836 14.0581 5.16324
262 2 6.60227 14.3656 6.3574
263 2 7.62611 15.7586 5.77674
264 4 8.35526 11.3521 7.87553
265 3 9.32685 10.0056 7.96945
266 1 7.70562 11.4244 6.15497
267 2 6.79899 11.9841 5.91893
268 2 8.51645 11.9691 5.63924
269 2 7.67592 10.4648 5.61674
270 1 7.44641 11.2201 9.56107
271 2 6.64272 11.9395 9.69315
272 2 7.01375 10.226 9.70531
273 2 8.16617 11.4581 10.3589
274 4 10.4266 8.8677 8.39988
275 3 11.1185 8.07501 7.07818
276 1 9.64569 7.39719 9.35529
277 2 10.4736 6.73602 9.62821
278 2 9.17884 7.78325 10.262
279 2 8.82108 6.84656 8.88561
280 1 11.7847 9.57153 9.53505
281 2 11.4795 10.5195 10.0192
282 2 11.7911 8.848 10.3744
283 2 12.7916 9.56205 9.09908
284 4 11.2158 6.95708 5.85264
285 1 13.1305 6.88023 5.41702
286 2 13.1426 7.67084 4.5899
287 2 13.5589 7.41512 6.27653
288 1 10.9139 5.05563 6.34936
289 2 10.8398 4.8849 7.43409
290 2 9.9548 4.70399 5.92147
291 2 11.6082 4.33576 5.85401
292 4 20.0035 6.79502 8.6622
293 3 19.4074 5.51821 7.71248
294 1 18.2354 7.70109 8.53767
295 2 17.7006 8.16244 7.68286
296 2 17.7508 6.92322 9.2475
297 2 18.4789 8.3065 9.39963
298 1 17.9024 4.18031 4.63597
299 2 13.3718 17.7524 1.99159
300 2 0.684273 17.3058 7.72351
301 2 20.7574 5.33954 2.57296
302 4 18.217 4.39098 7.44995
303 3 19.0992 2.85008 8.13445
304 1 20.189 4.77155 3.16887
305 2 13.6529 16.3004 11.7061
306 2 2.95162 18.7548 13.89
307 2 3.25551 16.6025 11.5331
308 1 13.7382 18.1217 10.9456
309 2 5.60246 12.2094 18.2433
310 2 13.1621 18.7711 11.4031
311 2 16.371 18.158 18.5752
312 4 19.0704 1.37516 7.01356
313 3 18.8687 1.57699 5.47859
314 1 21.1909 0.984772 7.47217
315 2 20.9526 1.10281 8.38148
316 2 21.3109 18.7795 7.21164
317 2 21.7008 1.70647 6.91069
318 1 17.6489 18.8894 7.53881
319 2 16.9803 18.3354 6.7318
320 2 18.2511 18.121 8.14792
321 2 16.9041 0.379754 8.19219
322 4 17.6576 2.43218 4.44176
323 3 17.5727 1.81301 2.86612
324 1 19.0121 4.42351 3.7663
325 2 0.257734 15.0054 3.52701
326 2 3.89481 17.1861 11.3655
327 2 16.3305 2.0265 4.77797
328 1 0.824317 15.796 4.28928
329 2 18.1875 13.9415 17.6856
330 2 1.77563 13.925 15.6012
331 2 18.8289 0.550156 14.4276
332 4 17.2936 2.56846 1.52929
333 3 16.408 1.6525 0.545081
334 1 7.799 1.02731 0.294282
335 2 8.70747 0.873625 19.3619
336 2 7.08659 0.251317 0.425068
337 2 7.53827 2.01142 19.5569
338 1 18.4065 3.70943 0.983208
339 2 19.0349 3.78664 19.8864
340 2 17.8943 4.70366 1.04829
341 2 18.8803 4.06755 1.81697
342 4 15.6713 18.618 0.830919
343 1 20.3405 18.0766 18.4568
344 2 19.843 13.0008 18.9634
345 2 2.9513 0.574659 13.9224
346 2 1.35282 4.55746 19.882
347 1 9.68866 15.8893 1.95046
348 2 10.8203 18.6772 3.91849
349 2 11.2542 7.79491 1.92885
350 2 11.8901 3.53654 2.94448
351 4 21.3502 15.1863 0.987755
352 3 0.884151 15.1017 19.7486
353 1 19.7681 6.28995 10.5924
354 2 15.3636 17.2326 0.104446
355 2 19.1962 18.0672 18.7105
356 2 16.0716 17.0895 15.0678
357 1 19.295 4.96418 11.189
358 2 15.0573 10.6769 8.51144
359 2 20.6806 12.5488 9.25394
360 2 21.3435 9.24557 5.67409
361 4 0.765806 13.7244 18.9191
362 3 2.04016 13.9132 18.0117
363 1 21.0106 16.9259 10.7618
364 2 21.9479 16.476 10.2181
365 2 20.3136 16.4206 10.0144
366 2 20.9628 17.8212 10.0836
367 1 18.1015 14.4762 18.743
368 2 1.43151 15.2424 7.17844
369 2 3.94639 8.69187 2.68609
370 2 3.70707 18.1165 6.78177
371 4 2.74663 13.6131 16.5827
372 3 2.68098 11.9998 16.2214
373 1 1.96687 16.2206 3.66435
374 2 13.3903 3.07034 9.08393
375 2 0.860814 15.9851 5.5585
376 2 2.20773 16.1023 2.62562
377 1 4.46341 14.3576 16.2344
378 2 4.7896 14.515 15.2169
379 2 4.37486 15.3855 16.661
380 2 5.42268 13.9278 16.6409
381 4 2.55444 11.0325 14.8348
382 3 2.4886 9.40391 14.5082
383 1 3.95845 11.7192 13.7709
384 2 4.0341 11.501 12.7115
385 2 3.89613 12.8099 13.9195
386 2 4.86973 11.4848 14.3412
387 1 0.944249 11.374 13.9348
388 2 1.212 11.019 12.999
389 2 0.190152 10.6008 14.1854
390 2 0.7208 12.393 14.0366
391 4 3.00929 7.89536 14.9121
392 3 3.57682 7.08369 13.588
393 1 4.54453 8.27226 15.9895
394 2 5.36894 8.33335 15.2752
395 2 4.5292 9.25106 16.4843
396 2 4.78092 7.41447 16.6289
397 1 1.68689 6.84692 15.6316
398 2 0.946838 6.48995 14.8821
399 2 2.03755 5.93403 16.1688
400 2 1.06753 7.42651 16.2764
401 4 3.68872 5.54231 13.0471
402 1 2.05108 4.85687 12.5468
403 2 2.15626 4.1242 11.7478
404 2 1.40646 4.41846 13.3149
405 2 1.46838 5.64558 12.1471
406 1 4.6667 4.26102 14.1475
407 2 4.95724 3.39837 13.5462
408 2 4.02067 3.86386 14.9709
409 4 10.5079 12.2093 17.2822
410 3 9.79249 12.0874 18.7469
411 1 11.7565 18.409 13.3664
412 2 17.537 14.2348 16.0026
413 2 18.1511 11.9314 1.45574
414 2 7.19472 16.9664 13.5444
415 1 10.7686 18.5781 12.4887
416 2 11.2167 18.1585 11.4993
417 2 13.6799 7.65284 15.4722
418 2 19.7012 7.35619 11.1563
419 4 9.4467 13.0464 19.8748
420 3 9.41567 12.5685 16.0708
421 1 8.06634 12.7022 1.48253
422 2 7.11603 13.3871 1.53158
423 2 7.81096 11.5271 1.65735
424 2 8.97346 12.7148 2.54027
425 1 9.58789 14.7817 19.0791
426 2 8.70091 15.4629 19.4249
427 2 3.38038 15.2344 1.57789
428 2 10.2644 14.8599 18.2207
429 4 8.36618 11.3276 15.3757
430 3 9.30199 10.2843 14.5098
431 1 7.23427 12.0592 14.0491
432 2 6.33747 12.5335 14.4454
433 2 7.84366 12.5748 13.3177
434 2 6.92096 11.1694 13.5108
435 1 7.39193 10.3839 16.7226
436 2 6.62162 10.9423 17.2079
437 2 6.82588 9.51215 16.2999
438 2 8.05142 9.87897 17.4565
439 4 10.563 9.52913 15.2249
440 3 10.0903 7.94073 15.2868
441 1 10.8697 10.3426 16.8686
442 2 10.4147 9.69619 17.666
443 2 21.53 7.66678 9.3182
444 2 11.9574 10.2953 17.0306
445 1 11.9305 10.2761 14.2008
446 2 11.3177 10.8505 13.4796
447 2 12.4029 11.089 14.7975
448 4 9.67095 6.32255 14.884
449 3 7.96879 6.22769 14.8936
450 1 10.3878 5.46033 16.4104
451 2 9.73425 5.64573 17.2699
452 2 10.6253 4.3802 16.4295
453 2 11.3147 6.0055 16.6887
454 1 10.4943 6.27538 13.1927
455 2 10.7648 5.26539 12.8126
456 2 9.75479 6.72951 12.5174
457 2 11.4584 6.80517 13.1717
458 4 7.29194 5.29625 13.4917
459 1 5.85423 4.96076 14.746
460 2 5.50832 5.92066 15.0821
461 2 6.21913 4.54978 15.7249
462 1 8.20724 3.73261 12.8761
463 2 8.16547 3.57886 11.7827
464 2 9.29179 3.75498 13.1678
465 2 7.79509 2.87233 13.4196
466 4 19.1384 12.5439 9.27857
467 3 18.5739 11.7277 10.653
468 1 18.3431 14.1407 9.77026
469 2 17.4795 14.4852 9.21135
470 2 19.1448 14.8944 9.81723
471 2 14.8548 1.33856 15.8831
472 1 11.832 13.5269 17.1758
473 2 11.416 14.545 16.9209
474 2 12.2767 13.2664 16.2328
475 2 0.688266 16.3261 16.6435
476 4 17.9055 13.2104 11.2648
477 3 16.3345 12.8807 11.4377
478 1 19.115 13.5969 12.6597
479 2 20.1257 13.3807 12.1994
480 2 19.0604 14.6953 12.7515
481 2 18.8951 13.0868 13.6199
482 1 14.6992 15.5401 7.26997
483 2 15.5786 15.9232 7.85549
484 2 14.083 15.1057 8.06435
485 2 14.0785 16.3913 6.93888
486 4 14.7468 12.9504 12.0603
487 3 14.2753 11.4529 12.4015
488 1 14.7149 13.8821 13.6283
489 2 14.2297 14.8816 13.5634
490 2 14.1242 13.185 14.2599
491 2 15.7083 13.9722 14.1047
492 1 13.9313 13.727 10.5098
493 2 13.1035 13.0706 10.2283
494 2 13.4674 14.705 10.6883
495 2 14.6457 13.7579 9.6471
496 4 14.2846 9.75403 12.6826
497 3 15.7577 9.31929 13.4548
498 1 12.8317 9.26586 13.6034
499 2 12.4262 8.25112 13.583
500 2 14.0493 9.22335 18.3261
501 1 14.7168 8.83355 11.0372
502 2 15.7881 8.67374 11.1453
503 2 14.1569 7.89392 11.2469
504 2 14.4275 9.24878 10.0752
505 4 16.8946 9.62251 14.5676
506 3 17.258 8.25537 15.4547
507 1 18.3193 10.2601 13.4018
508 2 18.966 10.7207 14.163
509 2 18.7961 9.48346 12.7718
510 2 17.9791 10.9449 12.6631
511 1 16.2005 10.7206 15.8905
512 2 16.7365 11.5879 16.155
513 2 15.1132 10.8335 15.8465
514 2 16.237 10.0225 16.71
515 4 17.995 6.76153 15.3025
516 1 17.2941 5.51712 14.1154
517 2 18.1132 5.09037 13.5328
518 2 16.8958 4.67094 14.6998
519 2 16.4775 5.8227 13.4498
520 1 19.7708 7.09995 14.9266
521 2 20.2487 7.84359 15.5516
522 2 20.3068 6.13253 15.0068
523 2 19.7147 7.33373 13.8194
ITEM: TIMESTEP
16000
ITEM: NUMBER OF ATOMS
523
ITEM: BOX BOUNDS pp pp pp
9.3539262741368034e-02 2.1906460737258705e+01
8.1123894188610990e-02 1.8998839105811296e+01
8.5035693401106727e-02 1.9914964306598883e+01
ITEM: ATOMS id type x y z
1 4 7.51969 3.64498 2.44145
2 3 8.57931 4.90078 2.56081
3 1 17.1003 5.17288 6.16165
4 2 20.4261 2.71811 17.5819
5 2 5.17219 12.4057 2.19565
6 2 16.757 6.28711 6.66697
7 1 20.7848 7.44614 9.52367
8 2 13.1133 16.8666 16.7645
9 2 16.3137 9.07123 6.13632
10 2 20.9806 17.3035 5.05128
11 4 8.10774 6.42172 2.16269
12 3 7.10886 6.7256 0.948013
13 1 7.24218 7.46946 3.54837
14 2 21.7445 2.6779 7.89001
15 2 6.49435 6.75712 4.11798
16 2 6.55884 8.16651 3.10199
17 1 8.37292 7.99729 4.41078
18 2 17.9827 11.4675 9.12269
19 2 20.2075 4.06082 17.9609
20 2 12.3395 2.89748 15.6717
21 4 5.99901 5.19768 0.211405
22 3 6.61264 3.89226 1.17176
23 1 6.8944 5.45317 18.3944
24 2 6.30492 6.25352 17.7221
25 2 7.95421 5.78021 18.5718
26 2 7.123 4.78652 17.4442
27 1 4.47167 5.831 0.601547
28 2 3.81771 6.82105 0.338503
29 2 4.07315 5.80947 19.4944
30 2 3.83519 4.85654 0.916701
31 4 7.07298 1.67291 3.85561
32 3 5.64524 0.783271 3.66593
33 1 14.6597 17.6874 10.8824
34 2 16.6562 17.6379 9.9983
35 2 0.780226 15.9813 3.58577
36 2 4.0071 1.33181 6.62134
37 1 8.03223 1.62019 2.42164
38 2 15.7513 4.0624 1.26997
39 2 19.4927 8.65202 0.638326
40 2 9.11594 1.81016 2.81345
41 4 3.01322 17.2959 4.73332
42 3 3.32093 18.7822 4.07618
43 1 5.85121 13.2142 2.2747
44 2 20.3093 8.25545 9.18636
45 2 5.21776 14.1271 1.88902
46 2 2.19991 11.7408 1.21626
47 1 13.4371 5.12575 5.14623
48 2 14.2703 4.74301 5.68482
49 2 12.6728 4.37643 5.44048
50 2 13.4218 4.92474 4.03442
51 4 4.00723 0.601952 2.70869
52 1 17.2348 16.8513 18.9955
53 2 21.4536 0.44568 14.3194
54 2 4.0116 16.2621 4.26153
55 2 20.9431 15.5023 1.45202
56 1 10.3829 16.8053 3.18579
57 2 3.8263 18.7961 19.7918
58 2 0.726771 0.484374 18.5416
59 2 6.23514 13.4683 3.17986
60 4 11.5674 17.5631 19.7152
61 3 13.4234 4.7771 12.1485
62 1 6.77476 4.47465 7.11877
63 2 5.94175 4.97673 6.58105
64 2 7.72063 4.77817 6.60192
65 2 6.54951 3.42196 7.06405
66 1 13.8037 4.49585 11.0893
67 2 12.8658 2.01467 6.38592
68 2 18.0545 8.09378 17.4657
69 2 6.76593 4.76399 8.18067
70 4 18.7661 15.8766 0.203343
71 3 11.4974 15.9374 0.282841
72 1 12.4998 0.325314 0.261592
73 2 6.03387 1.92731 16.3839
74 2 8.74054 15.8468 2.74764
75 2 15.1626 1.76851 7.20825
76 1 21.4844 1.24739 18.363
77 2 17.7243 3.53446 9.89359
78 2 0.741373 4.61916 8.82313
79 2 16.3752 3.94687 11.2089
80 4 10.5971 15.037 1.07345
81 3 11.4145 13.5307 0.643155
82 1 17.9247 13.4881 5.65958
83 2 17.5653 13.2323 6.57452
84 2 17.4973 13.951 4.75235
85 2 18.8843 12.854 5.48211
86 1 11.0164 17.9222 3.4518
87 2 2.3539 11.7495 2.00699
88 2 11.9632 18.2035 4.0465
89 2 9.36153 18.361 14.109
90 4 11.9739 12.6184 1.77589
91 3 10.7572 12.1341 2.8586
92 1 13.087 13.8882 2.54935
93 2 13.2836 14.5009 1.64727
94 2 12.6595 14.4293 3.43676
95 2 13.9975 13.5174 3.15971
96 1 12.5629 10.7585 1.72292
97 2 10.5329 17.771 18.7308
98 2 18.8117 14.4636 5.87678
99 4 11.6507 10.8194 3.31804
100 3 10.5842 9.67103 3.49404
101 1 1.57576 3.93135 1.01406
102 2 19.8578 18.2133 19.5823
103 2 1.79441 4.38389 19.8
104 2 3.50867 2.20095 3.02018
105 1 12.7123 10.8496 4.79889
106 2 13.3392 9.96305 4.88017
107 2 13.4292 11.6068 4.61524
108 2 12.1556 10.9718 5.72573
109 4 10.026 8.2144 3.67102
110 1 9.7841 7.40676 1.96199
111 2 9.90081 8.0161 1.09793
112 2 0.553911 1.9585 8.01537
113 2 8.42071 7.59425 5.42725
114 1 5.66928 2.30134 17.3994
115 2 4.85597 1.71348 18.0535
116 2 6.40046 2.66009 18.2164
117 2 5.07856 3.19129 17.2083
118 4 2.09704 10.7468 3.55669
119 3 1.11297 10.2056 4.64063
120 1 0.112427 10.9566 19.2173
121 2 2.00317 8.13635 3.26945
122 2 13.044 7.34553 15.3883
123 2 11.4574 15.3933 14.399
124 1 1.98795 9.02835 2.76817
125 2 10.7788 17.565 16.637
126 2 21.0971 17.2825 5.82749
127 2 1.04517 15.5582 12.8481
128 4 21.2989 10.1868 5.34153
129 3 20.5831 9.50355 4.14202
130 1 21.3041 12.0536 18.3561
131 2 20.3366 11.4177 17.67
132 2 3.80804 10.0792 19.4065
133 2 20.9389 12.7005 19.0715
134 1 7.93117 1.37124 5.40092
135 2 15.5472 16.3594 6.86933
136 2 9.27842 0.832226 14.0552
137 2 7.10389 1.12936 6.14877
138 4 19.8151 9.85945 2.83127
139 3 20.1205 11.457 2.79518
140 1 20.4343 9.04166 1.32432
141 2 21.094 8.2473 1.73467
142 2 21.191 9.63574 0.773184
143 2 11.8984 12.983 16.6206
144 1 18.0093 9.12318 2.91262
145 2 17.9066 8.00708 2.85058
146 2 17.367 9.54422 3.67674
147 2 17.5397 9.35858 1.92291
148 4 14.5844 7.28559 0.310756
149 3 14.5808 5.49653 0.209713
150 1 12.851 9.52527 1.20363
151 2 20.5154 13.6326 6.61886
152 2 20.6867 16.7784 16.5819
153 1 13.2809 8.48823 0.757661
154 2 21.5693 9.64208 15.7366
155 2 17.8423 12.5162 1.56621
156 2 20.1472 13.4043 7.3164
157 4 15.6552 4.46753 19.1968
158 3 16.8904 5.5609 18.4373
159 1 14.7125 3.45521 17.9436
160 2 14.8902 2.50982 18.3809
161 2 13.6155 3.45361 17.9063
162 2 14.9706 3.27262 16.8568
163 1 16.1386 3.29892 0.819062
164 2 15.5812 2.55264 1.33324
165 2 2.20567 2.43446 17.3335
166 2 20.5707 17.5178 16.8887
167 4 18.3124 5.77978 17.6575
168 1 19.1841 4.22891 18.1018
169 2 4.01771 18.917 19.0873
170 2 19.0319 3.92898 19.157
171 2 18.5448 3.40445 17.6178
172 1 18.7848 7.64148 18.099
173 2 19.7784 7.88801 17.8325
174 2 18.2871 7.5142 19.1154
175 2 15.0213 1.88043 7.88104
176 4 1.65553 16.8898 7.80528
177 3 2.83297 15.7532 8.16732
178 1 1.9207 17.712 6.22534
179 2 15.6612 16.629 4.65277
180 2 13.8612 16.8005 16.3346
181 2 11.5482 15.4571 13.4196
182 1 15.3201 17.5604 4.21961
183 2 15.9035 17.4997 3.24527
184 2 14.2548 17.4103 3.88791
185 2 15.4182 18.3289 4.98757
186 4 4.09271 15.3151 9.0295
187 3 4.15431 13.667 8.86089
188 1 3.80232 15.9218 10.8894
189 2 3.39318 14.9905 11.3797
190 2 4.75782 16.0944 11.4336
191 2 3.21505 16.8089 11.2296
192 1 5.36196 16.3583 8.41841
193 2 5.10661 16.9196 7.50345
194 2 5.73933 16.9886 9.23725
195 2 6.33741 15.8417 8.26516
196 4 3.76977 12.7302 7.69556
197 3 4.37422 11.1431 7.66368
198 1 4.62988 13.6404 6.1214
199 2 5.64609 13.3605 6.20517
200 2 4.21324 13.3889 5.15273
201 2 4.45816 14.7549 6.32363
202 1 1.84022 12.782 7.71121
203 2 1.33242 11.8412 7.8752
204 2 1.67964 13.7879 8.45982
205 2 1.40633 13.054 6.78389
206 4 4.11274 9.54541 7.47048
207 3 5.219 8.60443 8.36539
208 1 2.95092 9.22416 8.88603
209 2 2.07144 8.58196 8.76375
210 2 2.70334 10.1274 9.5078
211 2 16.9076 13.7753 17.8563
212 1 3.96951 8.85162 5.77589
213 2 3.31473 7.98104 5.853
214 2 3.49925 9.59548 5.13688
215 2 4.88276 8.56047 5.23938
216 4 4.35136 8.3016 9.74267
217 3 3.78821 6.7957 10.162
218 1 4.92567 9.30357 11.1847
219 2 4.2505 9.13235 12.0393
220 2 5.93113 9.21638 11.5668
221 2 4.79419 10.3669 10.9689
222 1 3.83595 2.3923 6.16083
223 2 2.8973 2.30217 5.50793
224 2 4.71855 2.76049 5.65939
225 2 3.65941 3.09678 7.01767
226 4 4.28458 5.86079 11.4241
227 1 4.11236 4.13226 10.6582
228 2 5.14901 3.81181 10.6291
229 2 3.48077 3.39986 11.1948
230 2 3.70972 4.21479 9.63307
231 1 6.08055 6.18934 11.8957
232 2 6.66957 6.14391 10.9607
233 2 6.19231 7.22299 12.25
234 4 9.04421 18.7033 10.7287
235 3 8.55773 17.6601 9.51324
236 1 7.48162 17.9716 11.9317
237 2 6.96969 16.9699 11.8753
238 2 7.14843 18.6728 12.5671
239 2 11.4863 1.98319 8.75605
240 1 9.27264 1.01512 5.47875
241 2 11.6828 1.19169 0.261607
242 2 9.8103 0.44021 6.16162
243 2 9.70239 1.03441 4.35236
244 4 9.0061 16.0511 9.60279
245 3 8.88486 15.3121 8.11447
246 1 10.7421 16.095 10.0932
247 2 11.3032 16.7886 9.4439
248 2 10.9491 16.3434 11.1392
249 2 11.1987 15.1073 10.0008
250 1 8.1131 14.968 10.7969
251 2 8.735 14.1066 11.0589
252 2 8.01094 15.535 11.7323
253 2 7.13652 14.6451 10.5198
254 4 9.3834 14.9256 6.63983
255 3 9.48494 13.2487 6.63699
256 1 10.9655 15.88 6.42817
257 2 11.3842 15.6802 5.44205
258 2 10.8586 16.9451 6.6845
259 2 11.8124 15.666 7.12639
260 1 8.28886 15.6411 5.37765
261 2 8.55213 15.1694 4.4038
262 2 7.21816 15.3798 5.46753
263 2 8.39513 16.7667 5.29992
264 4 8.89549 11.7583 6.95456
265 3 10.068 10.5893 7.26973
266 1 8.07333 10.9162 5.45895
267 2 7.02113 10.7496 5.69034
268 2 8.05604 11.5157 4.54778
269 2 8.65617 9.98774 5.36246
270 1 7.81645 11.9814 8.55276
271 2 7.55438 12.9892 8.88315
272 2 6.85693 11.4479 8.40868
273 2 8.35961 11.4064 9.34115
274 4 10.122 8.93008 7.63707
275 3 11.1618 8.15878 6.63589
276 1 8.50507 7.98189 7.99086
277 2 8.82099 6.94979 8.00954
278 2 8.14446 8.30247 8.96914
279 2 7.63089 8.11363 7.31941
280 1 10.7461 8.94048 9.47266
281 2 9.86199 9.10293 10.1139
282 2 11.1025 7.94749 9.78048
283 2 11.5133 9.66463 9.76995
284 4 11.1415 6.94018 5.48162
285 1 13.0311 6.60596 5.5049
286 2 13.4488 7.5216 5.01565
287 2 13.2083 6.83027 6.60584
288 1 10.1683 5.45945 6.14749
289 2 9.44721 5.82837 6.90163
290 2 9.63638 4.8634 5.42205
291 2 10.8931 4.80235 6.68534
292 4 18.992 6.78387 9.53463
293 3 18.7443 5.3555 8.50375
294 1 17.734 7.94743 8.57147
295 2 17.47 7.43807 7.57923
296 2 16.8171 7.84269 9.22493
297 2 17.8372 9.04536 8.41652
298 1 17.3745 4.5877 4.89412
299 2 12.5987 0.56053 1.45188
300 2 1.81273 17.7733 9.02273
301 2 18.9117 6.99081 2.71315
302 4 18.2479 4.47879 7.25207
303 3 19.1989 2.98391 6.98348
304 1 19.0758 5.99156 3.49797
305 2 13.7397 17.0726 11.2661
306 2 21.0305 2.76887 16.5736
307 2 7.14665 16.1237 15.4138
308 1 15.8932 17.5866 10.7807
309 2 3.48841 10.5073 19.2977
310 2 16.6974 18.0427 11.7689
311 2 17.6893 17.2778 17.9966
312 4 18.4838 1.6694 6.12377
313 3 16.8443 1.62168 5.42385
314 1 19.89 1.80242 5.15239
315 2 20.776 1.03696 5.45144
316 2 19.1435 1.72386 4.39537
317 2 20.1664 2.95416 5.31421
318 1 18.8391 0.277934 7.46068
319 2 20.0854 0.374889 7.27
320 2 18.6737 1.08936 8.44457
321 2 18.1649 18.2277 7.4135
322 4 16.5506 3.03178 4.30615
323 3 17.243 2.50538 2.82794
324 1 18.2363 5.37193 4.27317
325 2 1.49867 17.3726 1.14839
326 2 7.48406 16.9205 15.2865
327 2 15.1517 2.89215 4.50368
328 1 1.85291 16.6199 1.97645
329 2 19.7805 14.1281 1.82095
330 2 2.26575 14.5458 16.9275
331 2 1.53098 5.55525 8.80521
332 4 17.7965 2.41624 1.36275
333 3 18.1799 0.715058 1.10236
334 1 8.03524 0.827942 1.05545
335 2 7.48869 1.31568 0.236608
336 2 8.87765 0.898548 0.378608
337 2 7.74458 18.5965 1.35843
338 1 19.618 3.06998 1.74756
339 2 19.9266 4.08416 2.26466
340 2 19.6284 2.41755 2.5316
341 2 20.3028 2.89158 0.925227
342 4 18.2973 18.2037 19.9032
343 1 20.5643 0.29356 17.9742
344 2 0.532333 10.1491 19.0729
345 2 21.0708 2.40417 15.7459
346 2 1.045 2.7548 1.08329
347 1 9.86037 15.7615 2.667
348 2 10.3385 18.7961 3.41063
349 2 10.5739 6.04472 1.18886
350 2 12.8803 1.57099 6.90804
351 4 0.537687 14.7094 1.50318
352 3 1.19566 13.5782 0.395317
353 1 17.6726 5.58628 10.6544
354 2 14.9126 16.1695 14.7315
355 2 14.831 16.9132 14.6239
356 2 17.0085 14.3834 18.0787
357 1 17.4166 4.26288 10.7175
358 2 16.1125 9.64397 5.81341
359 2 20.3627 11.854 8.68615
360 2 20.227 10.0649 6.95942
361 4 1.55953 12.2412 19.4234
362 3 2.59474 12.3436 18.2098
363 1 0.660315 15.4502 11.657
364 2 0.994207 16.358 10.9635
365 2 1.4015 14.7831 11.0692
366 2 21.313 15.3171 11.5852
367 1 19.8955 14.8582 1.1155
368 2 0.24131 16.4931 7.41806
369 2 2.02207 8.52314 1.7486
370 2 1.28445 18.7887 5.83209
371 4 3.20297 13.2043 16.9608
372 3 3.67352 11.9924 15.8462
373 1 1.5586 16.7362 3.40809
374 2 11.1614 2.88393 9.32299
375 2 20.9221 12.8971 5.95732
376 2 1.25553 17.8201 4.11302
377 1 4.8023 14.0455 17.741
378 2 4.43644 14.6498 18.5494
379 2 5.57404 13.3539 18.0992
380 2 5.23266 14.8056 17.0049
381 4 2.39717 11.416 14.9342
382 3 2.40052 9.84476 15.5349
383 1 2.65342 11.3988 13.1502
384 2 1.8306 11.2442 12.4481
385 2 3.09702 12.4116 12.9026
386 2 3.35071 10.5935 12.7938
387 1 0.882433 12.4259 15.1907
388 2 0.434545 12.7354 14.0404
389 2 21.1862 9.0172 15.4489
390 2 0.408314 11.8109 16.1387
391 4 2.94875 8.31884 15.7753
392 3 3.30612 7.50033 14.3273
393 1 4.61298 8.26234 16.7042
394 2 5.33768 7.6642 16.1396
395 2 5.03025 9.29387 16.6621
396 2 4.66263 7.99657 17.7793
397 1 1.79672 7.45806 16.822
398 2 0.755894 7.30497 16.4639
399 2 2.31122 6.47976 17.0114
400 2 1.79475 7.97936 17.7776
401 4 3.27818 6.08107 13.4447
402 1 1.52494 5.69838 12.9872
403 2 1.58842 4.62656 12.8047
404 2 0.844457 5.93245 13.8529
405 2 1.20077 6.27052 12.14
406 1 4.20308 4.55588 14.029
407 2 4.05664 3.91434 13.1238
408 2 3.59592 4.01269 14.7688
409 4 9.63489 11.9471 16.7369
410 3 9.20048 12.4366 18.2911
411 1 10.1641 0.215871 14.145
412 2 0.101347 0.408417 14.8869
413 2 19.6989 12.2095 2.40309
414 2 10.8249 17.1902 16.1979
415 1 11.4192 0.20267 14.554
416 2 11.716 1.22437 14.4629
417 2 13.2451 7.06442 16.1292
418 2 17.0295 6.20914 11.2057
419 4 9.15374 12.1868 0.095767
420 3 8.4134 12.3971 15.7352
421 1 8.63709 10.77 0.959654
422 2 9.18733 10.8974 1.92431
423 2 7.62006 10.7639 0.672299
424 2 9.15187 10.2174 0.365385
425 1 8.84743 14.3792 0.431816
426 2 7.93785 14.7165 1.03884
427 2 6.6052 13.3093 1.5219
428 2 9.0164 14.9094 19.2733
429 4 7.89733 11.5169 14.4665
430 3 9.0548 10.5128 13.8884
431 1 7.30297 12.8688 13.3284
432 2 6.39701 13.3323 13.7967
433 2 8.08581 13.6091 13.0693
434 2 6.86903 12.4294 12.4055
435 1 6.51802 10.3735 14.88
436 2 5.88983 10.7139 15.7014
437 2 5.92064 10.4754 13.9344
438 2 6.94419 9.34486 14.9732
439 4 10.2142 9.60302 14.6897
440 3 9.77279 8.02713 14.4657
441 1 10.0979 10.1015 16.5722
442 2 9.2319 9.56845 17.0202
443 2 21.6202 6.78457 10.1957
444 2 10.9032 9.78672 17.2193
445 1 11.7249 10.1202 13.7298
446 2 11.2891 10.6633 12.8533
447 2 12.1833 10.8973 14.3959
448 4 9.54391 6.35745 14.232
449 3 8.00181 5.83154 14.0014
450 1 10.3146 5.49745 15.7166
451 2 10.1671 6.13128 16.5958
452 2 9.66144 4.61096 15.7983
453 2 11.3529 5.20782 15.544
454 1 10.2402 5.9777 12.5055
455 2 10.8803 5.08403 12.4109
456 2 9.43147 5.85402 11.766
457 2 10.8594 6.8599 12.2354
458 4 6.82035 4.96928 13.0717
459 1 5.68114 4.45044 14.5406
460 2 5.7669 5.13635 15.4043
461 2 5.82794 3.4454 14.9489
462 1 7.30523 3.49188 12.1265
463 2 8.18068 2.94893 12.4831
464 2 6.54152 2.66111 12.0473
465 2 7.48435 3.74657 11.0829
466 4 19.1745 12.2895 9.53284
467 3 19.4685 11.9555 11.184
468 1 18.2473 13.9908 10.1204
469 2 17.2416 14.0735 9.73303
470 2 18.8217 14.9089 9.90954
471 2 12.341 3.43632 15.1524
472 1 11.1062 12.9212 16.0038
473 2 10.7284 13.9484 16.0194
474 2 11.3385 12.6126 14.9624
475 2 2.14153 3.06191 17.7706
476 4 18.2962 13.0258 11.846
477 3 16.7987 12.3039 12.1115
478 1 18.7637 13.9719 13.4066
479 2 18.11 13.7538 14.2756
480 2 19.7432 13.843 13.8368
481 2 18.6353 15.0138 13.0943
482 1 15.2571 15.3002 7.02673
483 2 15.4944 14.7524 6.11185
484 2 14.2021 15.309 7.37739
485 2 15.975 14.8866 7.77465
486 4 15.212 12.7413 12.3128
487 3 14.482 11.3049 12.0781
488 1 14.9387 13.4308 14.045
489 2 14.7023 12.6658 14.7921
490 2 15.851 13.9771 14.2565
491 2 14.1151 14.1478 14.2401
492 1 14.5204 13.9583 11.1639
493 2 14.0086 14.633 11.8584
494 2 15.2812 14.4894 10.5792
495 2 13.8071 13.55 10.4417
496 4 14.4544 9.7856 12.9048
497 3 15.4881 9.53797 14.2844
498 1 12.801 9.25931 13.3736
499 2 12.6826 8.1912 13.187
500 2 18.2494 11.8471 1.3758
501 1 14.551 8.42305 11.6451
502 2 15.33 8.43597 10.8648
503 2 14.7744 7.57885 12.3307
504 2 13.5572 8.26707 11.209
505 4 17.2163 9.35509 14.3046
506 3 17.821 7.96889 15.1149
507 1 17.7706 9.1767 12.5749
508 2 18.6097 8.46092 12.4419
509 2 16.9006 8.6286 12.1025
510 2 18.125 10.0023 11.9815
511 1 17.8247 10.7405 15.5069
512 2 18.8965 10.8812 15.6991
513 2 17.3401 11.7344 15.2391
514 2 17.3178 10.5246 16.4812
515 4 17.5485 6.38452 15.5217
516 1 16.1267 5.39786 14.7511
517 2 15.097 5.75202 14.9408
518 2 16.2008 5.22614 13.6788
519 2 16.208 4.44923 15.3109
520 1 18.961 5.60989 14.4712
521 2 19.917 5.61277 14.9767
522 2 18.6861 4.58434 14.1651
523 2 19.1102 6.13976 13.5079
ITEM: TIMESTEP
16500
ITEM: NUMBER OF ATOMS
523
ITEM: BOX BOUNDS pp pp pp
8.7156230826696657e-02 2.1912843769173399e+01
7.5588075426818335e-02 1.9004374924573135e+01
7.9232937115055080e-02 1.9920767062884948e+01
ITEM: ATOMS id type x y z
1 4 7.36248 3.84217 2.76507
2 3 8.05271 4.91883 3.68994
3 1 16.4312 4.55882 6.1388
4 2 19.0884 8.19409 17.066
5 2 6.73725 12.9398 3.21905
6 2 15.3781 4.18054 6.20691
7 1 19.6234 5.5773 10.4971
8 2 14.4522 14.7209 17.2195
9 2 15.6335 9.29163 7.64431
10 2 19.6041 17.6655 11.1734
11 4 8.10108 6.64016 3.15292
12 3 7.37568 6.6493 1.74447
13 1 7.41829 7.74832 4.58869
14 2 21.3684 6.97103 6.57197
15 2 7.08654 7.32906 5.49807
16 2 6.53061 8.34237 4.18877
17 1 8.65927 8.54414 5.11119
18 2 19.1337 11.2141 9.34964
19 2 20.2848 5.11645 16.7573
20 2 12.9644 3.63457 16.0058
21 4 5.97102 5.83044 0.861337
22 3 6.07486 4.49029 1.88422
23 1 6.10015 5.49253 18.8816
24 2 6.93912 5.93482 18.372
25 2 6.15887 4.33005 18.5755
26 2 5.06474 5.88137 18.6381
27 1 4.2492 6.38923 1.21541
28 2 4.0407 5.83168 2.06392
29 2 3.05385 1.75758 2.59981
30 2 3.35581 7.10618 0.771676
31 4 7.13588 1.55963 3.63933
32 3 5.69316 1.24341 2.93465
33 1 15.4083 17.5574 10.4709
34 2 15.6716 16.4983 12.2053
35 2 1.44004 17.4992 2.81715
36 2 3.56662 4.12904 5.90632
37 1 8.46033 2.52507 2.25464
38 2 14.4398 2.97177 0.116631
39 2 18.8652 8.46038 1.458
40 2 9.53188 2.91041 2.4524
41 4 3.15829 17.5259 4.59427
42 3 3.92196 0.111481 4.59881
43 1 6.35261 12.0382 2.77081
44 2 18.8415 6.01625 11.203
45 2 5.23208 12.0134 2.61101
46 2 2.2457 12.3543 1.03278
47 1 13.5829 6.73997 4.14355
48 2 13.0791 5.76492 3.95863
49 2 12.9712 7.37268 3.48766
50 2 14.6139 6.64903 3.74026
51 4 5.17852 18.6475 3.14472
52 1 19.9021 18.6612 19.7359
53 2 21.0972 2.44298 11.2932
54 2 4.16677 16.1725 4.84531
55 2 19.0651 16.4369 0.149327
56 1 10.169 16.4502 2.09935
57 2 1.35811 18.0336 18.8714
58 2 21.428 1.02948 16.7281
59 2 6.67877 11.9986 1.7706
60 4 10.5134 16.6982 18.7388
61 3 13.3553 5.89563 11.4405
62 1 5.84617 4.60619 7.1499
63 2 5.1335 5.06685 7.82713
64 2 5.49609 4.70712 6.13431
65 2 6.05578 3.56373 7.41125
66 1 12.8133 5.08215 10.8465
67 2 9.91616 1.56037 10.9502
68 2 17.3494 7.51941 17.5074
69 2 6.81256 5.13777 7.17956
70 4 20.7807 16.9512 19.8165
71 3 11.2221 15.286 18.7522
72 1 11.3694 18.1934 18.7529
73 2 5.21823 18.5675 19.0591
74 2 11.2627 14.8582 2.55529
75 2 14.1763 18.7923 12.4901
76 1 20.2722 0.540817 18.691
77 2 15.7584 4.68474 8.99063
78 2 0.155033 6.6454 6.31299
79 2 15.822 4.62112 10.7785
80 4 10.6062 14.0689 0.335319
81 3 11.3384 12.4306 0.0905122
82 1 16.4114 12.7198 4.58837
83 2 17.3526 12.0469 4.50837
84 2 16.0925 13.8236 4.48914
85 2 15.8979 12.2593 5.33756
86 1 9.957 17.8006 1.8602
87 2 2.84929 9.85338 4.77723
88 2 10.1291 18.6503 2.46483
89 2 9.83815 2.00272 13.6047
90 4 12.7669 11.9523 0.749114
91 3 11.9072 11.9359 2.35135
92 1 14.3488 12.9699 0.55826
93 2 15.0529 12.0798 0.517647
94 2 14.4965 13.5643 19.486
95 2 14.8362 13.4375 1.39079
96 1 13.559 10.0627 1.46987
97 2 9.20707 16.6763 18.7641
98 2 15.9324 12.1904 3.87831
99 4 12.4568 10.5946 3.07809
100 3 11.1753 9.56547 3.46362
101 1 3.40742 1.05255 1.66936
102 2 19.6435 4.19243 0.337483
103 2 4.31972 1.22535 1.44184
104 2 4.89798 17.1011 2.7399
105 1 13.4995 10.5623 4.71967
106 2 13.9326 9.52315 4.79147
107 2 14.2729 11.3472 4.66488
108 2 12.9419 10.8277 5.61845
109 4 10.2303 8.5314 4.1418
110 1 9.92194 7.21003 2.84086
111 2 9.93716 7.69633 1.6405
112 2 14.3454 10.7201 1.76835
113 2 8.71226 8.79326 6.17405
114 1 5.25459 0.114128 18.088
115 2 5.64641 1.23417 17.8857
116 2 5.52754 18.5861 17.1656
117 2 4.20986 0.255807 18.0184
118 4 1.90507 9.7019 3.81621
119 3 0.61316 10.0672 4.56412
120 1 21.9209 11.9194 0.437344
121 2 1.69673 8.21417 1.71074
122 2 11.4806 8.18953 19.1979
123 2 7.9872 18.0726 16.3118
124 1 2.04052 8.45533 2.63843
125 2 7.91819 2.69842 16.4264
126 2 19.0145 18.0438 11.0547
127 2 1.05448 17.0552 12.6374
128 4 20.9697 10.0636 5.30002
129 3 19.935 8.82357 5.19067
130 1 20.8591 11.5625 19.4844
131 2 20.7802 10.5211 18.7089
132 2 3.88583 9.92739 19.7822
133 2 20.1645 12.5215 19.4454
134 1 8.06595 1.29386 5.16293
135 2 16.177 13.5124 7.62848
136 2 11.4905 1.27534 13.8234
137 2 8.34828 0.135464 5.01156
138 4 18.925 9.3042 3.92503
139 3 19.3657 11.1256 4.52517
140 1 19.7481 8.75661 2.13786
141 2 20.6054 8.02302 2.47719
142 2 20.1978 9.57742 1.49889
143 2 10.6123 14.0895 15.5141
144 1 17.0181 9.47825 4.19924
145 2 16.6209 8.42958 4.14141
146 2 16.7452 10.1592 5.0198
147 2 16.7937 9.98805 3.1904
148 4 16.5139 6.88756 1.16252
149 3 16.3723 5.31147 1.01939
150 1 14.3555 9.00174 1.30804
151 2 16.1616 17.3402 6.82025
152 2 19.0538 15.524 15.4244
153 1 15.0405 8.03857 1.0344
154 2 21.2168 7.28521 13.6785
155 2 16.8003 11.119 19.0455
156 2 21.828 14.1872 11.4867
157 4 15.7931 4.65027 19.4483
158 3 16.9527 4.5371 18.3008
159 1 14.1849 5.12833 18.753
160 2 13.9366 6.18763 18.6828
161 2 14.1515 5.06229 17.6503
162 2 13.3354 4.53336 19.1872
163 1 15.6098 2.74364 19.905
164 2 15.337 1.98864 19.1776
165 2 2.03625 18.7297 14.1409
166 2 19.3891 16.4326 15.4365
167 4 18.0146 5.41676 17.2334
168 1 19.5513 4.40631 17.1877
169 2 1.70585 17.8566 18.22
170 2 19.8889 3.89629 18.1019
171 2 19.2354 3.56419 16.4624
172 1 18.3463 7.03617 17.9486
173 2 19.3567 7.37918 17.4727
174 2 18.8154 7.00247 18.9836
175 2 14.0391 0.638652 12.682
176 4 1.4945 17.03 7.63188
177 3 2.86329 16.9163 8.75031
178 1 2.17329 17.0713 6.05918
179 2 14.1879 1.84566 3.34796
180 2 14.7961 14.3222 16.6818
181 2 8.84791 17.5872 16.4451
182 1 13.5869 0.998653 3.00461
183 2 14.0733 0.181247 2.55498
184 2 13.0504 0.721755 3.93159
185 2 13.171 1.70636 2.25486
186 4 4.0133 15.7388 8.61376
187 3 3.87296 14.4262 7.71367
188 1 4.37394 15.4829 10.5712
189 2 4.82411 14.485 10.6741
190 2 5.08388 16.337 10.5837
191 2 3.57291 15.7009 11.2883
192 1 5.43908 16.6554 7.8151
193 2 5.53063 17.4432 8.57674
194 2 6.26703 15.8729 7.73094
195 2 5.37757 16.876 6.72314
196 4 3.34937 12.9055 7.03504
197 3 4.26151 11.5765 7.61816
198 1 3.91377 12.873 5.21126
199 2 4.89459 13.36 5.02622
200 2 3.76719 11.874 4.85196
201 2 3.0591 13.5277 4.74049
202 1 1.592 12.5326 7.35373
203 2 1.40147 11.6433 7.85327
204 2 1.09725 13.4592 7.88221
205 2 0.967323 12.5838 6.43804
206 4 4.01648 10.0074 8.15137
207 3 5.21499 9.82256 9.27549
208 1 2.6272 9.5484 9.31721
209 2 2.17878 8.56002 9.16688
210 2 1.90008 10.3699 9.55808
211 2 17.0611 17.3638 16.8818
212 1 4.48174 8.6679 6.89736
213 2 5.46225 8.90873 6.44852
214 2 4.6187 7.80778 7.58906
215 2 3.6751 8.30844 6.22141
216 4 4.0726 9.31232 10.4903
217 3 4.44518 7.77595 10.8816
218 1 4.04576 10.6431 11.8261
219 2 3.64596 10.1521 12.7418
220 2 5.08225 10.9926 11.9905
221 2 3.37143 11.4326 11.4323
222 1 2.78469 4.43005 5.16954
223 2 2.9279 3.81209 4.23358
224 2 2.97183 5.49596 4.93773
225 2 1.73105 4.39891 5.53466
226 4 4.36809 6.27769 11.5589
227 1 3.35102 5.41565 10.2305
228 2 3.04213 4.43435 10.6352
229 2 2.41399 5.96282 10.0167
230 2 3.86669 5.19833 9.27219
231 1 6.16467 5.56592 11.4956
232 2 6.1176 4.66041 10.8727
233 2 6.84859 6.26476 10.9903
234 4 7.94453 18.0417 9.35392
235 3 9.39947 17.4917 9.84064
236 1 6.58952 18.5298 10.7262
237 2 6.05906 17.8966 11.3121
238 2 6.42209 0.570587 10.217
239 2 8.81181 3.78927 8.72998
240 1 8.77335 2.00002 6.16646
241 2 12.1913 18.674 18.2526
242 2 9.54784 1.7059 6.75357
243 2 8.1957 3.02289 6.41992
244 4 10.3086 16.0906 9.88203
245 3 10.4365 15.8152 8.22555
246 1 11.8253 16.7222 10.638
247 2 11.9262 17.7277 10.1606
248 2 11.5716 16.8731 11.7192
249 2 12.7778 16.158 10.6182
250 1 9.51709 14.4598 10.5236
251 2 10.2202 13.6739 10.16
252 2 9.35092 14.301 11.6122
253 2 8.61361 14.3066 9.94952
254 4 10.4743 14.6765 7.00427
255 3 10.0983 13.1958 7.57263
256 1 12.1407 15.0254 6.24702
257 2 12.3952 14.2749 5.50442
258 2 12.1082 16.0755 5.90847
259 2 12.9248 15.0209 7.04889
260 1 8.98869 15.3266 6.13024
261 2 9.2452 16.3646 5.84565
262 2 8.79048 14.9618 5.12921
263 2 8.10856 15.3366 6.78399
264 4 9.11922 11.7943 7.05518
265 3 10.1064 10.5202 7.06889
266 1 8.33905 12.2092 5.36678
267 2 8.99631 12.5872 4.57229
268 2 7.88429 11.2906 4.95889
269 2 7.47611 12.8947 5.44849
270 1 7.71439 11.6699 8.29031
271 2 7.02939 10.8486 8.02406
272 2 7.91664 11.491 9.35905
273 2 7.07717 12.5696 8.12721
274 4 10.9266 9.52231 8.18376
275 3 11.7887 8.40114 7.34979
276 1 9.8815 8.33421 9.23193
277 2 10.6633 7.64492 9.53564
278 2 9.32935 8.67027 10.1271
279 2 9.17179 7.73432 8.62663
280 1 12.105 10.4657 9.24471
281 2 11.8024 11.5169 9.37263
282 2 12.1082 9.97356 10.2194
283 2 13.0689 10.4944 8.71374
284 4 11.582 7.49521 5.9461
285 1 13.4357 7.11213 5.58788
286 2 14.1435 7.81973 5.98041
287 2 13.6068 6.23031 6.32165
288 1 10.8796 5.76793 6.21332
289 2 10.3805 5.50131 7.19402
290 2 10.0755 5.64426 5.47298
291 2 11.6122 5.04448 5.81078
292 4 18.6595 6.01229 9.02326
293 3 19.1533 5.94602 7.38305
294 1 17.6115 7.58595 9.44341
295 2 18.2703 8.45637 9.71318
296 2 16.9225 8.02564 8.74447
297 2 17.1907 7.37314 10.415
298 1 16.8787 4.28526 4.77893
299 2 11.0589 18.6185 19.6969
300 2 0.85555 18.2866 8.02567
301 2 18.6379 6.52471 3.8298
302 4 17.9929 4.68629 7.14777
303 3 19.1026 3.42544 6.60603
304 1 17.6967 6.30365 3.18286
305 2 15.1115 17.6648 9.51959
306 2 1.39552 4.43175 8.94525
307 2 4.90194 15.8181 18.7315
308 1 15.7959 16.4126 11.1519
309 2 4.06413 8.56077 19.7415
310 2 15.6371 15.3985 10.8365
311 2 20.7585 16.8117 2.17203
312 4 19.153 1.94103 6.61138
313 3 18.5416 1.60363 4.84483
314 1 20.8084 0.652786 6.69639
315 2 21.6565 0.450328 7.59979
316 2 20.5384 18.6188 6.83271
317 2 21.6058 0.54356 6.00282
318 1 17.6452 1.49194 7.51399
319 2 17.8493 1.32486 8.69031
320 2 16.5893 1.93869 7.21959
321 2 17.7746 0.389882 7.73952
322 4 16.9843 2.33934 4.32854
323 3 16.3094 2.48185 2.76608
324 1 17.4307 5.17876 3.92483
325 2 1.73433 14.8996 3.80185
326 2 4.55511 15.4742 19.1854
327 2 15.9845 1.82771 5.28483
328 1 2.05789 15.6274 2.91052
329 2 19.7685 15.6555 2.35968
330 2 2.93568 14.4612 16.1703
331 2 0.60399 9.89409 19.6502
332 4 16.3607 1.78039 1.1876
333 3 17.055 0.478464 1.05242
334 1 8.53781 1.88565 0.856693
335 2 9.27508 2.06355 19.8444
336 2 9.27249 1.0305 1.09429
337 2 7.51899 1.38317 0.41927
338 1 19.0782 3.94089 1.1751
339 2 19.2884 4.30024 2.10857
340 2 19.3665 2.94366 1.19054
341 2 18.2125 3.97723 0.600128
342 4 18.818 18.191 1.37618
343 1 20.5159 1.14169 17.6206
344 2 0.190431 11.7318 1.80725
345 2 1.52973 4.88979 8.15905
346 2 2.53643 0.29113 1.3003
347 1 10.6505 15.3138 1.73327
348 2 10.1724 18.0429 0.830924
349 2 10.5732 5.91351 2.51507
350 2 10.6611 1.59331 10.874
351 4 0.752424 15.3048 1.49419
352 3 1.77197 14.7436 0.151206
353 1 17.8996 4.26856 9.45488
354 2 13.9523 18.7413 0.399255
355 2 13.3761 18.5803 19.9025
356 2 17.302 17.0981 17.5093
357 1 16.4556 4.27795 9.79106
358 2 16.0977 9.6603 7.26288
359 2 21.0149 14.4714 11.4284
360 2 20.5713 10.22 6.69279
361 4 1.64597 13.049 19.561
362 3 3.09104 13.3141 18.5482
363 1 0.285814 16.7329 13.3204
364 2 21.427 16.1376 12.7912
365 2 0.369409 16.0479 14.1795
366 2 0.0948021 17.7764 13.5516
367 1 20.8516 15.9151 1.80237
368 2 0.747674 15.9638 7.78546
369 2 2.67773 7.78641 2.73278
370 2 1.7673 16.4599 5.50171
371 4 3.51024 13.1546 16.9343
372 3 2.92759 11.8029 16.1777
373 1 2.54498 16.8944 2.98054
374 2 8.63405 3.25363 8.8495
375 2 16.8086 17.0337 7.27519
376 2 3.31126 16.81 1.88046
377 1 5.30806 13.1066 17.0299
378 2 5.86581 13.7642 17.676
379 2 5.47571 12.0016 17.4154
380 2 5.78716 13.0278 15.9809
381 4 1.98415 11.2193 14.9315
382 3 2.64655 9.72846 15.0251
383 1 2.77373 12.3835 13.7628
384 2 2.20946 12.432 12.8301
385 2 2.81249 13.3715 14.2627
386 2 3.726 12.0181 13.4091
387 1 0.199317 11.3833 15.1812
388 2 21.1426 10.7543 14.868
389 2 20.5465 7.00689 13.3322
390 2 21.7591 11.9766 16.2474
391 4 2.94273 8.19008 15.716
392 3 3.20805 7.26545 14.4651
393 1 4.46186 8.44723 16.8182
394 2 4.21305 8.75142 17.8001
395 2 5.20941 7.63631 16.9071
396 2 4.93384 9.32003 16.3516
397 1 1.42963 7.69065 16.5238
398 2 1.69186 6.62672 16.4551
399 2 1.37086 7.97315 17.6157
400 2 0.584614 8.08121 15.9728
401 4 3.42879 5.88995 13.5568
402 1 1.79162 4.9153 13.494
403 2 2.0423 3.92101 13.8433
404 2 0.925918 5.31891 14.0981
405 2 1.43852 4.76456 12.4689
406 1 4.44967 4.69523 14.6002
407 2 4.03569 3.71643 14.3136
408 2 3.96848 4.95922 15.5603
409 4 9.72198 11.9934 16.2452
410 3 9.23272 12.0322 17.8458
411 1 10.4414 1.21417 13.9021
412 2 21.2132 3.01007 11.5173
413 2 19.8096 11.6406 3.72527
414 2 8.47794 3.34774 16.9832
415 1 10.4974 0.72441 15.1973
416 2 11.0362 18.8138 15.5617
417 2 11.9873 7.72898 18.9386
418 2 18.238 3.81493 10.2031
419 4 9.26167 11.9064 19.4817
420 3 8.29787 12.3984 15.3812
421 1 9.08354 10.0238 19.8191
422 2 8.58438 9.59192 1.00467
423 2 8.40783 9.40527 18.9013
424 2 10.1626 9.8381 19.2355
425 1 8.88121 13.2679 0.482137
426 2 8.42072 13.35 1.79549
427 2 6.50257 11.1579 3.44884
428 2 8.20857 13.604 19.435
429 4 7.62604 11.5957 14.1302
430 3 8.84618 10.9938 13.0971
431 1 6.67153 12.7112 12.9961
432 2 5.57572 12.6216 13.0373
433 2 6.96348 13.7457 13.0508
434 2 6.94745 12.2717 12.0283
435 1 6.54855 10.0674 14.5812
436 2 5.4729 10.2138 14.6176
437 2 6.7491 9.27808 13.8728
438 2 6.71055 9.67314 15.6005
439 4 9.78546 9.80564 13.8328
440 3 9.30338 8.31347 13.4433
441 1 10.1472 10.1205 15.6569
442 2 9.39832 9.51895 16.1645
443 2 20.6342 5.65422 10.3049
444 2 11.1052 9.73834 16.0571
445 1 11.3812 10.0299 12.8413
446 2 10.9622 9.75056 11.8474
447 2 11.8767 10.9761 12.5739
448 4 9.5618 6.64898 13.5028
449 3 8.04012 6.01426 13.7165
450 1 10.6407 6.44403 15.0049
451 2 11.6611 6.10751 14.7845
452 2 10.6502 7.33632 15.6507
453 2 10.2959 5.68034 15.7194
454 1 10.4665 5.89159 12.0703
455 2 9.83365 5.1329 11.5755
456 2 10.9288 6.56249 11.3508
457 2 11.2607 5.26594 12.5209
458 4 6.9653 4.90466 13.1016
459 1 6.0094 4.70593 14.6842
460 2 6.28934 5.56086 15.3136
461 2 6.40674 3.82346 15.2222
462 1 7.53177 3.22802 12.6252
463 2 7.97102 2.7967 13.5055
464 2 6.61846 2.68949 12.3266
465 2 8.1914 3.19734 11.7635
466 4 19.4711 12.402 10.2308
467 3 18.7286 12.1383 11.7818
468 1 18.3298 14.0467 10.0319
469 2 17.6367 14.0502 9.18918
470 2 18.8386 14.9992 10.2327
471 2 13.1052 2.98189 15.6175
472 1 11.0263 13.2956 16.0969
473 2 11.839 12.9311 15.3928
474 2 11.4926 13.7705 17.0337
475 2 2.32853 0.312986 14.7568
476 4 17.5161 13.4054 11.6909
477 3 15.9943 12.7585 11.952
478 1 17.7794 14.7495 13.0111
479 2 17.0867 15.5806 12.9611
480 2 17.7775 14.3037 14.0102
481 2 18.7827 15.1928 12.7635
482 1 15.0737 13.5557 7.68448
483 2 14.6548 12.5693 7.9297
484 2 14.7456 13.8154 6.62261
485 2 14.739 14.3519 8.38537
486 4 14.6032 12.4136 12.5905
487 3 14.4206 10.784 12.5538
488 1 14.5716 12.9302 14.4001
489 2 15.5015 13.1313 14.9583
490 2 13.8188 13.7297 14.383
491 2 14.0723 12.0773 14.9432
492 1 13.2719 13.175 11.5008
493 2 13.6519 13.7279 10.6338
494 2 12.6082 12.36 11.1739
495 2 12.6053 13.8885 12.0352
496 4 14.1283 9.22572 12.4927
497 3 15.5871 8.50967 13.2408
498 1 12.4907 9.07885 13.248
499 2 12.2201 8.22424 13.8766
500 2 17.3401 11.5962 18.708
501 1 14.3281 8.49812 10.7114
502 2 14.7095 9.20833 9.97442
503 2 14.9736 7.63004 10.7989
504 2 13.3585 8.11737 10.3622
505 4 16.9017 8.69306 14.1446
506 3 17.4709 7.19918 14.5552
507 1 18.4366 9.53381 13.448
508 2 18.8482 10.1061 14.2952
509 2 19.2608 8.81332 13.2022
510 2 18.1913 10.1846 12.6114
511 1 16.493 9.99374 15.4579
512 2 15.7908 10.6268 14.8579
513 2 16.0713 9.67393 16.4349
514 2 17.3714 10.5992 15.6698
515 4 16.8942 5.6867 15.1368
516 1 15.0742 5.8057 15.3338
517 2 14.8559 6.61817 16.0688
518 2 14.6572 6.12894 14.3656
519 2 14.7063 4.8378 15.6914
520 1 17.7628 4.78337 13.7794
521 2 18.7133 5.29749 13.6836
522 2 18.037 3.73469 13.8794
523 2 17.187 4.87047 12.8461
ITEM: TIMESTEP
17000
ITEM: NUMBER OF ATOMS
523
ITEM: BOX BOUNDS pp pp pp
7.8747412281238383e-02 2.1921252587718861e+01
6.8295350575873215e-02 1.9011667649424027e+01
7.1588556619206045e-02 1.9928411443380817e+01
ITEM: ATOMS id type x y z
1 4 6.56371 4.43536 3.36289
2 3 7.44455 5.64205 3.93661
3 1 16.844 4.59499 6.14082
4 2 0.144875 10.3092 8.01104
5 2 7.33332 11.3823 2.61852
6 2 16.245 5.18706 6.61706
7 1 20.7974 5.44817 10.1211
8 2 14.1478 17.3623 19.328
9 2 16.0651 9.79058 8.64587
10 2 16.7505 0.761344 14.5779
11 4 8.37804 6.89348 3.02216
12 3 7.97965 6.88675 1.42453
13 1 7.90528 8.23584 4.2032
14 2 1.98535 4.27917 6.99604
15 2 7.46517 7.96743 5.16487
16 2 6.99639 8.78288 3.81232
17 1 9.04537 9.28108 4.21596
18 2 18.5666 10.8772 10.2065
19 2 18.4087 3.35399 15.2893
20 2 10.0708 0.677638 19.9699
21 4 6.27604 6.33581 0.977874
22 3 6.00963 4.87557 1.91546
23 1 6.54583 5.96175 18.9904
24 2 5.97231 5.10027 18.8908
25 2 6.25241 6.77949 18.2487
26 2 7.60298 5.86596 18.7534
27 1 5.3057 7.58886 1.91025
28 2 4.2134 7.78066 1.47532
29 2 0.951561 17.9551 0.96328
30 2 5.73143 8.33215 2.53627
31 4 6.94373 2.16813 4.69508
32 3 6.05514 0.871229 4.52133
33 1 15.6675 18.1255 11.3869
34 2 17.2338 18.7506 10.0634
35 2 1.65876 14.779 4.48764
36 2 2.13063 7.12365 5.11521
37 1 7.95413 2.74041 3.30253
38 2 14.0886 2.53104 1.22452
39 2 19.03 9.17333 2.11499
40 2 9.04814 3.03879 3.58207
41 4 3.15146 16.9632 5.25317
42 3 3.85977 17.9187 3.91189
43 1 6.19455 11.3894 2.34877
44 2 21.8043 5.46092 9.86603
45 2 5.79745 12.3445 2.23608
46 2 21.3413 12.1791 0.998138
47 1 13.3449 5.3246 4.51886
48 2 14.4052 5.06925 4.27018
49 2 12.7885 4.54793 5.06293
50 2 12.7787 5.36576 3.59625
51 4 5.4144 18.4541 3.58856
52 1 21.1634 18.2204 0.462765
53 2 21.0439 4.54039 9.53578
54 2 4.08887 15.8153 5.78338
55 2 21.0447 2.91871 17.6302
56 1 10.0491 15.6625 2.1423
57 2 21.2566 16.7674 17.2017
58 2 21.0271 18.7487 18.4072
59 2 5.96182 10.9232 1.36267
60 4 9.15862 16.3198 17.9595
61 3 13.9193 5.31033 11.0088
62 1 5.56883 5.43077 6.74906
63 2 4.59158 5.90127 6.78814
64 2 5.41636 4.3709 6.72322
65 2 6.09471 5.6399 7.68762
66 1 12.9854 5.26433 10.3281
67 2 15.7595 2.75655 9.26933
68 2 18.7869 6.15181 16.7167
69 2 6.19085 5.72994 5.91472
70 4 0.565879 0.223113 1.82063
71 3 9.78357 14.7726 18.4344
72 1 10.2426 17.5171 17.2273
73 2 6.00523 18.0803 16.4338
74 2 11.4481 15.7263 0.727893
75 2 14.4788 18.483 16.7544
76 1 20.5463 18.826 19.1934
77 2 17.473 5.39006 11.0626
78 2 1.19309 4.45672 7.3291
79 2 16.0511 5.70224 9.44076
80 4 10.0362 14.0335 19.7938
81 3 12.0823 10.3728 19.5038
82 1 16.3201 14.5113 2.54339
83 2 17.3853 14.4175 2.52772
84 2 16.1076 15.113 3.43156
85 2 15.8015 13.6416 3.13013
86 1 9.27117 15.9844 3.07336
87 2 21.6322 10.8319 3.81613
88 2 9.21573 16.8739 3.58544
89 2 10.0028 2.23856 14.8055
90 4 13.1868 11.4137 0.506915
91 3 12.3295 11.8761 1.97522
92 1 13.737 13.1214 19.4285
93 2 13.7418 14.0632 0.195382
94 2 14.779 13.2192 19.0712
95 2 12.8097 13.3611 18.8895
96 1 14.2636 10.3447 1.65999
97 2 7.85686 15.8196 18.311
98 2 15.7004 14.9621 1.57303
99 4 13.0097 10.6784 3.05601
100 3 12.0579 9.461 3.66149
101 1 1.89439 1.39799 0.931645
102 2 2.17761 5.02884 0.0938537
103 2 1.8924 2.40577 1.41113
104 2 6.38168 17.3994 2.95723
105 1 13.6854 11.8002 4.42201
106 2 14.2062 12.6058 3.80047
107 2 12.8353 12.243 4.97385
108 2 14.3522 11.417 5.17589
109 4 10.721 8.48725 4.05024
110 1 10.2181 7.13623 2.76082
111 2 10.237 7.72112 1.71318
112 2 15.1532 10.7352 1.97813
113 2 8.83934 10.2107 4.75982
114 1 5.93613 17.0593 16.295
115 2 6.81612 16.5769 15.6734
116 2 5.60579 16.4955 17.038
117 2 4.94229 17.1674 15.5928
118 4 21.7008 9.09655 3.95238
119 3 0.0739868 8.81639 5.43962
120 1 21.5222 11.2488 0.270462
121 2 0.40086 6.83816 2.73506
122 2 11.802 7.34663 18.3453
123 2 3.5787 2.38632 18.0048
124 1 21.9345 7.8356 2.53799
125 2 10.3094 2.80902 17.5104
126 2 15.9993 1.00715 14.3753
127 2 0.279011 17.8965 14.4428
128 4 20.2067 8.19154 5.95082
129 3 19.323 9.46003 5.31061
130 1 21.6736 10.0659 0.684375
131 2 20.7862 9.91075 1.39652
132 2 6.69966 9.90324 17.6888
133 2 3.22695 9.33333 19.7738
134 1 7.79446 2.34373 6.34794
135 2 16.8296 13.7234 5.66567
136 2 11.1026 0.883213 15.2113
137 2 7.05129 2.1772 7.16459
138 4 18.1135 10.3043 4.32563
139 3 18.504 11.9311 3.9732
140 1 18.0222 9.61158 2.51367
141 2 17.6275 10.5144 1.9893
142 2 17.2454 8.91078 2.18769
143 2 11.7335 13.8864 16.1412
144 1 16.6737 10.3341 5.46764
145 2 15.7612 9.73377 5.16334
146 2 17.0544 9.73155 6.367
147 2 16.2166 11.2311 5.84543
148 4 16.0238 6.18447 1.33619
149 3 15.9259 5.00561 0.276198
150 1 14.6315 8.9682 1.55128
151 2 13.665 0.486749 7.17282
152 2 18.7239 15.0692 18.3656
153 1 14.7195 7.67956 1.27497
154 2 18.8039 9.82368 18.2128
155 2 17.6156 11.4862 15.4183
156 2 0.0476982 15.4298 11.7433
157 4 14.708 4.07468 19.1038
158 3 15.8587 3.91913 17.9856
159 1 13.1558 4.85879 18.1306
160 2 13.4306 5.41787 17.1027
161 2 12.5948 4.01406 17.6972
162 2 12.4328 5.32939 18.7592
163 1 14.4929 2.48814 0.405628
164 2 14.0525 1.63649 19.7914
165 2 5.79612 14.4846 13.0189
166 2 18.0124 15.6674 18.0902
167 4 16.95 4.38156 16.7865
168 1 18.2396 3.13751 16.3424
169 2 22.0772 17.2 17.4251
170 2 19.099 3.35491 17.0056
171 2 18.0041 2.00701 16.3219
172 1 17.9229 5.92269 17.3785
173 2 21.4736 9.74801 7.71333
174 2 17.599 6.76291 18.0224
175 2 14.3209 0.174368 16.7382
176 4 3.12487 17.6614 8.304
177 3 3.46395 15.9905 8.57794
178 1 2.50847 17.9808 6.5343
179 2 12.3918 2.5495 2.114
180 2 14.58 17.2106 18.8172
181 2 4.18948 2.91312 17.9641
182 1 12.4915 2.07408 3.04983
183 2 11.9677 1.19591 2.94262
184 2 13.5064 1.81156 3.2858
185 2 12.2343 2.57847 3.98241
186 4 4.36349 14.6594 8.68221
187 3 4.12471 13.6497 7.33859
188 1 4.08035 13.8351 10.2095
189 2 4.86662 13.2067 10.612
190 2 3.89148 14.5823 11.0215
191 2 3.15331 13.2554 10.2764
192 1 6.25828 14.8653 8.46747
193 2 6.69511 14.1556 7.76703
194 2 6.44831 15.9148 8.12614
195 2 6.91309 14.9182 9.4542
196 4 2.98736 12.4308 6.94074
197 3 3.2256 11.1974 8.01743
198 1 3.14008 12.136 5.20975
199 2 4.03125 11.6204 4.78625
200 2 2.28886 11.5769 4.83694
201 2 3.14586 13.1772 4.76388
202 1 1.16191 13.0744 7.32091
203 2 1.10923 13.9804 8.09864
204 2 0.561828 13.3973 6.5733
205 2 0.658572 12.1401 7.85808
206 4 4.17515 9.78661 8.06565
207 3 5.28001 9.93894 9.39015
208 1 3.14396 8.55264 8.9862
209 2 3.22807 7.50349 8.62618
210 2 2.07776 8.84271 9.02931
211 2 16.9655 17.8517 16.6818
212 1 4.90437 9.21614 6.39263
213 2 5.72215 9.891 5.99114
214 2 5.26221 8.16503 6.47557
215 2 4.05648 9.22954 5.66179
216 4 4.20677 8.958 10.4369
217 3 5.205 7.79607 11.1605
218 1 3.6898 10.0995 11.7601
219 2 3.12078 11.017 11.4785
220 2 2.94532 9.67715 12.4695
221 2 4.54453 10.3952 12.3811
222 1 2.60844 6.28802 4.60796
223 2 2.04377 5.40358 4.7928
224 2 3.71266 6.24371 4.90098
225 2 2.55282 6.348 3.49748
226 4 4.54934 6.21953 11.5686
227 1 3.79692 5.28585 10.1261
228 2 3.54592 4.24726 10.3611
229 2 2.83979 5.65223 9.74577
230 2 4.49577 5.13406 9.28022
231 1 6.18776 5.5153 11.9013
232 2 6.4822 4.62942 11.3185
233 2 6.88815 6.3008 11.6053
234 4 9.07693 18.9063 9.04774
235 3 9.51985 17.5257 9.87163
236 1 7.32438 0.184214 9.23301
237 2 7.12357 0.50618 7.95741
238 2 6.8969 18.2911 9.88435
239 2 7.95384 6.47142 8.50163
240 1 9.14124 2.03092 6.58895
241 2 11.138 18.0756 17.5372
242 2 9.59752 1.7398 7.61428
243 2 9.85265 2.23313 5.83104
244 4 10.854 16.5959 10.0718
245 3 11.525 15.8877 8.69397
246 1 11.8615 17.8427 11.0826
247 2 12.1414 18.6493 10.3984
248 2 11.2226 18.141 11.9005
249 2 12.8242 17.5243 11.4897
250 1 10.2326 15.4151 11.3287
251 2 11.1197 14.7313 11.4945
252 2 10.2047 15.9689 12.2853
253 2 9.31491 14.827 11.177
254 4 10.8795 15.2238 7.30718
255 3 10.0428 13.8886 7.71852
256 1 12.4616 14.8261 6.51288
257 2 13.1654 15.3341 7.17353
258 2 12.6714 13.7581 6.49975
259 2 12.728 15.2824 5.54259
260 1 9.8871 16.5595 6.43177
261 2 10.5621 17.0062 5.68323
262 2 8.98097 16.1841 5.95378
263 2 9.60359 17.3129 7.208
264 4 9.12925 12.5159 7.31365
265 3 10.0482 11.1574 6.79905
266 1 7.89013 12.8279 5.85255
267 2 8.0156 13.8562 5.46392
268 2 8.13152 12.0836 5.07941
269 2 6.81102 12.7832 6.07402
270 1 8.47563 12.2433 9.05278
271 2 9.29807 11.9695 9.72793
272 2 8.16323 13.2603 9.31575
273 2 7.66601 11.5263 9.21275
274 4 10.9803 10.039 7.63989
275 3 11.952 8.83109 6.9548
276 1 9.63084 9.12186 8.67125
277 2 9.81679 8.05507 8.79148
278 2 9.57831 9.60172 9.67492
279 2 8.66167 9.26182 8.16089
280 1 12.3627 10.9828 8.51107
281 2 13.0794 11.4346 7.81918
282 2 12.0336 11.7193 9.25774
283 2 12.8713 10.2077 9.11721
284 4 11.6778 7.57675 5.92202
285 1 13.3596 6.6994 5.39865
286 2 14.0519 7.45563 4.88335
287 2 13.9671 6.46953 6.34978
288 1 10.5215 6.18504 6.55806
289 2 9.5888 6.20275 5.95082
290 2 10.971 5.19018 6.39615
291 2 10.1793 6.21964 7.6085
292 4 19.5001 5.73975 8.83779
293 3 19.8115 5.17284 7.2408
294 1 18.6602 7.44197 8.50295
295 2 19.431 8.21282 8.56897
296 2 18.2399 7.49548 7.5113
297 2 17.9978 7.56238 9.37072
298 1 16.874 4.29486 4.8863
299 2 9.38277 17.9546 16.7241
300 2 3.96872 18.1941 9.45922
301 2 16.0721 7.23866 3.52153
302 4 18.2931 3.99672 7.35654
303 3 18.82 2.40519 7.29755
304 1 16.503 6.22038 3.23985
305 2 15.5118 18.5815 12.3517
306 2 2.99704 2.06261 5.46646
307 2 5.41699 13.9944 0.964143
308 1 16.268 18.405 10.3053
309 2 6.8416 9.87424 17.0104
310 2 15.738 17.8496 9.40728
311 2 20.0568 15.8737 1.36164
312 4 18.9085 1.0725 6.01075
313 3 17.5518 1.73842 5.05637
314 1 21.1057 0.793283 5.52218
315 2 0.27121 0.822883 5.72203
316 2 20.7838 18.7074 5.64979
317 2 20.5564 0.608979 4.58163
318 1 18.1225 18.3277 6.82669
319 2 14.6745 17.3806 11.488
320 2 19.3904 17.9432 7.12308
321 2 17.8342 16.9491 6.20324
322 4 16.786 2.55684 4.14242
323 3 16.8646 2.68851 2.28516
324 1 16.7228 5.18237 3.77037
325 2 1.07897 17.2973 3.2562
326 2 4.13131 13.868 0.822256
327 2 15.3404 2.22705 4.18937
328 1 1.25629 16.2697 3.33491
329 2 20.072 16.9622 2.90523
330 2 2.69254 14.6712 16.6582
331 2 3.38469 8.90115 0.203047
332 4 15.8544 1.86341 1.32231
333 3 16.5118 0.396382 0.819214
334 1 8.25161 2.08794 1.94655
335 2 9.15376 2.3943 1.36522
336 2 8.2813 1.08573 2.16576
337 2 7.20981 1.98036 1.31553
338 1 2.5613 4.64518 18.9366
339 2 1.09776 5.38235 18.8816
340 2 2.65516 3.75486 18.317
341 2 3.67143 5.18263 19.0428
342 4 17.3047 18.9613 19.0829
343 1 19.257 0.359627 19.2268
344 2 0.316416 11.5548 19.2394
345 2 3.88071 1.95126 5.27742
346 2 1.53751 1.19034 19.8879
347 1 10.4423 15.4911 0.942465
348 2 8.41773 15.3625 3.35911
349 2 10.928 6.43716 2.6145
350 2 16.4175 2.76394 9.05674
351 4 0.483755 15.9906 1.7071
352 3 1.39969 14.9738 0.731671
353 1 17.998 4.5291 9.04193
354 2 11.7885 18.1074 4.37398
355 2 12.4208 18.3114 4.69112
356 2 17.1115 17.9157 15.9424
357 1 16.9422 5.14387 10.0445
358 2 16.5702 10.3797 8.59758
359 2 21.7306 14.8711 11.2942
360 2 20.7052 6.88334 4.95641
361 4 0.989594 13.6039 19.7585
362 3 2.40701 13.5293 18.998
363 1 0.712459 18.7887 13.9339
364 2 1.77904 0.150328 14.3416
365 2 1.16557 18.1218 13.1719
366 2 21.7889 0.489928 13.8804
367 1 20.7395 16.1952 2.28648
368 2 1.66312 17.7751 9.03445
369 2 0.696492 8.20259 1.76177
370 2 1.8705 18.6664 6.57864
371 4 3.14069 13.3835 17.4297
372 3 2.32297 12.1127 16.9349
373 1 1.79468 15.7272 4.54915
374 2 7.89373 5.69427 9.02557
375 2 13.6296 0.846644 6.50164
376 2 0.995333 16.0835 5.24084
377 1 5.02482 13.3182 17.7199
378 2 5.3609 14.3357 17.5819
379 2 5.19626 13.0321 18.7526
380 2 5.60207 12.6431 17.0592
381 4 1.46574 11.2817 15.7737
382 3 2.20718 9.85531 15.7609
383 1 1.1444 12.3861 14.1907
384 2 0.313331 11.7885 13.7771
385 2 0.969472 13.448 14.337
386 2 1.91896 12.1288 13.4655
387 1 21.6102 11.333 16.3711
388 2 20.8711 11.6348 15.6018
389 2 18.1866 10.1195 17.9575
390 2 21.2801 10.8011 16.9934
391 4 2.62486 8.25581 15.5229
392 3 2.47433 7.78315 13.9093
393 1 4.1866 8.32074 16.5092
394 2 4.67269 9.2648 16.4352
395 2 3.79158 8.07791 17.5102
396 2 5.03056 7.69706 16.2773
397 1 1.48351 7.09901 16.4764
398 2 1.88401 6.09908 16.3813
399 2 1.19537 7.24082 17.5301
400 2 0.53128 6.95002 15.9641
401 4 2.96638 6.20692 13.2674
402 1 1.26934 5.74241 12.4979
403 2 0.381319 5.6375 13.1267
404 2 0.998933 6.51384 11.7421
405 2 1.31158 4.79972 11.9375
406 1 3.85184 5.19766 14.6484
407 2 3.82224 4.15523 14.3266
408 2 3.3239 5.25698 15.6016
409 4 10.5134 11.7852 15.9257
410 3 10.9323 11.5285 17.5146
411 1 10.9885 1.8614 14.5424
412 2 20.8453 2.96782 10.0239
413 2 19.5942 12.0443 4.18017
414 2 10.4162 3.35613 17.9472
415 1 12.0034 2.02053 13.8269
416 2 12.4758 1.12622 13.4316
417 2 11.9182 7.56542 19.0521
418 2 18.5446 3.85739 9.62716
419 4 10.5397 10.5492 18.845
420 3 8.82016 11.7282 15.7771
421 1 9.35069 9.12814 18.3558
422 2 9.02701 9.59044 17.4103
423 2 9.65195 7.79361 18.6223
424 2 8.79253 9.08698 19.401
425 1 9.73508 12.5623 0.761296
426 2 9.65683 12.3007 1.87819
427 2 5.50447 10.8345 3.13799
428 2 8.57362 13.1319 1.07686
429 4 8.14799 11.4865 14.1916
430 3 9.14279 10.431 13.295
431 1 7.74 13.1172 13.3782
432 2 8.14468 13.3177 12.3806
433 2 6.66371 13.1367 13.224
434 2 7.99951 13.9559 14.05
435 1 6.58987 10.5751 14.4635
436 2 5.93668 11.4078 14.8133
437 2 6.16029 10.0113 13.6457
438 2 6.79434 9.8212 15.2735
439 4 10.59 9.59546 13.6792
440 3 10.1194 8.03774 13.8703
441 1 11.3188 10.2724 15.2312
442 2 11.1823 9.54461 16.0626
443 2 20.227 5.35681 11.0572
444 2 12.4144 10.3981 15.0518
445 1 11.7567 9.81808 12.3099
446 2 11.2104 9.85667 11.3352
447 2 12.0987 10.8686 12.4154
448 4 9.51011 6.56762 13.6961
449 3 7.85933 6.47719 13.9347
450 1 10.3742 5.38868 14.9339
451 2 11.4248 5.71628 14.9755
452 2 9.94014 5.7111 15.9028
453 2 10.326 4.30728 14.7582
454 1 9.66718 6.02759 11.8858
455 2 8.83262 6.34795 11.2579
456 2 10.5408 6.4267 11.3548
457 2 9.82562 4.94265 11.9481
458 4 6.74063 5.24521 13.693
459 1 5.35228 5.52892 14.9893
460 2 5.51451 6.56401 15.2992
461 2 5.53973 4.89796 15.8793
462 1 7.4308 3.56299 13.9236
463 2 8.0579 3.45372 14.8068
464 2 6.51033 2.97261 14.1144
465 2 7.99546 3.11135 13.085
466 4 19.2782 12.2089 10.3034
467 3 19.0275 12.5056 12.0179
468 1 18.2108 13.7645 10.044
469 2 17.3226 13.6341 9.38977
470 2 18.7801 14.632 9.6925
471 2 10.4168 0.277094 19.4399
472 1 10.8619 13.5798 15.5968
473 2 9.96943 14.1812 15.9698
474 2 11.0099 13.7548 14.4825
475 2 5.35095 15.3509 13.2587
476 4 17.9914 13.8199 11.8675
477 3 16.3756 13.5382 12.4553
478 1 18.718 15.2934 12.6949
479 2 18.0723 15.8462 13.3448
480 2 19.5753 14.8545 13.2614
481 2 19.2648 15.8383 11.9379
482 1 16.6735 13.3898 6.68825
483 2 17.4881 12.7357 7.03447
484 2 15.7395 12.8583 6.98518
485 2 16.6607 14.2786 7.33245
486 4 14.9303 12.7408 12.5099
487 3 14.9823 11.132 11.9555
488 1 14.4484 12.6401 14.3496
489 2 13.3588 12.654 14.2739
490 2 14.7348 11.6921 14.8366
491 2 14.7236 13.4108 15.0956
492 1 13.6573 13.5407 11.4198
493 2 13.9927 13.2588 10.4198
494 2 12.7037 13.0141 11.5692
495 2 13.5259 14.6387 11.5008
496 4 14.6447 9.46261 12.2351
497 3 15.5688 9.0769 13.6314
498 1 12.8546 8.95788 12.2053
499 2 12.8399 7.99754 11.6763
500 2 17.3568 11.3372 14.6152
501 1 15.1406 8.62981 10.6925
502 2 16.2124 8.41062 10.5936
503 2 14.7622 7.61558 10.6169
504 2 14.7192 9.26537 9.89439
505 4 16.7632 8.26315 14.5309
506 3 16.6919 6.63115 14.5216
507 1 18.3813 8.65093 13.7335
508 2 19.2545 8.15659 14.2017
509 2 18.3271 8.14063 12.7283
510 2 18.5753 9.65716 13.4462
511 1 15.9945 8.72025 16.1932
512 2 16.0345 7.84239 16.8126
513 2 16.4835 9.52803 16.7591
514 2 14.984 9.07323 16.0922
515 4 16.2046 5.03185 14.5945
516 1 14.3677 4.84633 14.4494
517 2 13.8261 4.66622 15.3836
518 2 13.8651 5.68413 13.9555
519 2 14.1914 3.94738 13.8239
520 1 16.9897 4.18778 13.1758
521 2 18.0323 4.55132 13.0159
522 2 17.0824 3.1118 13.3808
523 2 16.4268 4.34495 12.22
ITEM: TIMESTEP
17500
ITEM: NUMBER OF ATOMS
523
ITEM: BOX BOUNDS pp pp pp
6.8779312830640649e-02 2.1931220687169397e+01
5.9650306544156706e-02 1.9020312693455693e+01
6.2526648027795062e-02 1.9937473351972208e+01
ITEM: ATOMS id type x y z
1 4 7.64537 4.07218 3.00304
2 3 8.69483 5.24429 3.44952
3 1 17.128 4.28937 5.6468
4 2 20.533 9.59341 13.1876
5 2 6.10932 13.5943 2.21163
6 2 16.6751 5.28851 6.2756
7 1 21.0315 4.31115 9.48498
8 2 13.0982 16.118 1.47305
9 2 16.0191 14.6578 8.37045
10 2 12.8069 17.8338 15.1755
11 4 8.67597 6.86445 2.83588
12 3 7.45839 7.18718 1.66734
13 1 8.47707 8.05947 4.40729
14 2 21.1613 1.01396 10.0036
15 2 8.43379 7.3584 5.2883
16 2 7.50418 8.63944 4.3546
17 1 9.6322 8.98435 4.6589
18 2 19.7679 11.7807 9.00783
19 2 16.6768 1.8012 16.758
20 2 11.8915 0.489823 18.3848
21 4 6.21017 6.23598 1.16668
22 3 6.80949 4.57082 1.63435
23 1 6.07681 6.09426 19.1401
24 2 7.10249 6.01957 18.6664
25 2 5.37902 5.36299 18.6727
26 2 5.99805 7.10354 18.7603
27 1 4.52357 6.39505 1.9285
28 2 3.76854 6.54897 1.14454
29 2 0.607379 1.36738 18.1709
30 2 4.27495 6.66488 2.95607
31 4 6.62572 2.43177 4.40765
32 3 5.20205 1.66783 3.83524
33 1 15.6379 18.3075 11.4905
34 2 17.7505 17.7499 11.6583
35 2 2.4736 14.9018 4.16827
36 2 3.88785 5.27304 5.72594
37 1 8.17607 2.37568 3.27181
38 2 14.0905 2.36524 0.282413
39 2 17.215 11.4243 2.57149
40 2 9.03454 2.58301 4.04208
41 4 3.65369 17.214 5.12012
42 3 3.43849 18.5414 4.13873
43 1 6.46656 12.8014 2.88391
44 2 20.6189 3.74149 10.2165
45 2 6.02372 13.0041 3.92418
46 2 19.8675 12.03 19.5867
47 1 13.843 5.76321 5.77312
48 2 12.9338 5.23708 5.98489
49 2 14.0995 5.42341 4.74466
50 2 14.7005 5.49535 6.40553
51 4 4.66034 0.278137 3.16492
52 1 0.20592 0.960613 19.0442
53 2 17.9875 5.73075 17.551
54 2 4.65964 16.0929 4.76834
55 2 18.1167 17.7144 17.435
56 1 9.57602 14.6991 0.999877
57 2 21.8265 2.46436 15.8456
58 2 21.343 3.12409 15.8139
59 2 6.05581 11.8608 2.58009
60 4 8.18303 16.2512 18.9198
61 3 12.9051 5.49023 10.2602
62 1 6.20793 5.84249 8.08198
63 2 6.45424 6.55378 8.89152
64 2 5.17245 5.49943 8.21378
65 2 6.93582 5.0245 8.04808
66 1 12.6625 5.0845 9.18665
67 2 10.6986 2.36679 6.99085
68 2 17.661 4.7551 16.0614
69 2 6.28572 6.37132 7.12349
70 4 0.594555 0.152039 0.793688
71 3 7.4011 14.6499 18.9058
72 1 8.20555 16.5698 17.1991
73 2 5.64091 14.826 13.9555
74 2 10.7249 15.6651 19.1533
75 2 13.0997 15.2655 18.0142
76 1 20.7872 0.61802 19.7926
77 2 16.2194 2.97102 10.0151
78 2 21.6531 1.27074 9.54163
79 2 15.7435 4.48278 8.97989
80 4 8.69772 13.5596 19.5749
81 3 12.1808 10.8181 19.2132
82 1 16.4498 14.1358 2.94765
83 2 16.7471 13.3199 3.55117
84 2 17.1171 14.5505 2.20281
85 2 16.2945 15.2141 3.30392
86 1 9.76275 15.0095 2.36748
87 2 21.0438 5.7746 3.81647
88 2 10.1066 16.1081 2.67834
89 2 10.7538 1.04434 13.8698
90 4 13.1579 11.6327 0.376316
91 3 12.1044 12.2073 1.6625
92 1 14.2505 13.0381 19.6656
93 2 14.0885 12.985 18.5159
94 2 13.9037 14.044 19.7649
95 2 15.2813 13.1264 0.125257
96 1 14.2138 10.6105 1.953
97 2 7.67992 17.0835 19.9385
98 2 15.3779 13.9706 2.62263
99 4 12.7785 11.2136 2.94929
100 3 11.9212 9.84837 3.27737
101 1 2.23594 0.842593 1.34391
102 2 18.0521 17.6319 16.7555
103 2 2.70571 0.406244 2.22336
104 2 5.87557 18.2188 3.15992
105 1 13.0978 12.3403 4.47476
106 2 12.6691 11.9604 5.43147
107 2 14.1536 12.5387 4.70036
108 2 12.6699 13.302 4.27265
109 4 11.028 8.54523 3.7203
110 1 10.4963 7.36985 2.29966
111 2 10.3722 8.05294 1.27101
112 2 15.054 10.9328 2.46143
113 2 9.42023 9.90094 5.21405
114 1 6.23907 15.5783 13.5058
115 2 5.69384 16.3556 13.1803
116 2 7.38025 15.5011 13.4678
117 2 0.196326 17.5287 11.2362
118 4 21.6732 6.90573 2.58423
119 3 20.6788 8.58379 2.86399
120 1 19.1597 14.0878 19.5789
121 2 1.66397 6.52451 0.726091
122 2 13.4722 8.2002 17.1035
123 2 3.05458 17.8884 16.1934
124 1 0.624111 6.94246 0.943938
125 2 7.74025 1.72118 17.83
126 2 12.257 17.2381 15.4466
127 2 1.69192 19.0114 14.331
128 4 20.28 8.4963 4.99168
129 3 18.7255 8.91665 5.16986
130 1 18.8128 12.7215 0.173291
131 2 19.8334 14.6318 19.12
132 2 20.4199 9.50053 2.02413
133 2 17.6231 12.688 0.320553
134 1 7.03826 2.51276 6.13744
135 2 16.1944 15.214 5.50625
136 2 10.5475 1.67607 12.1212
137 2 6.18864 2.82192 6.81111
138 4 17.725 10.1607 4.64873
139 3 18.4664 11.5918 5.31426
140 1 17.5862 10.4716 2.89594
141 2 16.9274 9.57451 2.55942
142 2 18.474 10.3278 2.29549
143 2 12.9097 13.0207 15.738
144 1 15.9077 9.66167 5.16513
145 2 16.0714 9.40472 6.22527
146 2 15.0365 10.4021 5.01984
147 2 15.5306 8.85044 4.51462
148 4 15.4583 6.38681 1.25323
149 3 14.3882 5.69559 0.214222
150 1 14.2778 9.16132 1.68787
151 2 14.6253 1.22785 7.58635
152 2 18.8901 15.4018 17.9163
153 1 14.6539 7.97993 1.50522
154 2 19.883 7.41039 19.8544
155 2 20.7829 14.9087 16.7293
156 2 20.7665 15.8784 9.01602
157 4 13.8703 4.27361 19.1678
158 3 14.6668 4.61472 17.7394
159 1 12.0023 4.36143 19.0965
160 2 11.8838 5.02886 18.2714
161 2 11.3242 3.4594 18.7057
162 2 11.6675 4.83979 0.230389
163 1 14.7758 2.87085 19.6825
164 2 15.3694 2.21566 18.6065
165 2 21.5851 17.0533 11.3258
166 2 18.6704 14.8365 17.4789
167 4 15.9088 4.02608 16.7461
168 1 15.8108 2.35626 16.4941
169 2 20.5244 16.7647 14.8178
170 2 14.8869 1.92828 16.8616
171 2 15.8354 2.09945 15.4318
172 1 17.8293 4.69654 17.1848
173 2 20.1338 10.089 13.6787
174 2 18.7045 4.27692 17.4888
175 2 13.4916 15.5504 17.4849
176 4 4.079 17.2939 8.42395
177 3 3.69272 15.7434 9.23507
178 1 3.11318 17.6194 6.98583
179 2 12.0882 3.7815 4.95343
180 2 12.4289 16.5656 1.6183
181 2 2.68139 17.3324 16.3104
182 1 11.7148 3.01506 4.21943
183 2 12.4309 3.08114 3.39854
184 2 11.3274 2.10054 4.7127
185 2 10.6819 3.46864 3.87518
186 4 4.31171 14.2583 9.46006
187 3 4.07636 13.2885 8.09408
188 1 3.32598 13.4636 10.8537
189 2 3.23661 12.3733 10.7293
190 2 4.12818 13.5708 11.6281
191 2 2.43812 14.0159 11.2228
192 1 6.09505 14.0507 9.93561
193 2 6.60242 13.9797 8.92889
194 2 6.62875 14.9268 10.452
195 2 6.14809 13.0881 10.4754
196 4 3.11486 12.4148 6.96762
197 3 3.29367 10.805 7.46618
198 1 3.87296 12.8629 5.25188
199 2 4.44173 12.1182 4.731
200 2 2.96907 13.0089 4.68694
201 2 4.45231 13.8064 5.24063
202 1 1.21258 12.8747 7.03441
203 2 0.674356 11.9014 7.07787
204 2 1.05688 13.3288 8.02945
205 2 0.833483 13.3263 6.12484
206 4 4.25963 9.48212 7.82062
207 3 5.04141 9.61092 9.34002
208 1 3.05169 8.22534 8.31918
209 2 3.36984 7.2352 7.96225
210 2 2.00739 8.29103 8.09223
211 2 15.4807 18.8026 13.791
212 1 5.49273 9.07174 6.4834
213 2 6.28374 9.74979 6.21508
214 2 5.89105 8.10945 6.7417
215 2 4.9198 8.90873 5.57135
216 4 3.80183 8.74081 10.0454
217 3 4.70335 7.53806 10.8046
218 1 2.58201 9.73701 11.1105
219 2 2.17675 10.4853 10.4252
220 2 1.67774 9.14543 11.308
221 2 3.03963 10.1031 12.0177
222 1 2.86696 5.49436 5.46513
223 2 2.72251 5.1806 4.44961
224 2 2.75259 6.58049 5.73154
225 2 2.16017 4.95847 6.05585
226 4 4.52142 6.25885 11.907
227 1 3.57306 4.72515 11.3212
228 2 3.93153 3.92915 11.9978
229 2 2.49375 4.80463 11.4227
230 2 3.87136 4.39936 10.311
231 1 6.27837 5.63949 12.0699
232 2 6.51442 4.75445 11.4702
233 2 6.98492 6.42105 11.7388
234 4 9.186 0.664425 10.3538
235 3 10.3782 18.5116 9.77509
236 1 7.56104 0.14357 10.1765
237 2 6.3639 0.481568 10.3206
238 2 7.48163 18.6612 9.14057
239 2 8.21744 3.39398 10.1271
240 1 8.37768 2.78331 6.55497
241 2 8.53701 15.5642 16.6781
242 2 8.77725 2.8428 7.6388
243 2 8.94916 2.80396 5.66345
244 4 10.8031 17.1263 10.5465
245 3 10.6565 16.072 9.25407
246 1 12.5451 17.3835 11.3133
247 2 13.0277 18.3236 11.0553
248 2 12.4829 17.2443 12.3888
249 2 13.2004 16.5455 10.9975
250 1 9.5046 16.5493 11.8036
251 2 9.53018 15.4467 11.9168
252 2 9.83065 16.9113 12.7765
253 2 8.46463 16.8336 11.635
254 4 11.3198 15.7492 7.73896
255 3 10.9402 14.1332 7.57778
256 1 13.1199 16.0095 7.37016
257 2 13.3262 15.2155 6.63854
258 2 13.3202 17.0273 6.99532
259 2 13.8488 15.7534 8.17448
260 1 10.1902 16.8346 6.66683
261 2 9.98338 16.4443 5.66529
262 2 9.29472 17.0615 7.20931
263 2 10.5927 17.8705 6.55997
264 4 9.86853 12.8697 7.86935
265 3 10.6243 11.519 7.15843
266 1 8.25749 13.2593 6.94612
267 2 8.28455 12.8422 5.92095
268 2 7.37979 12.7715 7.38085
269 2 8.1795 14.3566 6.89504
270 1 9.64503 12.7042 9.69536
271 2 9.32697 11.7109 10.0417
272 2 10.6037 12.851 10.2204
273 2 8.95173 13.4616 10.0983
274 4 11.298 10.2264 7.90485
275 3 11.7395 9.17427 6.74739
276 1 10.0222 9.44604 9.1159
277 2 10.1119 8.35481 9.04722
278 2 10.2452 9.67924 10.173
279 2 8.96033 9.69598 8.99576
280 1 12.8796 10.8014 8.78916
281 2 13.0514 10.2405 9.71811
282 2 13.8047 10.6394 8.21718
283 2 12.7592 11.8798 8.98533
284 4 11.7853 7.86627 5.69615
285 1 13.5166 7.21816 5.97893
286 2 14.2818 7.88335 5.59749
287 2 13.5996 7.41079 7.11389
288 1 10.8023 6.39821 6.29753
289 2 11.2166 5.98536 7.23203
290 2 9.75211 6.61262 6.42282
291 2 10.8228 5.66867 5.46923
292 4 19.4933 4.98818 8.68201
293 3 19.8927 4.78132 7.09132
294 1 19.3818 6.68011 9.39728
295 2 20.2471 7.22798 9.04719
296 2 18.6339 7.28265 8.81355
297 2 19.2758 6.90058 10.4507
298 1 16.6324 3.78043 4.42626
299 2 8.92389 17.3246 16.7753
300 2 5.38725 17.7772 8.65512
301 2 17.6924 6.30504 2.6405
302 4 18.4724 3.81608 6.7231
303 3 19.4042 2.32843 6.41573
304 1 16.6638 5.61092 2.56138
305 2 14.7234 18.505 12.4084
306 2 1.69079 3.62535 0.596523
307 2 4.52963 19.1326 1.38158
308 1 16.7654 17.6513 11.2637
309 2 3.32744 3.37875 17.6949
310 2 16.6373 17.2527 10.1493
311 2 20.6807 15.7724 3.12686
312 4 19.3309 1.159 5.21215
313 3 17.681 1.05632 4.60263
314 1 20.4269 1.76017 3.82542
315 2 19.9814 2.20039 2.6704
316 2 20.7736 2.67819 4.45018
317 2 21.5308 1.57074 3.69962
318 1 19.5599 18.447 6.06337
319 2 15.146 0.269326 11.2866
320 2 19.0133 17.9384 6.8307
321 2 20.5622 18.4834 6.87873
322 4 16.3771 1.86453 4.22639
323 3 16.4403 1.99426 2.63887
324 1 16.1607 4.68545 3.44633
325 2 0.279625 16.6123 4.85108
326 2 3.83817 0.307636 1.13142
327 2 15.0322 1.75687 5.02152
328 1 1.15986 16.509 4.01184
329 2 20.1964 15.5552 1.34423
330 2 2.28992 15.2429 16.6869
331 2 2.46871 5.99739 18.9859
332 4 16.2941 2.22932 0.954288
333 3 16.5956 0.328526 0.499654
334 1 8.74295 1.46149 1.96417
335 2 9.63526 0.844281 2.22482
336 2 7.9325 0.977106 1.61531
337 2 8.987 2.35885 1.27281
338 1 3.71298 2.5287 18.4285
339 2 3.46885 1.24208 18.5667
340 2 4.00077 2.7576 19.5798
341 2 4.49929 2.03027 17.8154
342 4 18.0189 18.7278 1.1174
343 1 19.7087 18.9694 0.154882
344 2 18.4054 13.716 18.9628
345 2 2.44853 3.67602 0.759008
346 2 2.12423 1.78181 1.35432
347 1 9.71884 15.5326 19.7541
348 2 9.39184 14.4031 3.22678
349 2 11.1181 6.70862 2.08166
350 2 11.3184 2.64068 7.43359
351 4 0.565925 16.8221 2.22098
352 3 1.53786 15.423 1.63429
353 1 18.0265 3.70057 8.51443
354 2 11.2183 17.761 2.76644
355 2 11.6792 18.0886 2.30155
356 2 14.927 0.107676 14.8564
357 1 16.5866 3.74328 9.19135
358 2 15.9593 14.1411 9.00165
359 2 20.5466 16.2844 8.5944
360 2 20.9713 9.77654 6.15186
361 4 0.696461 15.0701 0.137269
362 3 1.69136 14.432 19.0297
363 1 1.80239 0.932569 13.7869
364 2 2.39565 0.880215 12.7979
365 2 0.861204 1.74011 13.9506
366 2 2.64682 1.25595 14.3688
367 1 20.8117 16.1845 1.96763
368 2 3.0946 17.8937 9.29049
369 2 0.658899 8.38992 0.971079
370 2 2.29596 17.3385 7.09558
371 4 2.4952 14.0266 17.6557
372 3 1.59097 12.7274 16.9914
373 1 2.10755 15.6248 4.67504
374 2 8.89629 3.95154 9.73289
375 2 14.3396 1.9334 7.25438
376 2 2.4881 15.4294 5.80384
377 1 4.29494 13.4159 17.9929
378 2 4.91171 14.3445 18.029
379 2 4.33655 12.9825 18.9777
380 2 4.78148 12.7004 17.271
381 4 0.867285 11.9153 15.763
382 3 2.04215 10.7928 15.1843
383 1 0.944139 12.8422 14.0935
384 2 1.94378 12.4394 13.6466
385 2 0.114678 12.3787 13.541
386 2 0.731815 13.9543 14.2811
387 1 21.1884 11.6062 16.3187
388 2 20.303 10.795 15.7062
389 2 19.332 7.87363 19.7427
390 2 21.1425 10.8322 17.2545
391 4 2.27919 9.20293 15.6624
392 3 2.77154 8.37173 14.3305
393 1 3.80321 9.41764 16.7634
394 2 3.68639 10.2648 17.4364
395 2 4.35022 8.55494 17.2405
396 2 4.51852 9.7729 16.0147
397 1 0.845988 8.32682 16.4497
398 2 0.856989 7.40052 15.7433
399 2 0.849895 8.11665 17.4911
400 2 0.0641096 9.02307 16.1538
401 4 3.48367 6.80872 14.0445
402 1 1.84787 5.91374 13.9393
403 2 1.86023 5.02954 13.3236
404 2 1.4327 5.65545 14.919
405 2 1.23587 6.75685 13.6677
406 1 4.4402 5.72879 15.3177
407 2 4.07036 4.76948 14.9414
408 2 4.08705 5.78693 16.3814
409 4 10.8927 11.6202 15.4202
410 3 10.9095 11.8305 17.0575
411 1 11.1685 1.42775 12.9182
412 2 21.4697 5.29646 9.50462
413 2 17.8225 11.8421 5.87825
414 2 7.09378 2.28651 17.7914
415 1 12.2934 1.7618 12.3658
416 2 12.3382 2.1468 11.3533
417 2 13.8314 8.88433 17.9338
418 2 18.5643 2.74849 8.5949
419 4 10.5319 11.0798 18.3814
420 3 9.31948 11.7236 14.8728
421 1 10.1261 9.20376 18.2828
422 2 9.53531 9.37534 17.5259
423 2 11.1529 9.05871 18.1471
424 2 9.53714 8.94065 19.1575
425 1 9.13899 11.9007 19.3272
426 2 8.97412 11.6367 0.525701
427 2 7.53902 12.4857 2.9765
428 2 8.33051 11.7109 0.990247
429 4 8.54787 10.9259 13.6778
430 3 9.85537 10.337 12.6272
431 1 7.75599 12.0324 12.4196
432 2 8.3261 12.9514 12.1953
433 2 7.85135 11.4016 11.5187
434 2 6.67208 12.2093 12.4815
435 1 7.35818 9.61568 14.2697
436 2 6.371 9.99239 14.6545
437 2 7.0028 8.97287 13.4511
438 2 7.78623 8.89557 15.0141
439 4 10.8926 9.28645 13.4752
440 3 10.1157 7.92572 13.9914
441 1 11.4771 9.97607 15.0255
442 2 11.1729 9.18257 15.72
443 2 21.8378 3.71367 8.85051
444 2 12.559 10.0156 15.1099
445 1 12.1601 9.11391 11.968
446 2 11.5957 8.78575 11.0672
447 2 12.2244 10.1864 11.7269
448 4 9.8746 6.31804 14.2218
449 3 8.25992 6.0546 14.0623
450 1 10.5348 6.08083 15.9629
451 2 9.84625 5.52706 16.6101
452 2 11.4714 5.51814 16.0595
453 2 10.6751 7.03254 16.477
454 1 10.6372 5.22679 12.8974
455 2 11.502 5.75463 12.4542
456 2 11.0245 4.28614 13.3389
457 2 9.99729 4.87477 12.0648
458 4 6.85113 5.18248 13.8331
459 1 5.93607 5.61741 15.3678
460 2 6.45095 6.49625 15.7628
461 2 6.12595 4.82864 16.1143
462 1 7.29671 3.36973 13.5393
463 2 8.00021 2.9128 14.2444
464 2 6.38036 2.76052 13.6218
465 2 7.69604 3.2199 12.5031
466 4 20.3933 12.5258 10.1871
467 3 19.8441 11.6423 11.6214
468 1 18.9015 13.8429 10.5696
469 2 18.2074 13.9267 9.70969
470 2 19.3719 14.7932 10.7815
471 2 11.2864 0.263661 18.0214
472 1 12.3008 12.9058 14.862
473 2 12.1124 13.8038 14.3122
474 2 12.9838 12.3135 14.2009
475 2 20.5188 17.4765 14.6402
476 4 18.7112 12.7462 12.1556
477 3 17.2566 11.9612 12.3701
478 1 19.0447 13.5246 13.7426
479 2 20.0846 13.3253 14.1069
480 2 18.9205 14.6495 13.7817
481 2 18.4087 13.0513 14.5072
482 1 16.5749 16.0493 6.08519
483 2 17.5677 15.7392 6.41235
484 2 15.8783 16.1436 6.9216
485 2 16.4263 16.8769 5.40972
486 4 15.7874 12.2501 13.0624
487 3 14.6831 11.0866 12.6271
488 1 16.0861 12.258 14.9363
489 2 16.8691 11.5178 15.1379
490 2 16.5382 13.2389 15.133
491 2 15.1943 12.0348 15.5344
492 1 15.1313 14.0335 12.8188
493 2 14.9713 14.427 11.824
494 2 14.1052 14.0069 13.2048
495 2 15.7439 14.7785 13.3623
496 4 14.9743 9.48456 12.1856
497 3 15.9847 9.09391 13.4438
498 1 13.4627 8.53731 12.036
499 2 13.3918 7.44724 11.889
500 2 21.0792 14.9189 16.0497
501 1 15.7833 9.24363 10.5016
502 2 16.7677 9.70885 10.4198
503 2 15.9074 8.18383 10.3089
504 2 15.1441 9.66976 9.72284
505 4 16.4875 7.9766 14.6225
506 3 15.5448 6.61136 14.4974
507 1 18.2148 7.38072 14.3112
508 2 18.2571 6.42197 14.8744
509 2 18.4118 7.19953 13.2433
510 2 18.9086 8.11477 14.6195
511 1 16.8686 8.62492 16.3443
512 2 17.3372 7.82074 16.9053
513 2 17.6234 9.41451 16.1271
514 2 16.0297 9.05106 16.8929
515 4 15.6169 4.94497 14.5875
516 1 13.9612 4.25717 14.3407
517 2 13.9697 3.49544 13.5272
518 2 13.6157 3.67274 15.2061
519 2 13.1771 4.9892 14.0678
520 1 16.9689 4.37384 13.2905
521 2 17.7432 5.07204 12.9693
522 2 17.3415 3.37991 13.5692
523 2 16.4153 4.32681 12.3371
ITEM: TIMESTEP
18000
ITEM: NUMBER OF ATOMS
523
ITEM: BOX BOUNDS pp pp pp
6.4688476393362393e-02 2.1935311523606632e+01
5.6102442550352905e-02 1.9023860557449510e+01
5.8807705812069955e-02 1.9941192294187953e+01
ITEM: ATOMS id type x y z
1 4 7.29751 4.25058 2.69009
2 3 8.18282 5.56007 3.39284
3 1 17.6687 4.83805 4.77787
4 2 19.5816 9.81153 14.6095
5 2 7.49832 15.2119 3.16502
6 2 16.9741 5.72907 5.21234
7 1 20.7193 3.61582 9.14391
8 2 12.8753 17.9754 1.26152
9 2 16.0249 10.1077 8.44728
10 2 10.6805 15.9496 14.7691
11 4 8.18372 7.21196 2.99936
12 3 7.4226 7.13274 1.49644
13 1 7.37819 8.66341 4.09926
14 2 21.5033 16.7149 6.85578
15 2 7.03489 7.93512 4.81931
16 2 6.56703 9.27911 3.64639
17 1 8.61462 9.4043 4.61162
18 2 19.15 11.3593 8.80368
19 2 13.8505 1.79337 16.3518
20 2 10.1521 0.826173 17.9413
21 4 6.35118 6.11376 0.555485
22 3 6.54008 4.57466 1.35592
23 1 7.1083 5.66777 18.8795
24 2 8.17168 5.35011 18.9306
25 2 6.71949 4.80076 18.3298
26 2 6.97562 6.3227 18.0792
27 1 4.76612 6.66007 0.318479
28 2 3.84119 5.91261 0.152015
29 2 20.9075 18.3372 1.3163
30 2 4.46047 7.36223 19.485
31 4 6.8595 2.25825 3.87663
32 3 5.77746 1.66373 2.70855
33 1 15.9546 18.355 10.796
34 2 17.5281 18.979 9.34987
35 2 3.38203 15.8272 2.61437
36 2 3.73771 6.19872 4.49775
37 1 8.53368 2.87366 2.77196
38 2 13.8432 1.48367 1.05826
39 2 16.3213 10.5825 3.33325
40 2 8.93059 2.76487 3.6971
41 4 4.00726 16.7982 5.09809
42 3 4.93446 17.9282 4.64653
43 1 7.27494 14.2518 3.61364
44 2 20.4997 3.19572 10.2818
45 2 7.81469 13.488 2.91361
46 2 14.4643 18.068 2.92284
47 1 14.105 7.01531 5.81429
48 2 14.7781 7.66539 6.43193
49 2 13.4042 6.43677 6.47065
50 2 14.7375 6.32019 5.28187
51 4 4.31155 0.768896 3.13507
52 1 21.2222 0.0916129 0.89915
53 2 17.0878 3.13063 18.8892
54 2 4.9308 15.5484 4.55015
55 2 17.8248 17.0828 18.3297
56 1 10.0052 15.8004 0.963661
57 2 20.0905 2.94104 15.1039
58 2 20.5165 3.6942 14.6794
59 2 7.64149 14.2369 4.61432
60 4 7.89799 15.3091 19.2638
61 3 13.2371 6.38479 9.64495
62 1 6.78365 5.69007 7.12531
63 2 5.89148 5.04687 7.07211
64 2 6.8462 6.41569 6.27525
65 2 7.67639 5.05997 7.15418
66 1 13.8301 5.78366 8.90349
67 2 12.1183 3.07833 11.5795
68 2 18.4204 3.00996 17.6845
69 2 6.73191 6.31433 8.02499
70 4 1.04461 0.968386 0.257973
71 3 6.93889 13.8413 19.6629
72 1 7.85802 15.6437 17.465
73 2 4.58386 16.3636 14.1803
74 2 10.3259 14.1102 0.295216
75 2 11.4759 16.6544 17.6735
76 1 20.0293 0.679482 0.397941
77 2 16.0513 2.76406 8.78305
78 2 21.3946 17.3038 6.91436
79 2 16.3719 4.56889 9.3502
80 4 7.98505 12.7962 0.0829958
81 3 11.1479 10.8943 19.4188
82 1 17.9801 16.4208 5.42169
83 2 17.9485 16.0339 4.43847
84 2 18.9504 16.3316 5.81486
85 2 17.3249 16.0536 6.2093
86 1 10.3861 15.9502 2.18561
87 2 20.9122 5.01326 2.49573
88 2 10.8134 17.0424 2.36482
89 2 12.0405 18.4784 14.3694
90 4 12.337 11.8269 0.168512
91 3 11.4769 12.4484 1.61846
92 1 13.751 12.8969 19.579
93 2 14.1307 12.7119 0.739207
94 2 14.7221 12.4607 19.0736
95 2 13.3963 13.9079 19.3207
96 1 13.3282 10.3945 1.11563
97 2 4.62835 17.7726 19.6369
98 2 17.4783 17.4508 5.27788
99 4 12.1034 11.262 2.60906
100 3 10.9516 10.2703 2.88363
101 1 1.72832 2.24525 1.60957
102 2 17.8507 16.952 19.1127
103 2 3.97259 1.62617 4.31269
104 2 4.07594 17.5173 19.4536
105 1 13.3619 11.6512 3.93826
106 2 14.2158 12.1582 3.40175
107 2 13.0034 12.3522 4.70734
108 2 13.753 10.7713 4.43134
109 4 10.277 9.18868 3.98352
110 1 10.1267 7.53081 3.00297
111 2 10.5896 7.62585 1.89943
112 2 14.2045 10.77 1.60299
113 2 8.30577 10.3008 5.16486
114 1 5.39588 15.4861 14.1227
115 2 5.11185 14.4149 14.3807
116 2 6.32513 15.5546 13.5997
117 2 0.721592 16.8665 14.1266
118 4 21.7892 6.0777 2.28358
119 3 21.1045 7.24461 2.92054
120 1 19.6131 14.4501 19.3292
121 2 2.28575 6.56802 1.78091
122 2 14.2568 8.35085 17.0139
123 2 1.12409 17.4926 16.9263
124 1 1.58548 6.03664 2.43197
125 2 7.60423 3.0108 17.3701
126 2 10.4361 15.7318 15.4554
127 2 3.99532 1.67072 14.04
128 4 20.6118 7.59095 4.36045
129 3 19.3512 8.65767 4.04751
130 1 19.8942 15.6428 19.5844
131 2 19.1214 14.2185 18.3373
132 2 4.44967 18.8537 4.83992
133 2 14.6642 18.5413 3.5661
134 1 7.30605 1.75214 5.53437
135 2 16.4682 18.2299 6.9736
136 2 11.3868 0.695123 15.6658
137 2 6.71712 0.938728 5.95399
138 4 18.219 9.57689 4.79774
139 3 18.7583 10.8439 5.70065
140 1 17.398 10.1753 3.18362
141 2 17.3628 9.4242 2.43823
142 2 18.089 10.9265 2.82838
143 2 12.7964 12.2976 15.8878
144 1 16.9861 8.96928 6.02991
145 2 17.3635 9.03005 7.04541
146 2 16.1184 9.608 6.06664
147 2 16.4708 8.00362 5.69729
148 4 14.4395 6.24827 1.7635
149 3 13.9524 4.88022 0.996201
150 1 13.3689 9.01781 0.973781
151 2 12.6084 3.73449 7.38654
152 2 19.3193 1.38097 14.9549
153 1 13.6921 7.81388 1.31913
154 2 18.4186 15.9872 15.8411
155 2 2.66524 6.35099 6.17963
156 2 17.8146 12.8737 6.89401
157 4 13.5817 3.96926 19.3997
158 3 14.4903 4.1637 18.098
159 1 11.7502 4.33277 19.3294
160 2 11.366 4.8911 18.1647
161 2 11.2362 3.30163 19.3827
162 2 11.4881 5.00098 0.290405
163 1 14.1014 2.00915 0.133291
164 2 13.2419 1.56637 19.345
165 2 0.814541 16.5165 14.8575
166 2 21.179 1.61908 15.035
167 4 15.7735 3.22085 17.337
168 1 14.7121 1.67141 16.9927
169 2 0.366824 6.62295 11.7371
170 2 15.4591 0.935782 16.744
171 2 14.2335 1.40405 17.9493
172 1 17.5849 2.76454 18.0235
173 2 18.9258 10.0761 14.8631
174 2 17.2566 1.66607 18.082
175 2 10.9663 16.9208 18.031
176 4 4.35041 16.7333 8.32998
177 3 3.49272 15.9033 9.5456
178 1 3.26846 16.9632 6.63319
179 2 12.5503 3.69826 3.75856
180 2 13.2382 17.2784 1.07822
181 2 1.83146 17.0554 16.7365
182 1 11.4797 3.76882 3.43469
183 2 11.5113 4.629 2.77549
184 2 11.2003 2.91834 2.7761
185 2 10.6135 3.65661 4.19367
186 4 3.48322 14.4019 10.0496
187 3 3.11135 13.3245 8.62223
188 1 1.97628 14.3367 11.1039
189 2 1.838 13.3905 11.6194
190 2 1.95654 15.1111 11.8971
191 2 1.07787 14.5796 10.5099
192 1 5.13949 14.0282 10.8632
193 2 4.9012 13.5123 11.8484
194 2 5.73878 13.1869 10.4281
195 2 5.77183 14.9326 11.0714
196 4 2.91325 12.4286 7.29366
197 3 3.46433 10.896 7.43667
198 1 4.36973 13.2229 6.26467
199 2 5.20745 13.122 6.95238
200 2 4.63283 12.6719 5.34074
201 2 4.09644 14.273 6.06257
202 1 1.22366 12.4351 6.47059
203 2 1.47096 11.8142 5.65816
204 2 0.483712 11.7739 7.12147
205 2 0.791893 13.2301 5.93914
206 4 4.15176 9.59795 8.11743
207 3 4.35652 10.0777 9.69803
208 1 2.7776 8.4513 8.47916
209 2 2.86871 7.38417 8.39111
210 2 1.94962 8.67389 7.83051
211 2 15.3788 14.9923 15.7492
212 1 5.83844 9.14049 7.32408
213 2 6.2807 10.0223 6.80054
214 2 6.46181 8.59672 8.07197
215 2 5.51877 8.42273 6.52616
216 4 3.06969 9.13293 10.1933
217 3 3.55225 8.00047 11.3336
218 1 1.53113 10.0756 10.6217
219 2 1.49718 11.1232 10.2939
220 2 0.661884 9.53055 10.2028
221 2 1.31164 10.1409 11.6997
222 1 4.24116 5.29969 4.20544
223 2 3.53954 4.51849 3.95689
224 2 4.93953 5.04925 5.03642
225 2 4.8327 5.40704 3.33512
226 4 4.07713 6.69215 12.2629
227 1 4.0213 5.05888 11.4361
228 2 4.78913 4.54404 12.0469
229 2 3.02121 4.61672 11.4642
230 2 4.31942 5.1356 10.3693
231 1 5.92624 6.83743 12.5572
232 2 6.41669 6.29126 11.7286
233 2 6.25088 7.87769 12.4813
234 4 8.82268 0.555545 9.96276
235 3 9.69099 18.2192 10.4473
236 1 7.00221 0.37687 10.1337
237 2 6.52064 1.25755 9.41373
238 2 6.83826 1.31506 11.3045
239 2 10.3503 3.77631 8.81121
240 1 8.41687 2.07165 6.35101
241 2 7.31598 14.8527 16.7954
242 2 8.44963 2.0078 7.57406
243 2 9.18823 2.58838 5.7495
244 4 10.4845 16.758 10.4799
245 3 10.8206 16.0531 9.10674
246 1 12.3421 17.1662 11.0059
247 2 12.7423 18.1133 10.6014
248 2 12.3084 17.2473 12.1134
249 2 12.9417 16.2407 10.8975
250 1 9.45148 15.8167 11.8208
251 2 9.37866 14.7343 11.6567
252 2 9.87889 16.0528 12.7873
253 2 8.46287 16.2716 11.8622
254 4 11.026 15.9299 7.42134
255 3 10.7956 14.3115 7.18059
256 1 12.8181 16.2138 7.38166
257 2 13.0584 17.1981 7.78722
258 2 13.212 15.4363 8.05204
259 2 13.2993 16.1735 6.39373
260 1 9.72467 16.7444 6.33357
261 2 10.1925 17.131 5.4115
262 2 8.91844 16.0553 6.08442
263 2 9.30551 17.5814 6.9342
264 4 10.3249 13.0339 8.08144
265 3 11.1058 11.775 7.42274
266 1 8.5236 12.7103 7.80678
267 2 8.25396 12.2326 6.85469
268 2 8.2152 11.92 8.51041
269 2 7.91091 13.6038 7.985
270 1 10.5129 13.0842 9.98985
271 2 10.736 14.0763 10.3819
272 2 9.57223 12.7204 10.4513
273 2 11.3213 12.3831 10.2385
274 4 11.7041 10.4002 8.21878
275 3 12.1932 9.39789 7.05671
276 1 10.2734 9.61755 9.2444
277 2 10.2362 8.524 9.2611
278 2 10.3121 10.0204 10.2653
279 2 9.33031 9.97099 8.82895
280 1 13.2459 10.9805 9.19182
281 2 13.6585 10.1376 9.75589
282 2 13.9799 11.3892 8.49145
283 2 13.0342 11.7319 9.96433
284 4 11.7054 8.57656 5.69635
285 1 13.2592 7.99203 4.89283
286 2 13.111 7.66223 3.81712
287 2 13.9109 8.83813 4.72175
288 1 10.614 7.18084 6.34031
289 2 10.5723 7.05541 7.44012
290 2 9.5718 7.36759 6.05554
291 2 10.9449 6.21965 5.87088
292 4 19.4681 4.82366 8.54877
293 3 19.7803 4.70078 6.84065
294 1 18.9763 6.50542 9.22681
295 2 19.7316 7.04262 9.75937
296 2 18.7156 7.0415 8.26971
297 2 18.0806 6.38308 9.8248
298 1 17.5562 4.37449 3.40958
299 2 8.5001 16.0037 16.6169
300 2 5.86756 16.0052 8.06841
301 2 16.7859 7.17423 1.92427
302 4 18.479 4.01907 6.3142
303 3 18.7384 2.59581 5.76489
304 1 16.2892 6.18325 2.09278
305 2 14.9455 18.7067 10.2926
306 2 1.28314 1.90337 17.308
307 2 3.12576 18.5635 15.0112
308 1 17.0925 18.9047 10.3357
309 2 6.28714 0.964072 16.4926
310 2 17.848 18.128 10.7919
311 2 20.835 16.3956 4.16024
312 4 19.8585 1.92185 4.7852
313 3 19.4335 2.49939 3.29256
314 1 21.6944 2.68944 5.14244
315 2 0.690287 2.03895 5.24538
316 2 21.8706 3.4111 4.1971
317 2 21.8165 3.51051 5.98193
318 1 20.7841 0.537887 5.08402
319 2 15.8907 17.6678 11.7582
320 2 20.8073 0.0840164 3.76706
321 2 21.1375 18.7741 5.78843
322 4 17.798 2.58978 2.94257
323 3 16.8303 2.77319 1.5316
324 1 17.0944 5.31988 2.606
325 2 1.56637 18.2444 2.96903
326 2 2.95549 2.69016 1.78061
327 2 16.8512 1.94623 3.88891
328 1 1.66882 17.1964 3.20571
329 2 20.053 14.9482 2.90348
330 2 3.13361 17.6783 15.0021
331 2 1.99274 5.15854 2.59687
332 4 15.8334 1.83419 0.222951
333 3 16.4091 0.498125 0.0611075
334 1 9.02265 2.25494 1.48658
335 2 9.51517 1.36607 1.70018
336 2 7.93846 1.89725 1.20574
337 2 9.54833 2.93275 0.714724
338 1 5.74577 0.180133 15.8515
339 2 5.42669 0.990633 15.1775
340 2 4.88293 18.9308 16.0533
341 2 6.59313 18.5019 15.8921
342 4 17.4902 18.8312 0.908647
343 1 18.7677 0.720512 0.257868
344 2 20.6624 13.414 19.5084
345 2 1.44176 2.63836 16.913
346 2 1.15317 3.29979 1.47297
347 1 9.67268 15.1778 19.855
348 2 10.6204 15.3883 3.1498
349 2 10.5125 6.60552 3.67628
350 2 12.5751 2.93486 12.1713
351 4 0.467435 16.2789 2.26612
352 3 0.889175 15.4885 1.0017
353 1 17.9726 3.63876 8.10429
354 2 14.0992 1.85661 5.20184
355 2 13.6515 2.03448 5.80676
356 2 15.9503 14.9734 15.9213
357 1 16.6651 3.71217 8.77549
358 2 16.7911 10.2921 8.66687
359 2 17.5463 13.4843 7.48971
360 2 21.4995 5.97654 0.711489
361 4 0.285854 14.9737 19.4993
362 3 0.839864 13.5516 18.9639
363 1 3.07432 2.36459 13.9839
364 2 2.11639 2.0008 13.665
365 2 3.20523 2.8173 15.0867
366 2 3.19986 2.91541 12.9909
367 1 20.8465 15.7579 3.22789
368 2 4.299 18.1251 8.65436
369 2 6.4627 16.334 19.7668
370 2 2.6694 16.4203 7.03182
371 4 2.12837 13.5197 18.0834
372 3 2.74373 12.562 16.7917
373 1 2.88896 16.3101 3.55579
374 2 10.0368 4.23232 9.1018
375 2 12.5799 2.9641 7.55728
376 2 2.68973 15.3274 3.87501
377 1 3.41617 14.116 19.3115
378 2 4.56204 14.1051 18.9926
379 2 3.33763 15.1602 19.5298
380 2 3.4019 13.6117 0.492247
381 4 1.58255 11.7745 15.7791
382 3 1.87122 10.2337 16.4107
383 1 2.16253 11.9535 14.1103
384 2 1.58321 11.8398 13.1971
385 2 2.86673 12.7849 14.066
386 2 2.71996 10.9985 13.9191
387 1 21.8043 12.3631 16.3117
388 2 21.4269 11.1929 16.0599
389 2 18.0491 16.1598 16.5844
390 2 20.7413 13.1341 16.0651
391 4 2.77287 8.88985 16.7184
392 3 3.14816 8.08816 15.2203
393 1 4.38161 9.31359 17.5395
394 2 4.90619 9.98653 16.8379
395 2 4.41517 9.59662 18.5973
396 2 4.98149 8.32325 17.3687
397 1 1.65815 8.05258 17.9702
398 2 2.11469 7.69224 18.8316
399 2 0.97898 8.81396 18.4966
400 2 1.23103 7.16455 17.6025
401 4 3.19511 6.58909 14.5069
402 1 1.4658 5.94031 14.7123
403 2 0.635242 6.56018 14.3342
404 2 1.39329 5.06777 14.0319
405 2 1.27915 5.48334 15.7012
406 1 4.52599 5.43399 15.4407
407 2 4.65331 4.45529 14.9418
408 2 3.99623 5.181 16.3675
409 4 10.7391 11.3263 15.4181
410 3 10.6007 10.5412 16.8748
411 1 11.9974 0.598419 14.6184
412 2 21.6334 4.25114 9.57212
413 2 19.4275 11.3066 5.22454
414 2 8.07557 2.43611 17.2197
415 1 12.8693 1.49695 14.2152
416 2 13.6892 1.38618 13.5594
417 2 13.5397 8.38291 16.968
418 2 18.0999 2.53641 8.33685
419 4 9.88385 10.692 18.4164
420 3 9.40687 11.4005 14.5243
421 1 9.95473 8.68122 18.6137
422 2 9.11316 8.58559 17.9826
423 2 11.0795 8.28054 18.3197
424 2 9.57729 8.83328 19.7105
425 1 8.68678 11.9302 18.5292
426 2 7.71734 11.9602 17.8715
427 2 6.18417 14.1726 3.59947
428 2 9.72049 12.8228 0.606439
429 4 8.68334 10.2608 13.6257
430 3 9.77488 9.27628 13.0173
431 1 7.66472 11.006 12.2483
432 2 8.27952 11.4434 11.4528
433 2 6.92309 10.3383 11.8044
434 2 7.10541 11.8067 12.7466
435 1 7.28764 9.7731 14.8636
436 2 6.44186 10.4371 14.636
437 2 6.91215 8.80286 14.5745
438 2 7.75525 9.85232 15.8307
439 4 11.3003 8.91424 13.5549
440 3 10.9508 7.48131 14.4512
441 1 11.9109 10.089 14.6745
442 2 12.0028 9.43465 15.5889
443 2 20.501 2.65349 8.45107
444 2 12.9059 10.5226 14.5011
445 1 12.5227 8.92855 12.005
446 2 11.8946 8.47026 11.1988
447 2 12.6983 10.0085 11.7304
448 4 9.68893 6.37824 14.3285
449 3 8.14535 6.87711 14.0917
450 1 9.72519 5.36736 15.9814
451 2 9.12319 4.43998 15.9296
452 2 10.7739 5.10342 16.2199
453 2 9.22491 6.00587 16.7221
454 1 9.8784 5.56873 12.6235
455 2 10.674 6.06118 12.0495
456 2 10.2405 4.53327 12.65
457 2 8.89808 5.72337 12.1375
458 4 6.75787 6.03494 14.0372
459 1 5.85292 6.18263 15.6958
460 2 5.88958 7.25924 15.8387
461 2 6.48694 5.73769 16.4437
462 1 7.06667 4.13997 13.6474
463 2 7.99334 3.78312 14.0775
464 2 6.27882 3.5857 14.1654
465 2 7.0898 3.93166 12.552
466 4 20.16 12.1047 9.70496
467 3 19.5792 11.494 11.2414
468 1 19.4294 13.7787 10.1518
469 2 18.6926 14.0819 9.40094
470 2 20.1172 14.6224 10.2978
471 2 10.3168 1.35142 18.5025
472 1 11.9033 12.8085 15.4861
473 2 11.6466 13.5939 16.1802
474 2 12.1397 13.3076 14.5251
475 2 21.8592 7.19899 11.8184
476 4 18.7933 12.9625 11.6102
477 3 17.2677 12.5735 11.9163
478 1 19.6799 13.5151 13.2043
479 2 20.1512 14.4383 12.8606
480 2 18.9786 13.812 13.9873
481 2 20.5354 12.9232 13.5114
482 1 15.5099 18.6152 6.65348
483 2 15.6662 0.702536 6.73597
484 2 14.6002 18.2883 7.15417
485 2 15.2818 18.4057 5.63209
486 4 16.037 12.0646 12.8941
487 3 15.2958 10.6383 12.5285
488 1 16.7074 12.1597 14.6294
489 2 15.8852 12.1486 15.373
490 2 17.3019 11.2868 14.977
491 2 17.2189 13.1259 14.805
492 1 14.7086 13.4209 12.5207
493 2 13.8314 13.3939 13.1792
494 2 15.1572 14.4252 12.6134
495 2 14.3852 13.2623 11.4601
496 4 15.3929 8.9597 12.5771
497 3 16.1462 8.46249 13.9559
498 1 13.6762 8.29389 12.5066
499 2 13.5586 7.31932 12.9694
500 2 2.34347 6.17978 6.70241
501 1 16.4831 8.28455 11.1484
502 2 17.5448 8.35231 11.4612
503 2 16.143 7.27919 10.8631
504 2 16.3441 8.9619 10.2858
505 4 17.1264 7.2731 14.7122
506 3 16.3056 5.94788 15.0913
507 1 18.5429 6.71953 13.5549
508 2 19.0047 5.72431 13.7841
509 2 18.2148 6.68763 12.4852
510 2 19.3581 7.41556 13.4816
511 1 17.6101 8.29403 16.1513
512 2 18.6945 8.42158 16.2774
513 2 17.2893 9.37033 15.992
514 2 17.1105 7.97394 17.0723
515 4 15.5528 4.43939 15.1713
516 1 13.6857 5.03518 15.1472
517 2 13.2326 4.63934 16.0735
518 2 13.6747 6.13776 15.166
519 2 13.1123 4.73625 14.2617
520 1 16.3835 3.46691 13.7022
521 2 17.0577 2.66097 14.0428
522 2 15.6509 3.01153 13.0324
523 2 16.9911 4.23222 13.186
ITEM: TIMESTEP
18500
ITEM: NUMBER OF ATOMS
523
ITEM: BOX BOUNDS pp pp pp
6.1918260420501525e-02 2.1938081739579452e+01
5.3699914447411956e-02 1.9026263085552451e+01
5.6289327654848620e-02 1.9943710672345148e+01
ITEM: ATOMS id type x y z
1 4 7.62749 4.35638 2.79985
2 3 8.71549 5.56996 2.91221
3 1 17.4443 5.50084 4.95349
4 2 18.6377 10.15 14.3375
5 2 7.12019 13.7102 3.93949
6 2 16.809 6.29963 5.48718
7 1 20.3841 3.54556 8.9603
8 2 15.2671 15.8737 17.5532
9 2 13.9404 15.3807 9.21689
10 2 11.9786 16.3623 14.6625
11 4 8.39944 7.11457 2.36253
12 3 7.48753 7.03946 1.00109
13 1 7.33082 7.93682 3.64189
14 2 19.6649 15.3715 10.7495
15 2 6.59731 7.34039 4.1518
16 2 6.68945 8.50656 2.97713
17 1 8.19101 8.78669 4.44948
18 2 18.9514 11.125 8.23356
19 2 16.5126 0.934441 17.7992
20 2 9.03182 18.1676 15.8578
21 4 6.32789 5.87367 0.607807
22 3 6.41471 4.68555 1.69775
23 1 7.19415 5.32346 19.0188
24 2 8.23263 4.96979 19.0545
25 2 6.76742 4.56317 18.3406
26 2 6.98332 6.21683 18.4488
27 1 4.63312 6.56203 0.209035
28 2 3.53496 5.98055 0.37
29 2 0.42676 1.6615 1.23753
30 2 4.20342 7.44339 19.8343
31 4 6.88204 2.63594 4.02384
32 3 5.37459 2.23557 3.68459
33 1 15.9902 18.1448 12.0005
34 2 17.8625 18.877 11.5848
35 2 4.77309 16.6456 2.19043
36 2 4.57901 5.74196 5.98043
37 1 8.15251 2.51901 2.8103
38 2 15.0347 2.57306 2.36166
39 2 17.4294 10.8804 5.98415
40 2 8.98657 2.46516 3.43313
41 4 4.71661 17.7083 4.51992
42 3 4.17064 0.131487 5.07635
43 1 8.09311 13.4852 4.34366
44 2 20.1091 2.41351 9.48353
45 2 8.05795 13.1782 5.32966
46 2 14.2002 16.3522 3.79956
47 1 14.2783 7.90889 5.83293
48 2 14.0136 8.68989 6.55576
49 2 14.2374 6.97351 6.38333
50 2 15.3344 8.07433 5.47057
51 4 3.97773 1.70676 4.23643
52 1 20.9887 17.5887 2.49194
53 2 18.6981 4.26515 17.2137
54 2 6.22335 17.4085 4.2067
55 2 17.4497 13.036 2.11975
56 1 10.2086 16.7442 1.25713
57 2 6.86616 17.9671 6.28893
58 2 6.81926 18.2889 5.68442
59 2 8.7672 12.8273 3.65643
60 4 8.00969 15.1883 19.8762
61 3 13.51 6.71427 8.789
62 1 6.91483 4.89006 9.04268
63 2 7.47539 4.28316 8.32975
64 2 7.60055 5.49761 9.67257
65 2 6.34155 4.2012 9.66813
66 1 13.1344 5.65098 8.86411
67 2 12.0182 1.6264 10.8365
68 2 17.9786 4.07123 18.7969
69 2 6.22742 5.54243 8.48379
70 4 20.2216 0.305496 19.1423
71 3 7.82129 13.9739 1.42828
72 1 8.97902 15.2246 18.3627
73 2 6.34102 12.9327 16.7728
74 2 7.99788 17.3281 1.42339
75 2 17.2381 14.8509 15.8835
76 1 20.2536 17.2997 1.45412
77 2 15.6567 3.28412 8.46294
78 2 19.6476 15.99 10.8949
79 2 16.049 5.15322 8.11091
80 4 7.5887 12.7568 0.636576
81 3 10.5377 10.7215 19.7003
82 1 18.2747 17.4534 7.59332
83 2 18.5562 16.4639 7.39237
84 2 19.0484 18.1379 7.87233
85 2 17.5134 17.3617 8.36163
86 1 11.2939 16.0609 0.622595
87 2 2.79146 8.12241 2.5914
88 2 12.4102 16.2346 0.218042
89 2 12.8777 2.01189 15.9372
90 4 11.7485 11.5157 0.432198
91 3 10.9988 12.319 1.69364
92 1 12.5407 12.959 19.1643
93 2 12.8317 13.8381 19.7954
94 2 13.1012 12.8408 18.1813
95 2 11.6977 13.2116 18.6216
96 1 12.8116 10.5641 1.82113
97 2 5.66206 2.10233 16.312
98 2 17.8224 17.6662 6.64098
99 4 11.5862 11.4833 3.02089
100 3 10.324 10.6443 3.58917
101 1 0.070775 0.21318 19.9364
102 2 17.8366 13.045 1.51634
103 2 3.34954 3.17722 4.48337
104 2 5.61761 1.47054 16.3288
105 1 12.2953 12.711 4.19876
106 2 11.7948 13.6429 3.84234
107 2 11.9534 12.4396 5.20044
108 2 13.3846 12.8124 4.12524
109 4 9.90795 8.94572 3.83571
110 1 9.9749 8.01528 2.14481
111 2 9.93879 8.7427 1.22514
112 2 13.6591 11.057 2.18655
113 2 7.82659 9.06561 5.43525
114 1 6.64728 13.0677 15.7735
115 2 5.93291 13.4009 14.972
116 2 7.76586 12.9492 15.4555
117 2 0.262547 1.68921 15.5832
118 4 0.779754 6.87292 1.17684
119 3 21.1206 7.56673 1.91228
120 1 20.1002 15.5175 18.7976
121 2 2.06055 7.17462 3.84896
122 2 14.1376 7.97979 17.4883
123 2 3.35113 15.0042 14.2604
124 1 2.05252 7.39251 2.55316
125 2 9.07024 1.88956 17.034
126 2 11.9152 15.8143 14.3014
127 2 2.02042 2.36272 12.9849
128 4 20.2683 7.15294 3.20353
129 3 20.0036 8.62084 3.93394
130 1 21.2121 15.0113 18.9288
131 2 19.6175 16.1522 18.0453
132 2 2.56613 1.96274 3.38934
133 2 13.9701 16.8446 4.24973
134 1 7.64052 2.31454 5.61424
135 2 16.3748 0.338746 7.65379
136 2 11.4665 2.33783 14.5181
137 2 6.96502 2.36519 6.48501
138 4 19.2743 9.5844 5.05803
139 3 20.1719 10.9006 5.19123
140 1 17.4604 10.0852 5.1906
141 2 16.8161 9.30858 5.6236
142 2 17.0394 10.55 4.23235
143 2 13.0411 11.8388 15.4332
144 1 19.5254 8.76064 6.61213
145 2 20.0299 9.31552 7.36805
146 2 18.514 8.74241 6.97885
147 2 19.9156 7.72267 6.47016
148 4 14.0243 6.39641 1.18939
149 3 14.295 5.21933 0.135739
150 1 13.0768 9.21054 1.46989
151 2 12.569 2.67484 7.09788
152 2 20.4175 3.73963 12.3574
153 1 13.4459 8.09266 0.914834
154 2 18.9161 6.18369 1.48789
155 2 0.953778 5.08196 7.61454
156 2 16.226 12.6572 5.83121
157 4 14.5258 3.57371 19.7956
158 3 15.1739 3.1892 18.2228
159 1 12.7466 2.76838 19.4005
160 2 12.7888 2.80913 18.2813
161 2 12.1355 1.86928 19.9269
162 2 12.1216 3.64592 19.6713
163 1 15.2098 2.35523 1.16756
164 2 14.455 1.38223 0.933291
165 2 0.20772 1.06637 16.0864
166 2 20.9882 3.56258 12.5505
167 4 16.5007 3.38683 17.055
168 1 16.5392 1.56167 16.8943
169 2 0.497871 7.37024 11.4252
170 2 15.5151 1.73918 16.5298
171 2 17.2199 0.947996 16.289
172 1 17.8542 4.54877 17.9215
173 2 19.5074 9.90458 14.3829
174 2 18.0949 5.67123 18.4696
175 2 16.7362 14.1962 15.901
176 4 4.57081 16.1013 7.55157
177 3 3.97488 15.7849 9.08102
178 1 3.88917 16.7744 6.10453
179 2 13.4829 2.97871 3.53343
180 2 14.4767 16.2323 17.5171
181 2 3.25734 15.8934 14.3928
182 1 12.4164 3.26049 3.58055
183 2 11.8715 2.82695 2.70799
184 2 11.9459 3.20655 4.57099
185 2 12.5556 4.34426 3.2155
186 4 2.95277 14.1958 9.20719
187 3 3.42714 13.3093 7.91967
188 1 1.14511 14.6185 9.18886
189 2 0.615979 13.6783 9.06972
190 2 1.01131 15.0943 10.1708
191 2 0.788946 15.1848 8.31295
192 1 3.44063 14.0254 10.9835
193 2 4.50772 14.2203 11.1912
194 2 2.85871 14.8323 11.4155
195 2 3.24097 12.9549 11.2462
196 4 3.02743 12.0401 6.82089
197 3 3.73642 10.6545 7.5185
198 1 4.14022 12.492 5.33906
199 2 5.1351 12.7422 5.65548
200 2 4.29123 11.5986 4.691
201 2 3.68862 13.2786 4.73251
202 1 1.26009 11.9569 6.58234
203 2 1.06009 11.2161 5.72228
204 2 0.776573 11.7339 7.52514
205 2 0.922054 12.8892 6.14753
206 4 4.00658 9.66519 8.8166
207 3 3.97561 10.6189 10.2432
208 1 2.49304 8.79321 9.42654
209 2 2.63086 7.7255 9.35316
210 2 1.6283 9.02202 8.83507
211 2 14.334 16.5283 14.5308
212 1 5.69954 9.03058 8.36078
213 2 5.66989 8.23357 7.63466
214 2 6.26187 9.86237 7.97894
215 2 6.32841 8.6579 9.16827
216 4 2.81191 9.70023 11.025
217 3 3.64411 8.75926 12.1692
218 1 1.47082 10.577 11.9997
219 2 1.44355 10.0216 12.9527
220 2 1.69649 11.6633 12.0537
221 2 0.504571 10.5015 11.4797
222 1 3.94384 5.75086 6.85327
223 2 2.97033 6.09943 6.58131
224 2 4.36777 6.39619 7.6037
225 2 3.93552 4.74312 7.24683
226 4 4.22232 7.23796 12.6535
227 1 3.59413 5.95002 11.5074
228 2 3.43895 4.9519 11.9623
229 2 2.62345 6.18294 10.9806
230 2 4.34143 5.82813 10.7005
231 1 6.09386 7.16548 12.4559
232 2 6.34855 6.9882 11.4027
233 2 6.57195 8.09548 12.7984
234 4 8.28236 1.1024 9.44189
235 3 8.97091 18.5972 9.52631
236 1 6.67689 1.0118 10.103
237 2 6.48075 2.25695 9.69452
238 2 6.25263 1.26931 10.9326
239 2 9.96682 4.73404 9.45488
240 1 8.86095 2.95037 5.84584
241 2 8.38981 14.9804 17.3742
242 2 9.39701 3.09782 6.78154
243 2 9.52096 2.87945 5.09031
244 4 9.70872 17.3419 10.3696
245 3 10.0067 16.3654 9.11631
246 1 11.3246 17.5914 11.4092
247 2 12.111 18.2838 11.0978
248 2 10.9948 17.8935 12.3946
249 2 11.8244 16.617 11.5213
250 1 8.32736 16.5463 11.2955
251 2 8.25032 16.8726 12.3496
252 2 7.39488 16.7925 10.7568
253 2 8.37319 15.4453 11.2237
254 4 10.4839 15.8235 7.68634
255 3 10.0241 14.2566 7.36271
256 1 12.2278 16.3164 7.34106
257 2 12.3277 17.4159 7.33402
258 2 13.0568 16.0615 8.0171
259 2 12.443 15.9625 6.30431
260 1 9.64098 16.5438 6.23359
261 2 10.2289 16.3255 5.31698
262 2 8.68714 16.0379 6.02092
263 2 9.47868 17.6472 6.20252
264 4 9.99431 12.972 8.44918
265 3 10.7673 11.7466 7.66328
266 1 8.15941 12.593 8.68971
267 2 7.61969 12.5877 7.72968
268 2 7.97436 11.6418 9.2113
269 2 7.77903 13.422 9.29268
270 1 10.8637 13.2546 10.0841
271 2 11.8857 13.6461 10.0576
272 2 10.2884 13.8961 10.7652
273 2 10.9761 12.3149 10.6347
274 4 11.3329 10.2216 8.00547
275 3 11.5576 9.31776 6.59151
276 1 10.1551 9.35127 9.22891
277 2 10.3044 8.25414 9.23389
278 2 10.3077 9.71599 10.2549
279 2 9.09768 9.52577 8.96823
280 1 13.0352 10.5531 8.68875
281 2 13.0748 11.3971 9.3908
282 2 13.3998 9.64355 9.18231
283 2 13.7764 10.8176 7.91501
284 4 11.5241 8.15849 5.40463
285 1 13.2798 7.94119 4.67046
286 2 13.3164 7.01211 4.15718
287 2 13.6007 8.70611 3.96074
288 1 10.935 6.39233 5.8427
289 2 11.3283 5.79667 5.01817
290 2 11.2569 5.95657 6.78676
291 2 9.85964 6.4153 5.70641
292 4 19.2183 4.90476 8.63282
293 3 19.4251 5.75371 7.126
294 1 19.1637 6.31728 9.90205
295 2 18.8618 7.30785 9.48974
296 2 18.5691 6.22051 10.8407
297 2 20.1949 6.29322 10.1084
298 1 17.2083 5.06821 3.55331
299 2 9.87985 14.7144 18.7121
300 2 5.9866 15.7311 8.02838
301 2 14.8565 7.44286 2.64803
302 4 18.5371 4.5101 6.17319
303 3 19.0915 3.30357 5.43038
304 1 15.2401 6.37451 2.33311
305 2 16.7744 18.0158 12.8091
306 2 20.0734 5.26793 18.7334
307 2 19.7584 16.7825 14.0759
308 1 16.9564 18.9672 11.224
309 2 10.5863 0.529689 12.0801
310 2 16.6225 0.377675 10.2744
311 2 21.6227 16.6817 4.48162
312 4 20.078 2.19543 4.40932
313 3 19.6642 3.21412 2.62312
314 1 21.7009 3.01958 4.601
315 2 0.564271 2.36893 5.0675
316 2 21.4426 3.89225 3.58145
317 2 21.3284 3.85437 5.32287
318 1 19.7203 0.473368 4.75215
319 2 15.1429 18.5748 12.6129
320 2 19.9595 18.2604 4.37187
321 2 19.931 0.288775 5.89484
322 4 18.0759 3.59284 2.54032
323 3 17.4522 3.54566 1.11419
324 1 16.0166 5.63801 3.02809
325 2 2.14837 18.6051 2.37399
326 2 0.926519 1.492 1.7017
327 2 18.0333 1.24629 2.22948
328 1 2.66 17.7261 2.61165
329 2 20.8522 15.7199 3.01684
330 2 19.4044 16.2956 13.3595
331 2 2.83982 6.71405 2.24431
332 4 17.0294 1.93225 1.03414
333 3 17.2979 0.787119 19.7703
334 1 8.13496 1.80777 1.47169
335 2 9.09655 1.27783 1.42276
336 2 7.30748 1.04138 1.57768
337 2 7.91286 2.43202 0.627532
338 1 10.0529 1.08451 12.9265
339 2 9.63347 1.94098 12.1641
340 2 20.5273 0.66509 7.87588
341 2 21.1524 0.226208 8.07156
342 4 18.2066 18.3853 19.5956
343 1 19.842 17.9991 0.480139
344 2 1.26077 1.97736 17.9724
345 2 21.025 5.38024 18.6906
346 2 0.579146 1.27624 18.3579
347 1 9.09765 17.2707 1.43336
348 2 11.3326 15.3496 1.57345
349 2 10.9765 7.19107 2.2132
350 2 12.4093 2.1684 10.6285
351 4 1.24672 16.4052 2.07578
352 3 1.49667 16.109 0.463122
353 1 17.7011 3.80321 7.67846
354 2 11.5028 16.0927 3.9684
355 2 11.6637 15.3024 3.81154
356 2 14.9259 15.9849 14.0104
357 1 16.4775 4.02217 8.22451
358 2 14.2393 14.8073 9.56152
359 2 16.6437 13.4645 5.86083
360 2 0.78001 5.50949 0.857313
361 4 0.926768 14.9163 19.6323
362 3 1.28735 11.7032 0.332743
363 1 3.07514 2.30846 12.7619
364 2 3.45551 2.15316 11.6063
365 2 3.69218 2.93591 13.2556
366 2 3.39419 1.45111 13.03
367 1 21.2509 16.5412 3.49591
368 2 9.81658 1.59019 10.3719
369 2 6.88619 16.6492 19.871
370 2 2.83989 17.1707 5.54296
371 4 2.00835 12.5729 19.166
372 3 1.50586 12.075 17.7262
373 1 4.00479 17.1781 2.9177
374 2 10.4204 4.35209 9.63413
375 2 12.0405 2.82671 6.84798
376 2 3.89595 16.1867 3.52385
377 1 3.73513 13.0934 19.4515
378 2 3.88174 14.0723 18.8618
379 2 3.56948 13.3616 0.743377
380 2 4.47388 12.4078 19.0502
381 4 1.33129 11.4451 16.1547
382 3 1.99717 9.84185 16.0813
383 1 2.02073 12.9249 15.2128
384 2 2.09711 12.7666 14.1668
385 2 1.23038 13.7837 15.2663
386 2 3.03899 13.342 15.3181
387 1 21.6603 11.2257 15.2096
388 2 0.160643 11.8508 14.2397
389 2 18.3953 6.71418 1.77885
390 2 21.5484 12.2043 15.7768
391 4 2.84451 8.90459 17.136
392 3 3.26136 7.63423 16.1506
393 1 4.50771 9.44725 17.8864
394 2 5.257 9.48762 17.0267
395 2 4.7335 10.2015 18.6981
396 2 4.76932 8.49695 18.4287
397 1 1.80165 8.66946 18.7034
398 2 2.28706 8.83412 19.6784
399 2 0.811249 9.16331 18.8318
400 2 1.3471 7.60508 18.3782
401 4 3.44097 6.48257 15.0019
402 1 1.8686 5.45653 14.9066
403 2 1.36072 5.37289 15.8404
404 2 1.18798 5.75952 14.1026
405 2 2.12627 4.48481 14.4637
406 1 4.87337 5.24363 15.494
407 2 4.68873 4.24002 15.0874
408 2 4.77992 5.13392 16.591
409 4 10.7985 11.463 15.7798
410 3 10.3279 11.5149 17.3546
411 1 12.4038 1.68096 14.7897
412 2 21.3756 3.69549 9.35826
413 2 20.2663 11.4432 5.96116
414 2 9.42037 1.75472 16.5137
415 1 12.7033 0.887779 13.834
416 2 13.4318 0.0939176 13.7845
417 2 13.3258 8.61383 17.589
418 2 18.1564 2.77922 7.55772
419 4 9.65476 10.3922 18.3199
420 3 9.55161 11.7049 14.9497
421 1 9.58021 8.4815 17.6123
422 2 9.44331 8.40993 16.6364
423 2 10.652 8.30425 17.9066
424 2 9.18785 8.05521 18.5774
425 1 7.73816 10.9132 18.8547
426 2 7.56956 10.5007 17.8838
427 2 8.51818 14.4805 4.40869
428 2 7.76122 9.80863 19.2897
429 4 8.84745 11.2462 13.4576
430 3 10.0328 10.2821 12.7227
431 1 8.26546 12.4406 12.1921
432 2 8.12326 13.4999 12.4704
433 2 8.89445 12.4045 11.2967
434 2 7.29914 12.0287 11.8665
435 1 7.39426 10.4294 14.3832
436 2 7.11798 9.43269 14.0029
437 2 7.61651 10.1784 15.4328
438 2 6.46524 10.985 14.2454
439 4 10.9444 9.12664 13.5331
440 3 10.0389 7.73101 13.6545
441 1 11.386 9.64459 15.3144
442 2 11.2232 8.98531 16.1431
443 2 20.3214 3.05587 8.0203
444 2 12.4843 9.79527 15.2856
445 1 12.5446 8.68004 12.5207
446 2 12.0973 8.13772 11.654
447 2 12.8115 9.71907 12.2014
448 4 9.81801 6.06389 13.758
449 3 8.28716 5.86365 13.1566
450 1 9.9085 5.62957 15.5875
451 2 9.06556 5.9104 16.2402
452 2 10.0925 4.54292 15.7696
453 2 10.7831 6.1325 16.0421
454 1 10.9092 5.1017 12.5678
455 2 11.2256 5.74466 11.7474
456 2 11.8771 4.76896 12.9669
457 2 10.4084 4.23157 12.087
458 4 6.68843 5.62098 13.3748
459 1 6.34604 5.71211 15.2536
460 2 6.57769 6.76977 15.4657
461 2 7.01154 5.0758 15.845
462 1 6.3246 3.94619 12.6773
463 2 6.80816 3.10838 13.1467
464 2 5.25592 3.76053 12.716
465 2 6.59358 3.88402 11.6076
466 4 19.5922 12.2106 9.08599
467 3 19.6566 11.4719 10.7017
468 1 17.9501 13.222 9.59059
469 2 16.9976 13.0461 9.10601
470 2 18.1911 14.3003 9.53541
471 2 9.59348 18.1995 15.4494
472 1 12.2217 12.5512 15.4959
473 2 12.1654 13.2521 16.3407
474 2 12.1892 13.1223 14.5
475 2 21.4241 7.0441 11.4117
476 4 18.3086 12.4007 11.2621
477 3 17.1099 11.5574 12.0124
478 1 18.8476 13.3555 12.814
479 2 19.6063 12.6781 13.2314
480 2 19.3457 14.3327 12.6879
481 2 17.9659 13.4333 13.5054
482 1 15.4694 0.92314 7.9297
483 2 14.7523 0.302481 8.45749
484 2 15.1334 1.54362 7.07075
485 2 16.0489 1.42126 8.76575
486 4 15.6577 11.2314 12.6097
487 3 15.264 9.74255 12.1856
488 1 15.8343 11.5004 14.515
489 2 14.8158 11.517 14.9018
490 2 16.4241 10.6979 14.935
491 2 16.2152 12.5038 14.75
492 1 14.3644 12.4985 12.1899
493 2 13.4827 12.3521 12.8132
494 2 14.6429 13.5515 12.3579
495 2 14.0674 12.4284 11.1205
496 4 15.4476 8.15166 12.635
497 3 16.6305 8.15687 13.8752
498 1 13.6172 7.82028 13.0015
499 2 13.306 6.99867 13.6657
500 2 0.529146 5.72658 7.92785
501 1 15.962 7.07298 11.1888
502 2 16.8281 6.51168 11.5792
503 2 15.18 6.36415 10.9188
504 2 16.2865 7.57438 10.2626
505 4 17.0647 7.17184 15.1493
506 3 16.0892 6.00176 15.1798
507 1 19.0303 6.89698 15.135
508 2 19.1154 5.80311 15.1331
509 2 19.4227 7.30416 14.1796
510 2 19.5277 7.42916 15.9174
511 1 17.1885 8.10228 16.7433
512 2 17.7374 7.64813 17.5362
513 2 17.8584 8.96111 16.5272
514 2 16.2156 8.37434 17.0702
515 4 15.8275 4.333 15.0935
516 1 13.8789 4.18826 14.7758
517 2 13.4017 5.11187 14.4464
518 2 13.7596 3.46015 13.9658
519 2 13.256 3.86082 15.6038
520 1 16.4375 3.5796 13.5258
521 2 17.2454 2.82272 13.5995
522 2 15.5793 3.12457 13.0054
523 2 16.8445 4.31394 12.7715
ITEM: TIMESTEP
19000
ITEM: NUMBER OF ATOMS
523
ITEM: BOX BOUNDS pp pp pp
5.6460129410092819e-02 2.1943539870589817e+01
4.8966235459806384e-02 1.9030996764540035e+01
5.1327390372671644e-02 1.9948672609627337e+01
ITEM: ATOMS id type x y z
1 4 7.15127 3.98581 2.52957
2 3 8.22743 5.14278 2.87733
3 1 18.7724 6.01486 4.9946
4 2 15.7487 10.3355 7.87591
5 2 5.66861 13.4039 3.64416
6 2 18.7017 7.06375 4.99466
7 1 18.4261 3.47931 10.198
8 2 16.4827 14.2589 16.1799
9 2 13.9003 15.0314 10.7894
10 2 9.25258 17.7975 15.447
11 4 8.50466 6.73353 2.31576
12 3 7.37351 6.8696 1.16674
13 1 7.5715 7.47261 3.88861
14 2 21.0603 17.9434 12.5707
15 2 7.23941 6.61311 4.57399
16 2 6.60607 7.91163 3.47774
17 1 8.4079 8.42318 4.53893
18 2 19.0875 13.1177 7.58164
19 2 16.1339 0.831703 16.1905
20 2 9.70338 2.59757 15.9551
21 4 6.0197 5.9974 0.673036
22 3 6.46451 4.36948 1.16857
23 1 6.12227 5.92739 18.7542
24 2 6.24729 6.95424 18.408
25 2 6.55679 5.23824 18.0107
26 2 5.01092 6.08251 18.5599
27 1 4.48674 6.72772 1.41662
28 2 3.50521 6.54249 1.80164
29 2 20.0432 6.46146 0.757576
30 2 4.80107 7.67751 1.19359
31 4 6.63061 3.33319 4.83061
32 3 5.42021 2.58913 5.69824
33 1 16.9662 17.7297 12.6381
34 2 14.9111 18.4464 12.2528
35 2 1.90686 0.164846 2.35744
36 2 4.30647 4.9304 4.99848
37 1 7.39716 2.34236 3.38158
38 2 15.2065 3.29875 1.95479
39 2 17.7874 9.32406 4.97962
40 2 8.4563 2.62625 3.58217
41 4 4.2487 17.3087 3.76889
42 3 4.84916 18.6191 4.64714
43 1 6.69708 13.3542 4.03605
44 2 19.1882 2.81531 10.4626
45 2 7.28484 12.7237 3.42138
46 2 14.9584 15.1115 3.32048
47 1 14.8174 7.81436 5.4436
48 2 14.9234 7.28951 6.40287
49 2 15.0375 7.08674 4.6497
50 2 15.6479 8.5437 5.37742
51 4 4.26918 1.38919 5.2686
52 1 18.6579 16.8661 1.4388
53 2 18.8975 3.61922 16.914
54 2 4.84947 17.7872 2.56272
55 2 13.3539 18.2825 1.12648
56 1 9.9959 18.1979 0.812879
57 2 2.13298 2.07618 9.52763
58 2 1.85941 1.7095 8.98297
59 2 7.21503 14.328 3.93582
60 4 8.78528 15.7717 2.25871
61 3 12.2461 5.98961 9.47312
62 1 7.07161 4.18862 8.82567
63 2 6.98627 4.85061 7.98602
64 2 7.24806 3.16014 8.50752
65 2 6.15067 4.2046 9.42335
66 1 12.6455 4.93414 9.78587
67 2 13.0744 1.30604 8.29302
68 2 18.8129 1.99731 17.3587
69 2 7.89993 4.49441 9.491
70 4 21.4191 17.7132 17.7607
71 3 8.00576 14.8228 0.916871
72 1 8.69776 14.1128 17.7393
73 2 4.19205 14.48 15.4908
74 2 9.08217 16.6045 19.8642
75 2 17.4165 18.2503 16.4191
76 1 19.6013 16.6092 0.332425
77 2 15.8112 6.53643 8.23952
78 2 21.511 17.9275 13.0684
79 2 16.7305 6.7926 6.83293
80 4 8.54176 13.6589 19.513
81 3 10.9518 10.571 19.3908
82 1 19.483 17.5657 8.49564
83 2 19.494 16.9431 9.34429
84 2 19.578 18.6358 8.68065
85 2 18.5412 17.1693 8.03653
86 1 10.4406 18.9775 19.6796
87 2 3.50179 9.21792 2.38814
88 2 10.3849 18.7667 1.57762
89 2 13.7538 0.953396 15.4226
90 4 12.1784 11.1465 0.609929
91 3 11.5844 12.1588 1.96591
92 1 13.8003 11.2801 19.5873
93 2 14.7196 10.6264 0.176645
94 2 13.7244 10.7806 18.5932
95 2 13.943 12.2676 19.1911
96 1 12.8904 10.0957 2.11882
97 2 4.76138 2.03037 16.1567
98 2 20.3209 17.2092 7.89721
99 4 11.595 10.9814 3.23561
100 3 10.3339 10.139 3.67993
101 1 20.2372 16.5173 19.1006
102 2 13.1121 18.9569 1.49551
103 2 3.63589 1.4805 6.65508
104 2 3.86393 1.56499 16.2464
105 1 12.6313 11.9018 4.36564
106 2 13.5325 12.3862 3.98384
107 2 12.0043 12.5616 4.96748
108 2 12.9421 11.1814 5.16159
109 4 10.2228 8.38065 3.97708
110 1 10.3068 7.26986 2.42646
111 2 10.8373 7.55913 1.4716
112 2 13.7296 10.663 2.48781
113 2 8.09125 9.24543 5.20607
114 1 5.11367 14.8684 15.9542
115 2 5.35898 15.8798 15.7461
116 2 5.4739 14.2939 16.6995
117 2 0.574713 1.56287 15.8595
118 4 1.37529 9.34249 1.69126
119 3 0.146769 9.35842 2.85982
120 1 21.6804 15.927 18.3991
121 2 3.14344 10.2416 1.93372
122 2 13.2957 7.94294 18.2109
123 2 6.89575 16.0159 13.4569
124 1 2.73042 9.75795 2.7824
125 2 6.87066 1.02991 16.3009
126 2 8.66623 17.6524 15.5997
127 2 2.53593 2.00762 12.7548
128 4 21.0915 8.14082 2.83217
129 3 20.0848 8.24699 4.049
130 1 0.544519 15.8216 19.4769
131 2 21.3098 14.8332 18.0444
132 2 3.05758 1.24618 4.27818
133 2 15.4169 15.3218 3.94063
134 1 7.98181 4.10219 5.80925
135 2 15.9779 18.2047 6.35845
136 2 13.6517 18.2041 16.1583
137 2 7.7136 4.92027 6.4788
138 4 20.0642 9.79732 4.82066
139 3 21.0593 11.0311 4.33447
140 1 18.3444 10.2396 5.10473
141 2 17.9061 11.0581 4.40874
142 2 18.2185 10.6509 6.13725
143 2 12.4504 12.935 16.5721
144 1 20.7941 9.45282 6.5014
145 2 20.7847 10.3917 7.09834
146 2 20.3197 8.76502 7.21258
147 2 21.9264 9.3657 6.28827
148 4 14.5199 6.1969 1.83877
149 3 13.9399 5.12195 0.508518
150 1 13.227 8.8377 1.85044
151 2 7.33336 0.519818 6.93309
152 2 20.0875 2.22733 14.5829
153 1 13.6763 7.69245 1.67765
154 2 18.3405 12.6703 1.71421
155 2 2.59392 5.61103 7.90688
156 2 15.515 11.3206 6.4785
157 4 14.7353 3.82802 19.7213
158 3 15.705 3.89599 18.4587
159 1 13.4959 2.54523 19.0405
160 2 12.4466 2.89527 19.1538
161 2 13.7201 2.13041 18.2194
162 2 13.6254 1.58826 19.7664
163 1 15.1418 2.61805 1.17463
164 2 14.1453 1.64956 1.20561
165 2 0.527695 0.495575 15.7466
166 2 19.7852 1.69133 14.4885
167 4 16.5817 3.19294 17.2077
168 1 15.7648 1.40063 17.0409
169 2 0.701203 2.97027 13.1109
170 2 16.0285 0.881813 17.9507
171 2 14.7192 1.18744 16.7133
172 1 18.4745 3.02441 17.596
173 2 15.7688 9.7657 8.53584
174 2 18.8449 2.77336 18.6708
175 2 17.578 17.8329 15.8669
176 4 4.43059 15.5673 6.64839
177 3 3.68223 16.2974 8.13042
178 1 4.07157 15.998 4.83236
179 2 12.0706 1.26827 3.69472
180 2 15.9098 14.2748 15.8816
181 2 7.02783 16.6267 13.7625
182 1 11.5934 1.93588 4.43092
183 2 12.3297 2.05185 5.28811
184 2 11.4207 2.95602 4.02514
185 2 10.6365 1.53195 4.87417
186 4 2.69232 15.0563 8.43517
187 3 3.26613 14.1748 6.99145
188 1 0.970784 15.4267 7.89679
189 2 0.1698 14.6957 8.12194
190 2 0.669419 16.3867 8.37163
191 2 1.00241 15.463 6.77923
192 1 3.1152 14.2086 10.0946
193 2 2.9339 13.1506 10.3073
194 2 4.17105 14.3319 10.3146
195 2 2.47098 14.6602 10.826
196 4 3.32696 12.3976 6.94508
197 3 4.06834 11.6061 8.19226
198 1 4.02974 12.0335 5.30995
199 2 5.04824 12.3737 5.22833
200 2 4.13215 10.9029 5.21803
201 2 3.34466 12.4386 4.54458
202 1 1.46598 12.3169 6.79353
203 2 0.986983 11.313 6.42659
204 2 0.893286 12.6691 7.61201
205 2 1.28256 13.0846 6.00407
206 4 4.22961 10.0749 9.02238
207 3 3.94516 10.1944 10.6272
208 1 2.54563 9.09803 8.80031
209 2 2.50025 8.33523 8.00291
210 2 1.79485 9.84217 8.50432
211 2 14.6366 14.5732 13.9947
212 1 5.67758 8.99211 8.59103
213 2 5.79216 9.07739 7.50175
214 2 6.58084 9.14149 9.18827
215 2 5.2952 7.9543 8.78728
216 4 2.45321 9.12065 10.8126
217 3 3.44632 7.83773 11.4313
218 1 1.69059 10.3345 12.1293
219 2 0.679081 10.044 12.3222
220 2 2.43218 10.2948 12.9568
221 2 1.76432 11.4101 11.7646
222 1 4.64168 5.72252 5.68603
223 2 4.44478 5.3439 6.71324
224 2 4.17136 6.65166 5.51201
225 2 5.72117 5.84114 5.64431
226 4 3.76332 6.47566 12.2378
227 1 3.17167 5.11204 11.1079
228 2 2.46722 4.40862 11.5273
229 2 2.6251 5.6769 10.3096
230 2 3.91697 4.51575 10.6112
231 1 5.60865 6.63573 12.2483
232 2 5.9625 6.58204 11.2109
233 2 5.71314 7.67884 12.558
234 4 7.92584 0.794068 9.871
235 3 8.88076 18.4886 9.46791
236 1 6.35154 0.0883816 10.3278
237 2 5.47469 18.6658 10.001
238 2 6.61946 17.8006 10.4338
239 2 11.1452 2.91607 8.73756
240 1 9.07623 3.36901 6.1712
241 2 9.81635 14.0683 17.4641
242 2 9.91762 3.79975 6.7637
243 2 9.29694 2.38625 5.57559
244 4 8.97334 16.8235 9.64252
245 3 9.31645 16.076 8.21795
246 1 10.4265 16.6385 10.7594
247 2 10.2581 16.4725 11.8418
248 2 11.0159 15.8613 10.2595
249 2 10.9885 17.6169 10.7904
250 1 7.55114 15.7681 10.1915
251 2 6.88672 15.5966 9.34046
252 2 7.99044 14.8112 10.5132
253 2 7.01685 16.182 11.0528
254 4 10.3713 15.713 6.98065
255 3 10.887 14.0862 7.19474
256 1 12.0595 16.4652 6.62782
257 2 11.9948 17.5444 6.59896
258 2 12.8245 16.279 7.40752
259 2 12.4973 15.9884 5.74965
260 1 9.34955 15.7372 5.45112
261 2 9.73453 14.9966 4.75544
262 2 8.41236 15.3439 5.81208
263 2 9.23562 16.6675 4.88252
264 4 10.2093 12.7965 8.07601
265 3 10.7414 11.2227 7.61922
266 1 8.29226 12.6765 8.05436
267 2 7.92114 12.5996 7.02716
268 2 7.96884 11.8249 8.68925
269 2 7.8006 13.531 8.52343
270 1 10.8991 13.2972 9.71115
271 2 11.8867 13.7588 9.56466
272 2 10.2501 14.1272 10.0266
273 2 10.9805 12.5022 10.4595
274 4 11.0649 9.61723 8.14393
275 3 11.138 8.64054 6.81154
276 1 9.6038 8.90009 9.2322
277 2 9.60634 7.79434 9.13317
278 2 9.60523 9.18878 10.2926
279 2 8.64869 9.25157 8.79493
280 1 12.797 9.76367 8.8652
281 2 12.7942 10.3654 9.777
282 2 13.279 8.80354 9.06698
283 2 13.3254 10.2812 8.05498
284 4 11.798 7.74569 5.62544
285 1 13.4887 8.50969 5.27645
286 2 13.4972 8.81452 4.20917
287 2 13.5249 9.4969 5.84022
288 1 11.5832 5.94875 5.91057
289 2 11.179 5.44362 5.00507
290 2 12.5598 5.43969 6.08451
291 2 10.9324 5.69392 6.75836
292 4 18.9128 5.22986 9.40343
293 3 19.9858 5.358 8.16064
294 1 19.212 6.6753 10.6354
295 2 20.0777 7.2783 10.3853
296 2 18.8959 6.56191 11.6921
297 2 0.487791 2.45983 13.6125
298 1 17.9092 5.35988 3.96773
299 2 8.53157 15.1639 17.6775
300 2 5.76592 15.1227 7.11566
301 2 16.5503 6.2611 0.817804
302 4 18.9619 5.24108 6.70356
303 3 19.1766 3.46015 6.34968
304 1 16.4502 6.1381 2.05347
305 2 18.0742 17.607 12.1724
306 2 21.246 6.14082 17.3402
307 2 1.46707 15.194 12.5962
308 1 16.1257 18.3509 11.6773
309 2 13.401 1.56568 12.489
310 2 16.2223 18.9801 10.5964
311 2 17.6372 18.0039 2.75638
312 4 19.7103 2.34156 5.23052
313 3 19.668 2.45923 3.52057
314 1 21.3965 1.99473 5.68738
315 2 21.8544 2.65933 6.78818
316 2 21.6193 0.770129 6.06642
317 2 21.6393 2.10698 4.58868
318 1 18.9706 0.381344 5.73968
319 2 16.7264 17.6835 13.6283
320 2 18.041 0.254052 5.03124
321 2 19.4277 18.4089 5.76493
322 4 18.795 3.78633 3.05726
323 3 17.7741 3.34923 1.89282
324 1 17.244 5.93885 2.98407
325 2 1.92282 18.1367 19.8081
326 2 19.9868 6.97349 19.8115
327 2 16.3931 1.14681 3.02007
328 1 2.17045 17.4693 0.763947
329 2 18.0315 16.2973 3.54765
330 2 1.69884 14.461 12.3502
331 2 2.68055 10.1852 3.67193
332 4 16.7492 1.79371 1.71202
333 3 17.6181 0.873424 0.842325
334 1 7.32103 0.917455 2.89127
335 2 7.16121 0.087092 3.69531
336 2 6.63204 0.82885 2.0668
337 2 8.26157 0.818238 2.3693
338 1 12.8064 1.65871 13.3083
339 2 11.9392 2.34286 13.187
340 2 21.1296 1.71159 11.383
341 2 21.4528 1.65902 11.92
342 4 18.3934 18.582 0.283307
343 1 19.4149 17.6267 18.9408
344 2 3.80177 15.7117 18.7583
345 2 20.9913 6.65727 17.0407
346 2 4.38491 16.0238 18.0568
347 1 9.59912 16.917 1.03426
348 2 11.6519 0.0558025 19.4336
349 2 10.8544 6.24409 2.86481
350 2 13.2125 0.826179 8.84677
351 4 2.03015 15.6518 0.573265
352 3 1.90359 14.466 1.57254
353 1 17.4892 5.14495 8.02687
354 2 12.4631 14.2746 0.888039
355 2 12.6555 15.008 0.912185
356 2 15.2319 15.0615 13.44
357 1 16.6679 6.21891 7.66298
358 2 13.7682 15.7466 10.7572
359 2 15.4469 10.9007 5.99072
360 2 1.29552 7.83714 1.10811
361 4 0.868542 13.547 0.230094
362 3 0.251008 10.1698 0.516837
363 1 2.90225 1.18444 12.0683
364 2 3.18215 1.45092 11.1804
365 2 3.86353 1.1184 12.6513
366 2 2.295 0.211991 12.2867
367 1 18.1324 16.9268 2.67901
368 2 6.25115 18.7467 11.6756
369 2 8.30457 17.0624 3.37957
370 2 3.70691 15.1405 4.56951
371 4 1.37016 10.818 19.8197
372 3 1.01739 11.4121 18.3516
373 1 2.53616 18.405 1.98357
374 2 10.6045 2.48981 8.56723
375 2 8.05776 18.893 6.98029
376 2 3.08708 0.124902 1.31225
377 1 3.04085 11.5697 0.292628
378 2 3.02286 11.871 1.3496
379 2 3.91779 11.2875 19.5404
380 2 2.44791 14.2997 19.0765
381 4 1.40014 11.5648 16.6565
382 3 2.90922 10.7977 16.1494
383 1 1.69813 13.3218 16.4763
384 2 1.27396 13.5706 15.5218
385 2 1.08074 13.915 17.231
386 2 2.79462 13.6506 16.4978
387 1 21.9219 11.011 15.635
388 2 21.8759 10.0411 16.1734
389 2 18.8592 12.845 1.23813
390 2 21.0159 11.3713 15.2519
391 4 3.51181 9.3282 16.465
392 3 3.42238 8.38562 15.0267
393 1 5.24784 9.89585 16.9112
394 2 5.64518 10.0499 15.8763
395 2 5.18943 10.7452 17.613
396 2 5.76535 9.09936 17.4428
397 1 2.61906 8.62053 17.9504
398 2 3.47593 8.29607 18.7319
399 2 1.80646 9.18539 18.3761
400 2 2.25742 7.80205 17.4056
401 4 3.0442 6.83799 14.5537
402 1 1.21414 6.38319 14.4631
403 2 0.834894 5.8155 15.3116
404 2 0.679694 7.37221 14.3411
405 2 1.05857 5.75408 13.5498
406 1 4.122 5.44361 15.2393
407 2 3.69733 4.48457 14.8883
408 2 3.94758 5.33037 16.3294
409 4 10.4177 11.7947 15.7084
410 3 9.79248 10.8885 17.0863
411 1 12.969 0.153341 15.5792
412 2 17.8416 2.94039 9.41958
413 2 21.6843 10.5871 3.57503
414 2 6.52578 1.73019 16.519
415 1 13.1003 0.521145 14.1167
416 2 12.0642 18.9666 16.2332
417 2 12.4507 7.70751 18.168
418 2 16.9439 4.18164 8.30395
419 4 9.51263 10.6492 18.8074
420 3 9.30274 12.1157 14.6247
421 1 8.46782 9.16328 18.8583
422 2 8.16178 8.65008 17.9075
423 2 9.23521 8.54268 19.234
424 2 7.76616 9.46081 19.6233
425 1 8.46705 11.905 19.7236
426 2 7.92214 11.745 18.8463
427 2 6.78555 12.9332 5.06746
428 2 7.84584 11.7687 0.655765
429 4 8.4258 11.5282 13.351
430 3 9.32896 10.2651 12.8188
431 1 8.14637 12.6946 11.9713
432 2 7.28446 12.259 11.4405
433 2 7.96713 13.6956 12.3955
434 2 8.98006 12.7362 11.267
435 1 6.75577 10.9685 13.8451
436 2 6.09047 11.1687 12.9943
437 2 6.71769 9.89529 14.1331
438 2 6.29543 11.482 14.7399
439 4 10.5633 9.40089 13.5099
440 3 9.99012 7.91299 13.8427
441 1 11.3912 10.4017 14.8743
442 2 12.0117 9.83139 15.5932
443 2 17.9135 3.24561 11.0788
444 2 12.2336 10.973 14.4324
445 1 12.0551 9.01163 12.3698
446 2 11.5083 8.50203 11.563
447 2 12.2855 10.0063 11.9117
448 4 9.60692 6.30064 13.744
449 3 8.04642 6.15816 13.406
450 1 10.0281 5.76234 15.486
451 2 10.6031 6.54781 15.9829
452 2 9.07671 5.51666 15.964
453 2 10.6759 4.90719 15.3218
454 1 10.599 5.41975 12.3607
455 2 9.97662 4.7533 11.7552
456 2 11.0733 6.23422 11.7949
457 2 11.3891 4.79667 12.8313
458 4 6.50472 5.52989 13.4439
459 1 5.66411 5.50228 15.0966
460 2 6.02622 6.44078 15.5794
461 2 5.96018 4.62064 15.7
462 1 6.79039 3.71289 12.8698
463 2 7.47577 3.57266 12.0314
464 2 7.17159 3.15959 13.7449
465 2 5.75055 3.31935 12.762
466 4 19.8328 13.4871 8.86774
467 3 19.643 11.9446 9.64073
468 1 18.5443 14.2693 10.1567
469 2 17.64 14.788 9.80406
470 2 19.0735 15.0064 10.7688
471 2 9.30855 2.25501 16.5784
472 1 11.657 13.2143 15.9283
473 2 11.3049 14.1313 16.3742
474 2 12.1173 13.4547 14.9616
475 2 1.17296 8.46789 10.7827
476 4 18.691 12.5755 10.8945
477 3 17.4126 11.6172 11.2519
478 1 19.6802 12.7264 12.5587
479 2 19.294 12.0401 13.2949
480 2 20.7468 12.621 12.4754
481 2 19.5935 13.7374 13.0273
482 1 15.3495 17.8164 7.15447
483 2 14.4502 18.5094 6.74477
484 2 15.6776 18.3657 8.05888
485 2 15.1705 16.6791 7.16595
486 4 15.9676 11.3621 12.0485
487 3 15.5346 9.81823 11.9565
488 1 16.1689 11.8664 13.8276
489 2 15.1501 11.932 14.2765
490 2 16.6769 11.1602 14.4773
491 2 16.7079 12.8239 14.0406
492 1 14.6732 12.262 11.1471
493 2 13.7673 11.9143 11.6618
494 2 14.7951 13.353 11.2361
495 2 14.521 11.9086 10.107
496 4 15.0224 8.31699 12.4504
497 3 15.8681 7.81024 13.6905
498 1 13.1764 8.28106 12.8761
499 2 12.8576 7.63165 13.6978
500 2 2.19177 4.88053 8.09238
501 1 15.6184 7.25308 11.0508
502 2 15.8436 6.25934 11.4339
503 2 14.9197 7.09474 10.2254
504 2 16.4823 7.75612 10.6294
505 4 16.7584 7.76476 15.0903
506 3 16.9369 6.20954 15.7559
507 1 18.4975 8.14434 14.646
508 2 19.3052 8.44692 15.3577
509 2 18.8834 7.17498 14.2083
510 2 18.5574 8.92842 13.8531
511 1 15.7958 8.64131 16.5084
512 2 15.8932 8.12407 17.462
513 2 16.0216 9.72539 16.7619
514 2 14.7305 8.53243 16.2358
515 4 16.0964 4.76807 15.6736
516 1 14.233 5.16031 15.389
517 2 13.767 5.73917 16.1954
518 2 14.205 5.7069 14.4233
519 2 13.6421 4.22737 15.2905
520 1 16.7629 4.09408 13.9366
521 2 17.5681 3.38756 14.1203
522 2 15.9618 3.51065 13.4537
523 2 16.9269 4.9369 13.2668
ITEM: TIMESTEP
19500
ITEM: NUMBER OF ATOMS
523
ITEM: BOX BOUNDS pp pp pp
5.4127179645229617e-02 2.1945872820354715e+01
4.6942935678247366e-02 1.9033020064321565e+01
4.9206526950058560e-02 1.9950793473049906e+01
ITEM: ATOMS id type x y z
1 4 7.48979 3.83192 3.28954
2 3 8.63299 4.95783 3.81489
3 1 18.0966 5.31953 5.64315
4 2 16.2479 10.5963 7.65618
5 2 6.53326 12.3467 3.28238
6 2 17.677 6.21277 6.09552
7 1 18.6283 4.81292 11.1421
8 2 18.8107 12.2603 0.653204
9 2 15.7444 14.6333 8.9513
10 2 9.13237 17.5372 16.3735
11 4 8.53235 6.47856 2.94685
12 3 7.13059 6.75113 1.8903
13 1 7.88734 7.66547 4.28046
14 2 1.17562 15.5136 12.9773
15 2 7.60143 7.17442 5.23747
16 2 6.94478 7.96248 3.8682
17 1 8.81285 8.85446 4.36697
18 2 18.1767 14.3421 8.81869
19 2 16.1046 0.856481 17.5579
20 2 9.52122 2.76348 16.6877
21 4 6.30766 5.52549 1.06838
22 3 6.81963 4.05369 1.72762
23 1 6.99629 5.52349 19.3139
24 2 7.09468 6.51627 18.9264
25 2 8.02366 5.22725 19.0915
26 2 6.29998 4.87966 18.6465
27 1 4.50854 5.70404 1.45469
28 2 3.88856 6.24073 0.806237
29 2 4.23825 4.03571 1.44789
30 2 4.52096 6.10149 2.46557
31 4 6.55877 2.17482 4.52418
32 3 5.17814 1.38592 4.32373
33 1 16.3879 16.5318 12.0943
34 2 17.2353 18.3058 13.2409
35 2 1.00725 16.872 3.41182
36 2 3.9331 6.62508 5.16883
37 1 7.93632 1.97542 3.21212
38 2 14.2999 2.34363 1.70791
39 2 17.6615 9.15519 3.39507
40 2 8.93975 1.702 3.76165
41 4 3.35827 17.662 2.90701
42 3 3.0471 18.9931 3.72499
43 1 7.14807 12.1269 4.21185
44 2 19.3122 5.2755 11.9325
45 2 7.66069 11.1798 4.1115
46 2 19.5984 16.5683 3.08052
47 1 14.511 7.16424 4.85939
48 2 14.7891 6.54851 5.73941
49 2 14.1946 6.43853 4.09228
50 2 15.4511 7.56936 4.46511
51 4 3.6424 0.922614 4.84128
52 1 18.5274 16.2659 17.8665
53 2 18.9845 4.6064 17.5789
54 2 4.10999 17.2319 1.70723
55 2 13.132 15.0776 1.43714
56 1 10.6778 18.9724 19.4933
57 2 21.6867 2.10023 10.3534
58 2 0.0893277 2.58315 11.2803
59 2 7.88638 12.8939 4.26272
60 4 9.49922 16.9515 19.8227
61 3 12.2208 6.0857 10.3133
62 1 6.40945 3.5006 9.19489
63 2 7.23313 4.21648 9.2257
64 2 5.52803 4.06785 8.93578
65 2 6.23743 2.96171 10.1285
66 1 11.6703 5.23959 9.8095
67 2 15.2506 2.79187 11.7693
68 2 18.6263 3.66754 19.1363
69 2 6.64442 2.8123 8.37295
70 4 21.5588 17.803 19.3322
71 3 9.68892 15.2091 19.4805
72 1 7.03788 13.764 18.6509
73 2 6.05385 17.516 14.2327
74 2 11.5296 16.9004 18.7359
75 2 19.2765 13.4927 16.5277
76 1 19.3011 16.8082 18.853
77 2 15.1192 5.13851 7.44649
78 2 0.959179 15.717 12.3859
79 2 15.7174 6.33359 8.77965
80 4 8.62117 13.834 19.7566
81 3 10.9412 10.4513 19.3341
82 1 20.2504 17.7002 9.40211
83 2 19.9611 17.4587 10.3829
84 2 20.5041 16.8379 8.74038
85 2 21.0299 18.5195 9.35239
86 1 10.4242 18.1811 0.887028
87 2 3.80776 8.4312 2.12296
88 2 10.9332 0.778273 20.1178
89 2 12.0756 0.190598 15.0994
90 4 12.3342 11.2959 19.7373
91 3 11.6144 12.0848 1.60263
92 1 12.9106 12.6506 18.519
93 2 12.4191 13.6213 18.6415
94 2 13.8637 12.9404 18.8875
95 2 13.0046 12.3644 17.6176
96 1 13.6703 10.5571 1.0218
97 2 20.8632 3.93647 16.6597
98 2 19.3502 17.9737 8.78022
99 4 12.4572 10.84 2.37927
100 3 11.2947 9.85068 2.82199
101 1 20.5545 16.2151 19.5275
102 2 13.0862 14.4218 1.2221
103 2 4.07855 -0.0530497 5.68724
104 2 21.265 4.32303 16.4498
105 1 13.4139 11.4197 3.83162
106 2 14.1205 10.6701 4.1571
107 2 14.0188 12.2015 3.34207
108 2 12.8776 11.814 4.72125
109 4 10.3599 8.50361 3.4556
110 1 10.0085 7.2381 2.05699
111 2 9.56977 7.65277 1.25475
112 2 14.4666 11.2033 1.09691
113 2 8.88548 9.61396 5.1366
114 1 6.94811 17.5059 14.8765
115 2 7.90515 17.7897 14.4799
116 2 7.08835 16.9034 15.7208
117 2 4.32334 16.0629 16.064
118 4 1.8384 9.51828 1.731
119 3 0.775507 10.2369 2.53063
120 1 20.4942 14.9705 0.256818
121 2 4.18954 10.0639 2.77954
122 2 12.0478 6.87051 17.6698
123 2 8.73125 15.2934 13.1524
124 1 3.46572 9.15526 2.68038
125 2 6.47522 2.24845 17.8049
126 2 9.49925 17.6645 17.2026
127 2 3.12163 2.16161 14.8614
128 4 21.1253 10.3378 2.93992
129 3 20.7524 10.3153 4.4556
130 1 21.6946 14.1659 0.0815709
131 2 19.169 1.03012 1.57718
132 2 2.68226 1.84732 5.52648
133 2 20.0067 17.152 2.94696
134 1 7.40514 1.85319 6.12803
135 2 18.5309 16.6684 6.59685
136 2 12.8934 17.8001 15.3295
137 2 7.12494 0.8585 6.57623
138 4 19.2228 10.0135 5.27582
139 3 19.1302 11.3758 6.30465
140 1 18.0111 10.0733 3.74488
141 2 18.5344 10.5787 2.8515
142 2 17.3046 10.9111 4.04378
143 2 11.5765 13.9639 15.6844
144 1 19.5614 8.45947 6.23187
145 2 19.613 8.62479 7.32935
146 2 18.7928 7.62048 6.11607
147 2 20.553 8.2317 5.76703
148 4 16.0246 6.93731 1.72051
149 3 15.578 5.74478 0.796216
150 1 14.1581 9.15276 0.782064
151 2 9.79798 17.2388 2.35231
152 2 20.0003 0.767218 18.1023
153 1 14.8791 8.24912 1.30103
154 2 20.3658 14.3237 4.28584
155 2 3.5989 0.635075 8.81601
156 2 13.5202 13.8973 8.73781
157 4 14.8599 4.28335 0.162106
158 3 15.5526 3.8521 18.8641
159 1 13.0803 4.59065 0.122503
160 2 12.4581 3.75361 19.8204
161 2 12.9472 5.52892 0.539325
162 2 13.2532 5.13672 18.8322
163 1 15.1552 2.64654 1.09625
164 2 15.0381 1.71362 20.0249
165 2 4.75048 16.6318 16.3514
166 2 20.2297 0.742846 18.9113
167 4 16.6233 3.41771 17.756
168 1 16.7068 1.66324 17.1659
169 2 21.1202 7.10207 18.2967
170 2 16.4323 1.72925 16.1081
171 2 17.7339 1.6193 17.3901
172 1 18.1488 4.33981 18.3619
173 2 16.8682 10.0356 7.44511
174 2 18.0431 5.22334 18.9147
175 2 19.1198 13.4867 15.8175
176 4 4.24429 16.4621 5.34598
177 3 3.44365 16.8326 6.72843
178 1 3.47211 16.1223 3.80069
179 2 13.8055 2.77142 5.28011
180 2 19.3985 12.6564 0.435942
181 2 8.60523 15.9435 12.771
182 1 13.8483 2.17105 6.18689
183 2 14.3189 1.20334 5.9842
184 2 14.4425 2.74026 6.93641
185 2 12.838 2.03527 6.62794
186 4 2.80669 15.94 8.13065
187 3 2.65908 14.3688 7.46154
188 1 1.22335 16.6381 8.64429
189 2 0.675716 16.69 7.72688
190 2 0.687088 15.8266 9.13897
191 2 1.35273 17.5633 9.18453
192 1 4.2724 15.9138 9.22186
193 2 3.99157 15.4079 10.1898
194 2 4.97464 15.2524 8.72583
195 2 4.52613 16.9334 9.50817
196 4 2.52464 12.8563 6.84335
197 3 2.8232 11.8018 8.04605
198 1 3.57649 12.5921 5.39615
199 2 4.54192 13.0733 5.5345
200 2 3.74671 11.5006 5.25097
201 2 3.18885 12.9385 4.42779
202 1 0.674553 12.7737 6.26448
203 2 0.601411 12.5392 5.20433
204 2 0.106036 11.9608 6.74713
205 2 0.17929 13.7333 6.5683
206 4 3.52956 10.3701 8.55076
207 3 3.57035 10.5405 10.1709
208 1 2.23051 8.92704 8.67028
209 2 2.44988 7.92326 8.30312
210 2 1.30808 9.22271 8.16168
211 2 13.6592 15.4548 10.7751
212 1 5.28446 10.2275 7.86579
213 2 5.24744 10.7051 6.86911
214 2 5.87938 10.8797 8.52521
215 2 5.80868 9.26203 7.68231
216 4 2.42427 9.12231 10.5493
217 3 3.57671 8.04437 11.1318
218 1 1.82144 10.2491 11.8844
219 2 0.799247 10.3395 12.2395
220 2 2.30064 9.62661 12.6579
221 2 2.29026 11.2217 11.8604
222 1 3.53502 7.21792 6.01796
223 2 2.4253 7.12859 6.04842
224 2 3.85639 8.21746 5.81825
225 2 4.0034 6.91211 6.98192
226 4 3.59738 6.6809 11.9792
227 1 2.94885 5.17111 10.9337
228 2 2.88794 5.49257 9.88398
229 2 3.57496 4.25974 11.0519
230 2 1.91674 4.94009 11.2647
231 1 5.47917 6.50689 12.1911
232 2 5.82413 6.03751 11.2691
233 2 5.92482 7.51364 12.2033
234 4 7.21042 18.6856 9.27241
235 3 8.42227 17.7024 9.10556
236 1 5.80373 0.0802861 10.4028
237 2 5.00093 0.429879 9.73623
238 2 8.69537 0.622814 13.1603
239 2 11.9274 2.53307 9.55507
240 1 8.48021 2.54325 6.65332
241 2 6.04895 13.6961 19.2569
242 2 8.64809 2.55133 7.72255
243 2 8.99881 3.25455 6.05001
244 4 9.12358 16.2396 9.30945
245 3 9.98175 15.7145 8.0578
246 1 10.5023 16.5013 10.6072
247 2 11.3248 17.097 10.1781
248 2 10.1801 16.8176 11.6307
249 2 10.8571 15.4724 10.7403
250 1 7.74839 14.9009 9.81994
251 2 7.06848 14.7905 8.96658
252 2 8.31218 13.9507 9.94338
253 2 7.30294 15.1718 10.7772
254 4 10.6311 15.0468 6.68423
255 3 10.9314 13.4288 6.87293
256 1 12.056 16.2034 6.31337
257 2 11.6996 17.2211 6.1444
258 2 12.5942 16.2457 7.29647
259 2 12.8087 15.8299 5.60395
260 1 9.42046 15.2221 5.28206
261 2 9.43395 14.5434 4.41757
262 2 8.44179 15.318 5.74581
263 2 9.55138 16.2216 4.80711
264 4 10.1892 12.1889 7.82556
265 3 10.8583 10.7253 7.34086
266 1 8.36609 12.1661 7.64217
267 2 7.82721 12.6068 8.49385
268 2 8.10184 12.7664 6.74167
269 2 7.97611 11.1562 7.47445
270 1 10.7364 12.25 9.63394
271 2 11.8392 12.2658 9.63939
272 2 10.3817 13.0948 10.2373
273 2 10.4831 11.3417 10.1982
274 4 11.2724 9.28605 7.93659
275 3 11.0789 8.24667 6.62299
276 1 9.82639 8.62435 8.87178
277 2 9.82709 7.52755 8.83355
278 2 9.73649 8.94682 9.90463
279 2 8.93658 8.96692 8.33149
280 1 12.8739 8.97915 8.82833
281 2 13.5891 8.43293 8.18082
282 2 13.4425 9.82217 9.24261
283 2 12.6695 8.31693 9.67946
284 4 11.7458 7.71925 5.21235
285 1 13.5522 8.30511 5.09327
286 2 13.6651 8.95022 4.22525
287 2 13.8512 8.89472 5.95621
288 1 11.6861 5.83977 5.43961
289 2 12.7286 5.51186 5.46594
290 2 11.1797 5.5785 6.36832
291 2 11.1889 5.31845 4.62033
292 4 18.7953 5.49636 9.36564
293 3 19.6535 4.92894 8.086
294 1 19.1652 7.08949 9.3561
295 2 19.5262 7.26712 8.36956
296 2 19.2611 7.84524 10.1363
297 2 20.6991 6.694 18.4334
298 1 18.2729 5.58604 4.34724
299 2 6.91986 13.832 17.5814
300 2 5.6677 16.2149 5.57579
301 2 18.3847 7.74532 1.74864
302 4 18.4651 4.3503 7.06998
303 3 18.353 2.64883 6.78923
304 1 17.7059 7.08067 2.36752
305 2 16.9455 16.0931 11.0897
306 2 19.0372 8.73136 1.04483
307 2 0.848737 18.3769 16.3802
308 1 17.35 17.1232 12.7878
309 2 14.3042 0.101564 12.0667
310 2 18.2952 16.9685 13.1574
311 2 17.1797 15.0393 17.5564
312 4 19.9777 1.71696 6.13293
313 3 19.6775 2.59818 4.60252
314 1 21.6368 1.83516 6.86623
315 2 0.049042 2.81612 6.50888
316 2 21.6383 0.972793 7.57955
317 2 0.32946 1.24133 6.13194
318 1 19.1227 18.9737 6.60683
319 2 15.4106 16.5791 11.6443
320 2 20.2092 18.4123 6.78677
321 2 18.1493 18.6481 7.19104
322 4 19.1991 3.84142 3.58484
323 3 18.0094 3.15544 2.69165
324 1 18.1824 6.58384 3.51372
325 2 2.04643 17.8468 0.565605
326 2 0.882355 8.69267 0.967966
327 2 16.4792 0.921889 2.93457
328 1 1.77346 17.0382 1.00717
329 2 16.4924 16.7146 16.9258
330 2 1.3633 18.5712 16.0093
331 2 3.07184 8.93544 3.79249
332 4 16.8131 1.97333 1.88308
333 3 17.8929 1.46843 0.932156
334 1 7.60511 1.11537 1.95246
335 2 6.69372 -0.088189 2.38573
336 2 7.11607 1.60498 1.1545
337 2 8.69307 0.87007 1.50073
338 1 13.8925 0.837196 12.8812
339 2 14.2285 1.86987 13.0929
340 2 20.2325 3.6274 13.9265
341 2 19.6612 3.37018 13.8703
342 4 18.5711 18.9802 0.348354
343 1 19.8395 18.4556 18.618
344 2 4.39995 18.2395 18.758
345 2 18.6589 9.40709 0.55962
346 2 5.02037 18.5123 18.0601
347 1 10.7024 17.7072 18.9523
348 2 11.4068 17.7118 1.31336
349 2 10.7363 6.67169 1.79791
350 2 15.062 3.18101 11.1076
351 4 1.33866 15.2534 0.447716
352 3 1.55564 14.1187 1.86751
353 1 17.1206 4.68929 8.52174
354 2 14.7651 16.8119 1.48929
355 2 14.3626 17.6271 1.47868
356 2 14.1291 15.6797 10.3694
357 1 15.8624 5.30313 8.32097
358 2 15.5579 15.3506 8.8641
359 2 13.3259 13.8886 7.90674
360 2 2.74493 8.62757 0.389172
361 4 0.363356 12.914 1.38077
362 3 2.23139 10.5399 0.555137
363 1 3.39364 1.5951 14.1117
364 2 3.2596 2.13919 13.1415
365 2 4.49044 1.41394 14.7178
366 2 2.64663 0.905136 14.1801
367 1 17.2107 16.1188 17.4091
368 2 8.3939 0.796829 12.4634
369 2 7.91638 17.0621 19.4619
370 2 2.69387 15.2081 3.65125
371 4 1.98548 11.8482 19.5996
372 3 1.1402 11.5805 18.4081
373 1 1.19613 17.3308 2.40598
374 2 12.2457 1.89971 9.60481
375 2 9.27519 17.7245 3.12974
376 2 0.390715 18.0988 2.06319
377 1 3.56953 12.9054 19.5557
378 2 4.54726 12.8826 18.9103
379 2 3.42862 13.4133 0.583168
380 2 19.1914 14.6079 0.341191
381 4 0.680077 11.0029 16.9494
382 3 1.47361 9.44662 16.3099
383 1 1.43922 12.262 15.6643
384 2 1.93308 11.6512 14.9718
385 2 0.620807 12.8581 15.2005
386 2 1.95577 12.9226 16.3517
387 1 20.7953 10.8927 16.8858
388 2 20.2066 10.138 18.0972
389 2 20.8026 14.4231 4.69727
390 2 19.6054 11.4684 16.095
391 4 3.02346 8.84281 16.1845
392 3 2.93199 7.95578 14.8634
393 1 4.57858 9.78098 16.3138
394 2 4.9868 10.2343 15.4163
395 2 4.63781 10.513 17.0647
396 2 5.37174 9.10293 16.59
397 1 3.25296 7.77161 17.6663
398 2 3.38224 8.44128 18.4762
399 2 2.63668 6.77011 17.8804
400 2 4.33229 7.44482 17.6067
401 4 2.52796 6.58204 14.0208
402 1 0.684373 6.1746 14.1725
403 2 0.27076 5.76147 15.0938
404 2 0.107162 7.1338 13.9791
405 2 0.533638 5.32236 13.4986
406 1 3.55384 5.07171 14.5357
407 2 3.5404 4.28811 13.7841
408 2 2.98294 4.6275 15.3784
409 4 10.0691 11.7548 15.8955
410 3 9.61722 11.6508 17.4366
411 1 12.9635 18.7867 15.0914
412 2 18.4999 3.79499 11.4322
413 2 19.5398 12.1679 5.80411
414 2 6.42883 3.03596 17.4347
415 1 13.8137 18.9742 14.1979
416 2 12.8521 16.719 12.9206
417 2 12.1395 7.65049 17.7763
418 2 17.0831 3.50891 8.68449
419 4 9.58794 10.8703 18.7738
420 3 8.85089 11.6244 14.9009
421 1 8.69081 9.24578 18.7164
422 2 8.77814 8.24979 19.3042
423 2 7.78957 9.63542 19.2182
424 2 8.15436 8.9842 17.7872
425 1 9.09777 12.2657 0.0824738
426 2 8.86625 12.1027 1.56714
427 2 6.50043 12.1638 5.14582
428 2 10.6928 12.4822 1.74473
429 4 8.33876 11.3995 13.3945
430 3 9.70932 10.564 12.8157
431 1 8.27952 13.1545 12.8635
432 2 7.29743 13.6705 12.8402
433 2 8.92055 13.6593 13.5915
434 2 8.64309 13.3816 11.8581
435 1 6.88033 10.349 13.2403
436 2 6.56579 10.4292 12.2029
437 2 7.05469 9.31247 13.5577
438 2 6.12772 10.7282 13.9473
439 4 10.7625 9.60547 13.6643
440 3 9.73746 8.2819 14.1772
441 1 11.3476 10.5744 15.1684
442 2 11.8249 9.88099 15.8964
443 2 17.6108 5.18105 11.3471
444 2 12.2451 11.1514 14.9032
445 1 12.074 9.00758 12.4282
446 2 11.4785 8.5718 11.6079
447 2 12.4426 9.97379 12.0179
448 4 9.26279 6.71732 14.2396
449 3 7.61159 6.66588 14.173
450 1 9.52715 6.07938 16.0375
451 2 8.56546 5.79566 16.5129
452 2 10.1224 5.14986 16.0807
453 2 10.004 6.77037 16.7364
454 1 10.2472 5.79354 12.9056
455 2 10.6484 6.5344 12.2008
456 2 11.2118 5.41853 13.3031
457 2 9.77316 4.9699 12.3338
458 4 6.29612 5.68324 13.6495
459 1 4.95874 5.50868 15.007
460 2 4.84749 6.41228 15.6229
461 2 5.30046 4.6836 15.6907
462 1 6.88192 3.91467 13.3495
463 2 7.91329 3.79605 12.9452
464 2 6.8642 3.3791 14.3087
465 2 6.2205 3.38761 12.6372
466 4 19.4325 13.6959 9.42417
467 3 19.272 12.018 9.45269
468 1 19.2794 13.8319 11.3224
469 2 18.595 14.5171 11.8501
470 2 20.1737 13.9441 11.9431
471 2 9.87582 2.46937 16.1614
472 1 10.5948 13.5233 15.575
473 2 9.82082 14.2823 15.7804
474 2 10.468 13.3446 14.4747
475 2 1.31515 8.31791 10.7597
476 4 18.8163 12.072 11.1294
477 3 17.3314 11.4499 11.2002
478 1 20.1476 11.0619 11.9928
479 2 20.9555 10.977 11.2661
480 2 20.4633 11.566 12.9144
481 2 19.7026 10.0679 12.3019
482 1 17.5389 16.3581 6.81921
483 2 17.4534 17.2618 7.50965
484 2 17.3197 15.3707 7.3351
485 2 17.0414 16.5474 5.83636
486 4 15.9525 11.5021 12.1609
487 3 15.4896 9.87272 12.3259
488 1 16.1095 12.3315 13.7395
489 2 15.1072 12.4295 14.1787
490 2 16.7114 11.7691 14.441
491 2 16.5233 13.357 13.5623
492 1 14.8045 12.5606 11.0139
493 2 13.7488 12.3051 11.0926
494 2 14.933 13.6179 11.3167
495 2 15.0362 12.3998 9.95088
496 4 15.0437 8.35501 12.8062
497 3 15.7843 7.86595 14.2349
498 1 13.1849 8.13169 12.8971
499 2 12.8627 7.34194 13.605
500 2 2.82873 0.885945 9.11078
501 1 15.7947 7.28478 11.4027
502 2 15.4773 6.23329 11.3696
503 2 15.5947 7.69799 10.407
504 2 16.8968 7.241 11.5381
505 4 16.8118 7.93851 15.4874
506 3 16.7561 6.43327 16.2136
507 1 18.6852 8.24696 15.2753
508 2 19.2629 7.52317 14.69
509 2 18.7602 9.23909 14.7985
510 2 18.9825 8.26235 16.3223
511 1 16.1641 9.32116 16.5968
512 2 16.7281 9.51905 17.5059
513 2 16.2393 10.2784 15.9955
514 2 15.1093 9.12156 16.7943
515 4 16.0595 4.93876 15.8888
516 1 14.2023 5.14177 15.7338
517 2 13.741 5.66188 16.5851
518 2 13.8566 5.69178 14.8361
519 2 13.7382 4.13219 15.6452
520 1 16.702 4.20998 14.1233
521 2 17.7844 4.27725 13.9632
522 2 16.4947 3.13466 14.2546
523 2 16.1883 4.48313 13.193
ITEM: TIMESTEP
20000
ITEM: NUMBER OF ATOMS
523
ITEM: BOX BOUNDS pp pp pp
5.4127179645229617e-02 2.1945872820354715e+01
4.6942935678247366e-02 1.9033020064321565e+01
4.9206526950058560e-02 1.9950793473049906e+01
ITEM: ATOMS id type x y z
1 4 7.76899 4.18843 2.73648
2 3 8.88848 5.37057 2.7531
3 1 17.9117 5.7114 6.47608
4 2 17.2751 8.76714 7.56204
5 2 6.1978 12.7661 3.78424
6 2 17.3854 6.51831 6.96416
7 1 19.7485 4.44179 11.4132
8 2 12.7934 13.8482 3.07801
9 2 18.0596 18.2772 8.31274
10 2 11.0589 17.6475 14.1231
11 4 8.65485 7.01338 2.23153
12 3 7.48002 6.84804 0.875297
13 1 8.06516 8.15523 3.83607
14 2 3.73937 18.7913 11.5717
15 2 7.55341 7.49008 4.53824
16 2 7.37972 9.04448 3.56655
17 1 9.33727 8.62815 4.43059
18 2 18.9444 14.0173 9.98285
19 2 17.0997 1.62709 16.2658
20 2 11.7666 1.85083 19.0346
21 4 6.28212 5.72383 0.614742
22 3 6.85112 4.32156 1.2805
23 1 5.86187 5.64889 18.6583
24 2 6.5137 6.25453 17.9029
25 2 5.82144 4.60988 18.29
26 2 4.82928 5.71187 18.3267
27 1 4.48814 6.14139 1.36144
28 2 4.25256 7.22835 0.998022
29 2 3.30046 5.02159 1.05471
30 2 4.5127 6.29726 2.45121
31 4 7.54521 1.45235 3.90665
32 3 5.71723 1.67219 3.6368
33 1 15.2528 16.8256 11.2787
34 2 17.3451 16.2921 11.6285
35 2 0.887672 3.18132 1.78062
36 2 3.69862 6.22005 6.284
37 1 8.66596 2.49484 3.03872
38 2 13.6215 2.06016 2.61843
39 2 16.8362 9.70474 4.22108
40 2 9.46818 2.96403 3.79301
41 4 3.50342 17.7572 2.88718
42 3 3.66489 0.333862 1.94789
43 1 5.7748 11.7258 3.78898
44 2 20.6386 5.01317 11.4899
45 2 6.68616 11.0799 3.74577
46 2 18.0254 17.0479 1.62811
47 1 14.785 6.58261 6.34098
48 2 15.5304 7.38292 6.30818
49 2 14.0577 6.81641 7.11663
50 2 15.2984 5.67774 6.72421
51 4 4.34112 0.964833 3.44427
52 1 18.1484 15.5302 16.8093
53 2 18.9797 4.06737 17.6302
54 2 4.60206 16.731 2.17159
55 2 15.0242 17.7048 1.00801
56 1 11.0153 16.9515 19.9129
57 2 0.802307 18.9117 13.6203
58 2 0.481927 18.7139 13.0987
59 2 5.24338 11.5643 4.67948
60 4 10.3957 16.9473 18.0995
61 3 11.8586 5.27411 9.13507
62 1 7.13477 4.2889 8.86428
63 2 6.52664 5.21172 8.83445
64 2 7.55757 4.15179 7.87395
65 2 6.52311 3.45408 9.22658
66 1 11.5118 4.94069 10.1934
67 2 14.5738 4.98267 12.5969
68 2 18.3815 5.31845 18.6919
69 2 7.91009 4.4576 9.62183
70 4 18.8003 18.9203 19.4993
71 3 9.38863 15.6483 18.6011
72 1 7.94329 14.708 0.880902
73 2 7.06493 18.1015 14.6329
74 2 12.5885 15.8412 19.6561
75 2 13.4903 15.2425 15.733
76 1 18.8665 14.9241 17.7655
77 2 15.779 5.24286 9.35346
78 2 3.55381 18.3089 12.266
79 2 15.4801 3.6353 8.26842
80 4 8.79657 14.4382 19.4077
81 3 11.0235 10.7591 19.2902
82 1 20.4783 17.4978 9.83178
83 2 20.1105 17.0957 8.8772
84 2 21.0159 18.4899 9.55872
85 2 21.0391 16.7394 10.3181
86 1 9.92214 17.5397 0.479811
87 2 4.75557 8.72996 2.59079
88 2 11.6706 17.2665 0.534446
89 2 15.3745 18.2157 16.529
90 4 12.5494 10.8192 19.785
91 3 11.4246 11.6823 1.69649
92 1 13.4352 11.4132 18.3191
93 2 14.3131 10.665 18.2158
94 2 12.7407 11.6077 17.4081
95 2 14.2608 12.4028 18.3866
96 1 13.7374 10.2674 1.35831
97 2 21.2362 7.35919 19.746
98 2 19.5856 17.8126 10.3491
99 4 12.3453 10.7797 2.58953
100 3 11.9222 9.40711 3.28598
101 1 19.2183 13.5558 18.2201
102 2 14.5898 17.6415 0.393035
103 2 1.20797 17.4329 5.04854
104 2 21.6596 7.12551 0.527868
105 1 13.0999 11.6141 4.2075
106 2 14.0871 11.996 3.97974
107 2 12.5627 12.5201 4.46242
108 2 13.1853 10.8896 5.04695
109 4 11.0246 8.0104 3.62356
110 1 10.3428 7.599 1.73335
111 2 10.5619 8.54659 1.10809
112 2 14.5589 11.0314 1.16867
113 2 9.22083 9.26682 5.3182
114 1 7.6176 17.3506 14.1056
115 2 8.71372 17.2846 14.4012
116 2 7.18135 16.4471 13.4959
117 2 18.9083 15.4853 14.3972
118 4 2.06951 9.44247 2.14254
119 3 0.579645 10.1055 2.77089
120 1 19.5261 13.9873 19.5632
121 2 3.97133 9.77073 4.02108
122 2 12.4614 6.64875 16.7753
123 2 13.7189 0.480611 11.309
124 1 3.81532 9.06903 3.28258
125 2 9.31269 1.40218 15.5962
126 2 11.2572 18.3527 13.6142
127 2 3.93025 0.634279 15.8048
128 4 21.5613 11.513 2.69962
129 3 19.9327 11.2191 3.02047
130 1 21.0682 14.119 0.182321
131 2 19.2833 12.7769 17.5791
132 2 3.13646 2.27349 3.49655
133 2 17.5476 17.3597 1.15746
134 1 7.91012 1.14967 5.62788
135 2 19.1998 14.5065 5.59843
136 2 13.9684 17.8852 15.1684
137 2 7.30266 0.292061 6.10213
138 4 19.2718 10.5634 4.42217
139 3 19.9157 11.508 5.59462
140 1 17.4176 10.6235 4.12514
141 2 17.1909 10.8455 3.07699
142 2 16.9561 11.354 4.77643
143 2 10.5959 14.1583 14.9954
144 1 19.7549 8.84695 4.79838
145 2 19.9932 8.22183 3.94984
146 2 20.6534 8.75939 5.41926
147 2 18.9341 8.51756 5.41424
148 4 16.3118 6.62247 1.65397
149 3 15.5387 5.02839 1.80995
150 1 14.4973 9.11429 1.37992
151 2 11.0859 17.8101 4.78897
152 2 21.1573 17.7844 19.2889
153 1 15.0916 7.9526 1.46345
154 2 15.3652 15.563 19.021
155 2 4.59379 1.36104 9.07732
156 2 14.28 12.7794 8.79947
157 4 14.6221 4.00336 0.769344
158 3 15.6369 4.06238 19.2485
159 1 13.2333 5.14836 0.310103
160 2 12.9495 4.43446 19.1316
161 2 12.141 4.62725 0.794789
162 2 13.1285 6.15057 1.07879
163 1 14.5465 2.26325 1.83114
164 2 14.149 1.50798 1.37034
165 2 19.0033 14.4613 13.9809
166 2 4.82834 4.18764 4.26254
167 4 16.5342 3.90838 17.8435
168 1 17.045 2.00467 17.3757
169 2 17.9463 8.459 18.919
170 2 18.1131 2.11174 17.6947
171 2 16.8224 1.08085 17.9273
172 1 18.1959 4.75211 17.7875
173 2 16.4659 8.78758 7.63837
174 2 18.1854 5.62792 16.8743
175 2 13.2039 14.7836 16.2485
176 4 2.67224 17.9203 5.64325
177 3 3.16118 16.7062 6.72939
178 1 3.85038 18.5597 4.53354
179 2 13.8409 2.01047 5.38182
180 2 12.9902 13.6745 2.17391
181 2 13.487 19.0193 10.7808
182 1 14.6266 2.66753 5.78053
183 2 14.7306 3.44736 5.00154
184 2 14.3436 3.07378 6.71888
185 2 15.6136 2.14016 5.80602
186 4 3.29204 15.9584 8.15382
187 3 2.99935 14.2403 8.03123
188 1 2.13784 16.4405 9.53734
189 2 2.19464 17.3817 10.1121
190 2 1.05802 16.3255 9.202
191 2 2.29847 15.6221 10.2949
192 1 5.08984 15.9835 8.73573
193 2 5.19649 16.9172 9.35585
194 2 5.30626 15.1401 9.39661
195 2 5.92 16.1491 8.047
196 4 1.92966 13.2086 7.23991
197 3 1.92546 11.7951 7.9748
198 1 2.49279 13.0376 5.47222
199 2 2.23786 12.0394 5.09956
200 2 1.75968 13.679 4.99256
201 2 3.53061 13.202 5.18579
202 1 0.223765 13.8419 7.21414
203 2 21.3371 13.3988 6.55155
204 2 21.7294 13.7456 8.26408
205 2 0.291536 14.9225 7.07964
206 4 2.49776 10.3356 8.45315
207 3 3.53444 10.6069 9.77328
208 1 1.42991 9.21539 9.4559
209 2 1.61244 8.21843 9.05623
210 2 0.331281 9.23648 9.34888
211 2 13.387 16.0157 8.70054
212 1 3.26033 9.63828 6.86772
213 2 3.2072 10.4539 6.13242
214 2 4.31348 9.56305 7.13477
215 2 2.91522 8.71244 6.39652
216 4 2.55959 9.71269 10.9062
217 3 3.61774 8.31828 11.1542
218 1 2.30435 11.1627 12.2179
219 2 2.00879 11.9517 11.522
220 2 1.58642 11.1076 12.999
221 2 3.20175 11.2757 12.7657
222 1 4.79844 6.10891 6.43192
223 2 4.96667 6.66623 7.37389
224 2 5.36714 6.45871 5.58082
225 2 5.09307 5.04517 6.62364
226 4 3.7929 6.76525 11.8258
227 1 3.39792 5.59948 10.3286
228 2 2.5954 5.85714 9.6133
229 2 4.35183 5.63175 9.71529
230 2 3.2781 4.53214 10.6145
231 1 5.69644 6.45539 12.0589
232 2 5.97876 5.87177 11.1656
233 2 6.26134 7.39697 11.9732
234 4 7.91265 18.6396 8.62731
235 3 8.17055 17.355 7.81086
236 1 6.53351 18.8082 9.83861
237 2 6.49186 0.0640801 10.9904
238 2 8.05475 0.831683 11.6708
239 2 14.3827 1.83286 8.48232
240 1 8.27477 2.13689 6.58567
241 2 7.49299 13.7495 1.00289
242 2 7.82183 2.23424 7.5901
243 2 8.99095 2.96189 6.32371
244 4 9.04366 16.0721 8.96893
245 3 9.84807 15.1857 7.90954
246 1 10.3618 17.0689 9.85321
247 2 10.4713 18.1468 9.72136
248 2 10.1637 17.1281 10.9428
249 2 11.3465 16.6454 9.7439
250 1 8.07568 15.0693 10.138
251 2 7.42351 14.2338 9.815
252 2 8.69028 14.6422 10.9745
253 2 7.34094 15.6978 10.6929
254 4 10.0768 14.5238 6.40779
255 3 9.99561 12.9291 6.76328
256 1 11.8018 14.6637 5.70795
257 2 11.9071 14.7796 4.63014
258 2 12.3962 15.4558 6.15635
259 2 12.2741 13.7328 6.03806
260 1 8.60393 14.9704 5.3247
261 2 7.76307 15.3947 5.88144
262 2 8.84408 15.5731 4.44336
263 2 8.35906 13.9689 4.91089
264 4 9.98577 11.6135 7.74314
265 3 10.5662 10.3215 6.79135
266 1 8.10531 11.1084 7.81179
267 2 7.73114 11.1423 6.78619
268 2 8.00114 10.0739 8.17677
269 2 7.49997 11.7379 8.48283
270 1 11.1632 12.6949 11.1184
271 2 12.0375 12.6093 10.5162
272 2 10.3776 13.345 10.8411
273 2 10.8054 11.6826 11.1362
274 4 11.3758 9.07496 7.5151
275 3 11.8805 8.1216 6.30764
276 1 10.4591 7.97175 8.68573
277 2 11.207 7.46831 9.32111
278 2 9.74312 8.48423 9.33097
279 2 9.91113 7.18578 8.14879
280 1 12.7938 10.0937 8.22688
281 2 12.3689 10.7978 8.95208
282 2 13.6516 9.52351 8.6029
283 2 13.2154 10.6046 7.34024
284 4 12.1365 6.82034 5.30615
285 1 14.0032 6.43405 5.00781
286 2 14.1345 5.45898 4.54609
287 2 14.3662 7.14422 4.25205
288 1 11.2231 5.41852 6.18513
289 2 10.5029 4.87193 5.54838
290 2 11.9196 4.66696 6.57596
291 2 10.6526 5.79445 7.05231
292 4 18.8121 5.35242 10.0176
293 3 20.0286 5.15502 8.73271
294 1 18.6172 7.154 9.66988
295 2 17.7203 7.76608 9.8736
296 2 19.5012 7.8673 9.59604
297 2 18.5829 9.20641 18.8374
298 1 18.3446 5.85978 5.22337
299 2 7.73166 15.3967 1.78839
300 2 2.14793 0.255483 6.17081
301 2 17.897 7.62088 3.02454
302 4 18.8787 4.46977 7.7173
303 3 19.8457 3.35652 7.04861
304 1 17.6247 6.53987 2.81131
305 2 14.0706 16.7238 11.0317
306 2 17.8813 10.2243 1.55464
307 2 1.77177 18.8921 18.4958
308 1 16.3011 15.978 10.9396
309 2 14.3392 1.43959 12.975
310 2 16.5916 15.5046 9.79907
311 2 16.8197 15.2614 15.6148
312 4 20.0656 2.44573 5.60646
313 3 19.7333 3.08732 3.83492
314 1 21.7993 2.25018 5.68038
315 2 21.9402 1.56496 6.78626
316 2 0.0853128 3.24458 5.07622
317 2 5.09995 3.64628 4.66813
318 1 19.6512 0.589749 5.53894
319 2 15.3154 17.1358 12.4221
320 2 19.4095 0.20763 6.71312
321 2 19.9905 18.8089 5.13729
322 4 18.5007 3.72685 3.06806
323 3 17.0312 2.99913 3.55652
324 1 18.1833 5.66281 3.78816
325 2 21.9141 17.1579 1.28113
326 2 2.57269 6.76202 18.846
327 2 16.5782 0.614306 3.33761
328 1 1.29226 17.0442 1.17238
329 2 17.1984 16.9216 15.0446
330 2 1.30538 19.0203 18.0157
331 2 3.32986 8.28549 3.87736
332 4 16.2441 1.85983 2.48196
333 3 17.5318 2.26908 1.31187
334 1 8.82687 2.2137 1.54054
335 2 8.72934 2.89747 0.731894
336 2 9.90879 1.59432 1.38703
337 2 8.03705 1.55035 1.20779
338 1 15.3174 1.1989 13.3812
339 2 16.0083 0.84879 12.7603
340 2 0.952297 16.6275 15.5731
341 2 0.582535 16.6193 16.206
342 4 18.7949 3.1332 0.783179
343 1 20.3167 18.2639 19.6663
344 2 6.44626 0.906611 18.9518
345 2 17.5776 10.7569 1.0337
346 2 5.77621 0.397882 18.7468
347 1 11.9349 16.5553 18.8656
348 2 9.08496 18.2496 19.7402
349 2 11.0003 6.69169 1.32089
350 2 15.2844 5.23203 12.5115
351 4 2.09132 15.6529 1.86984
352 3 1.1418 14.4323 2.68458
353 1 17.546 3.95932 9.09042
354 2 15.999 15.8979 7.38009
355 2 16.2253 16.3981 7.95213
356 2 13.9099 16.0997 8.37618
357 1 16.2011 4.2568 8.82973
358 2 18.1819 18.2249 7.56704
359 2 14.85 12.4164 8.73194
360 2 1.35988 8.26854 1.79109
361 4 0.15655 13.4444 1.78008
362 3 2.42488 10.1347 0.650848
363 1 3.88937 1.75996 16.3596
364 2 2.93711 2.35374 16.6663
365 2 4.64331 1.75934 17.256
366 2 4.33392 2.48885 15.5115
367 1 17.3914 16.1049 15.9109
368 2 8.27132 0.461183 12.266
369 2 9.87339 17.903 17.3609
370 2 4.6002 18.8833 5.03564
371 4 1.77756 11.6403 0.23299
372 3 1.76368 11.4753 18.337
373 1 1.88514 18.3045 1.71618
374 2 14.2415 1.47175 8.96787
375 2 10.7566 17.3036 3.90457
376 2 1.25309 0.393566 1.53144
377 1 2.71664 13.3882 0.480594
378 2 3.73045 13.7524 19.7789
379 2 3.33424 13.2654 1.40513
380 2 19.0726 13.3663 0.725573
381 4 0.791147 11.1409 16.9425
382 3 1.23625 9.60367 16.3035
383 1 1.24629 12.8545 15.7328
384 2 2.2861 12.7475 15.5915
385 2 0.86329 13.0678 14.686
386 2 0.835041 13.5828 16.4536
387 1 21.2101 10.8029 17.5132
388 2 20.8512 11.604 18.8243
389 2 15.2894 15.3533 19.7712
390 2 20.2806 10.4894 16.9945
391 4 2.53244 9.09558 15.7953
392 3 2.2744 7.85952 14.9037
393 1 4.07286 10.0698 16.0305
394 2 4.23733 10.61 15.1225
395 2 3.73429 10.8617 16.7599
396 2 4.93465 9.50342 16.3198
397 1 2.34259 7.52003 18.0044
398 2 3.13011 7.62696 17.3324
399 2 2.02889 8.46514 18.4444
400 2 1.4615 7.27248 17.4323
401 4 2.76245 6.37733 13.9649
402 1 1.07721 5.45267 13.8355
403 2 1.04948 4.79335 14.6939
404 2 0.191627 6.06863 13.9474
405 2 0.992314 4.70988 13.0412
406 1 3.91296 5.36634 14.9377
407 2 4.00383 4.35187 14.4584
408 2 3.43165 5.15237 15.921
409 4 9.76038 11.6958 15.5422
410 3 9.34916 10.8971 16.9338
411 1 14.8676 18.5139 15.3784
412 2 20.0328 3.39149 11.0604
413 2 19.5565 11.6486 6.42938
414 2 8.75403 1.67672 15.2616
415 1 15.384 0.363897 14.6058
416 2 11.2752 13.0017 12.1936
417 2 12.9562 6.47998 17.524
418 2 17.8121 2.84544 9.42518
419 4 9.52455 11.1526 18.5571
420 3 8.40429 11.4445 14.5504
421 1 8.22088 10.0399 19.5832
422 2 7.4397 10.6315 19.0101
423 2 8.27327 8.95771 19.0265
424 2 8.0102 10.0889 0.730735
425 1 9.43925 12.9097 18.953
426 2 11.0516 13.96 19.2411
427 2 5.17561 11.3766 2.93054
428 2 10.4732 11.5153 1.72644
429 4 7.81534 10.8019 13.2027
430 3 9.11014 9.92214 12.6901
431 1 7.2619 12.0998 12.0689
432 2 6.1586 12.1169 12.0138
433 2 7.74472 12.9693 12.5703
434 2 7.78041 11.8187 11.1479
435 1 6.49724 9.60681 13.5517
436 2 6.88975 8.71326 14.0473
437 2 5.90093 10.0031 14.3982
438 2 5.7292 9.44936 12.8024
439 4 10.4459 9.40251 13.424
440 3 9.99246 7.84002 14.0691
441 1 11.1315 10.5758 14.7476
442 2 11.4363 9.93264 15.5957
443 2 19.0006 4.26986 12.3445
444 2 12.0768 11.0838 14.4532
445 1 11.9621 9.16996 12.1923
446 2 11.4638 8.51909 11.4213
447 2 12.1715 10.1176 11.681
448 4 9.31541 6.53846 14.8618
449 3 7.84615 6.13747 14.2291
450 1 9.07624 7.01394 16.7581
451 2 9.26918 6.13926 17.4069
452 2 9.86514 7.76906 16.9463
453 2 8.09595 7.45029 16.9777
454 1 10.5869 5.15075 14.9412
455 2 10.7565 4.56368 14.0344
456 2 11.4986 5.69328 15.2025
457 2 10.2294 4.52649 15.7759
458 4 6.40166 5.64255 13.614
459 1 5.29551 6.05526 15.049
460 2 5.19337 7.16508 15.033
461 2 5.80691 5.84604 15.993
462 1 6.70917 3.8363 13.1087
463 2 7.76284 3.70737 12.8009
464 2 6.56517 3.13909 13.9365
465 2 6.07114 3.52367 12.2831
466 4 19.8549 12.7683 10.0103
467 3 18.815 11.4159 10.0497
468 1 20.1698 12.6367 11.8699
469 2 20.0494 13.5032 12.5565
470 2 21.1771 12.3459 12.2058
471 2 12.3532 1.39273 19.0186
472 1 10.0463 13.6242 15.8428
473 2 10.8127 13.5805 16.6617
474 2 9.17413 14.3088 16.0315
475 2 1.63054 9.12195 12.2208
476 4 18.9405 11.1667 11.8001
477 3 17.4444 11.3271 12.4342
478 1 19.6157 9.47231 11.9094
479 2 18.9107 8.73259 11.4789
480 2 20.575 9.37743 11.3874
481 2 19.8101 9.12559 12.9548
482 1 19.0992 15.0805 6.48685
483 2 19.2431 14.4409 7.34028
484 2 18.0923 15.4592 6.61439
485 2 19.587 16.0429 6.36976
486 4 16.0835 11.8377 13.1704
487 3 15.0955 10.5992 13.5443
488 1 16.4791 12.7391 14.8051
489 2 15.5631 13.0438 15.3139
490 2 16.9091 12.0556 15.5277
491 2 17.1494 13.602 14.7082
492 1 15.2178 13.0645 12.0427
493 2 14.1397 12.8543 12.1378
494 2 15.3728 14.06 12.5268
495 2 15.5756 13.058 11.0098
496 4 14.7615 9.00256 13.0603
497 3 15.6309 8.05523 14.0115
498 1 12.9801 8.57578 13.0204
499 2 12.5665 7.64992 13.4373
500 2 5.01304 1.71141 8.6249
501 1 15.3702 8.71847 11.3539
502 2 14.5413 9.06238 10.7345
503 2 16.0878 9.52449 11.219
504 2 15.6672 7.75745 10.955
505 4 16.3069 7.7961 15.4931
506 3 15.6303 6.33182 15.973
507 1 18.0368 7.43148 14.9617
508 2 18.0674 6.36563 14.7469
509 2 18.3884 7.87686 14.0484
510 2 18.7943 7.55243 15.7262
511 1 15.8797 9.11962 16.6563
512 2 16.6213 9.11323 17.4528
513 2 15.8953 10.1355 16.2229
514 2 14.8898 8.97587 17.036
515 4 15.6621 4.70628 15.8597
516 1 14.0103 3.92547 15.763
517 2 14.1566 2.97862 15.2495
518 2 13.4595 3.75965 16.6886
519 2 13.3965 4.53343 15.0897
520 1 16.9899 4.07211 14.7139
521 2 17.2262 3.01833 14.9202
522 2 16.7775 4.20317 13.6478
523 2 17.8774 4.63293 15.0306
ITEM: TIMESTEP
20500
ITEM: NUMBER OF ATOMS
523
ITEM: BOX BOUNDS pp pp pp
5.4127179645229617e-02 2.1945872820354715e+01
4.6942935678247366e-02 1.9033020064321565e+01
4.9206526950058560e-02 1.9950793473049906e+01
ITEM: ATOMS id type x y z
1 4 7.71067 4.01288 2.78728
2 3 8.53789 5.32119 3.10293
3 1 19.046 6.24432 6.13673
4 2 16.5 11.0239 8.37876
5 2 5.22576 13.1575 4.2101
6 2 18.8148 7.19387 6.6729
7 1 20.3493 4.27028 11.1424
8 2 12.5817 16.9862 6.42039
9 2 12.3494 0.224753 9.22462
10 2 10.7739 1.56234 13.2081
11 4 8.33316 6.84521 2.33595
12 3 7.53716 6.33646 0.957309
13 1 7.47112 8.12976 3.3526
14 2 3.40441 2.49908 13.1445
15 2 7.11245 7.54593 4.2762
16 2 6.5764 8.60384 2.94311
17 1 8.57033 9.02129 3.9113
18 2 18.4353 12.3971 9.76968
19 2 16.7157 1.73559 17.0907
20 2 16.2655 16.4105 1.60881
21 4 6.09574 5.59334 0.825259
22 3 6.37334 4.30626 1.79658
23 1 5.66843 5.12784 19.0817
24 2 6.16901 4.22519 18.5864
25 2 4.5839 5.1569 19.3437
26 2 5.83188 6.04503 18.5467
27 1 4.76013 6.82882 1.46053
28 2 3.95075 6.39617 2.16571
29 2 5.35103 7.48185 2.07811
30 2 4.44702 7.01212 0.446505
31 4 7.72274 2.24003 3.87624
32 3 6.90678 0.820167 3.46909
33 1 14.888 16.0238 10.4046
34 2 16.9178 16.8112 10.2005
35 2 18.3759 16.7843 18.4082
36 2 6.91714 6.91686 7.64423
37 1 8.50607 2.53047 2.10438
38 2 13.6007 1.51054 1.47269
39 2 16.9426 11.0404 3.83444
40 2 9.70508 2.68679 2.09338
41 4 3.99292 17.6535 2.31844
42 3 4.93581 18.8747 1.93066
43 1 5.04767 12.3566 3.4222
44 2 21.4238 3.97013 11.0662
45 2 5.70585 11.4615 3.54873
46 2 20.2044 16.7851 4.54916
47 1 13.5579 6.0381 6.28744
48 2 14.1538 6.52188 7.05007
49 2 12.7084 5.64982 6.86066
50 2 14.1928 5.21853 5.88709
51 4 5.35784 0.385588 3.52605
52 1 17.432 15.0964 17.0478
53 2 18.8976 5.80109 17.9297
54 2 4.59591 16.4378 1.74927
55 2 18.2488 14.8981 3.28584
56 1 10.9472 17.7385 0.250122
57 2 6.64498 18.3362 18.9665
58 2 6.00598 17.8535 19.219
59 2 4.00866 11.9648 3.53923
60 4 9.17518 16.5739 18.2275
61 3 12.1156 5.117 9.39475
62 1 8.25935 4.43271 9.58615
63 2 8.30308 4.68074 10.6497
64 2 7.20062 4.46846 9.24421
65 2 8.65698 3.41318 9.46997
66 1 11.6468 4.9786 10.4395
67 2 14.4382 5.67399 12.843
68 2 18.8729 4.05711 18.5475
69 2 8.92097 5.0582 8.99134
70 4 21.1972 1.51747 0.252928
71 3 8.23709 15.2143 18.0919
72 1 9.13653 13.0421 1.00571
73 2 7.53742 16.616 13.1899
74 2 10.8123 1.82331 2.99324
75 2 11.7596 16.3891 12.4132
76 1 18.2078 14.474 18.0386
77 2 16.8119 2.85616 8.41227
78 2 3.57732 1.74175 12.5266
79 2 16.9669 4.70114 8.09099
80 4 8.73165 14.4094 19.45
81 3 10.8724 10.3655 19.433
82 1 21.0659 18.3935 8.95057
83 2 21.7707 18.4941 9.84709
84 2 20.6923 0.294167 8.76845
85 2 20.2237 17.5533 9.08064
86 1 9.72068 17.3208 19.9611
87 2 1.47273 9.79165 4.34621
88 2 11.4217 1.13576 2.55518
89 2 14.0318 18.2067 13.6709
90 4 12.6188 10.4373 19.5536
91 3 12.2677 12.4644 2.40237
92 1 13.3243 10.893 17.6528
93 2 12.3293 11.3305 17.2894
94 2 14.2088 11.6522 17.8188
95 2 13.8015 10.1586 16.9812
96 1 13.5951 10.2571 1.32814
97 2 17.9719 7.42983 0.986271
98 2 21.8008 18.2062 8.04815
99 4 12.5319 10.9355 2.82008
100 3 11.225 9.89781 2.93037
101 1 18.6531 13.5451 18.9488
102 2 18.4368 14.6174 4.05838
103 2 1.83459 18.6077 4.45412
104 2 17.1112 6.76601 1.2691
105 1 13.4589 11.0252 4.49106
106 2 12.8163 11.0464 5.37375
107 2 14.1097 10.1251 4.65776
108 2 14.0768 11.9596 4.44146
109 4 10.2498 8.55199 3.35241
110 1 9.97675 7.32159 1.93788
111 2 10.2723 7.79825 0.893738
112 2 14.4495 10.9601 1.07832
113 2 8.3042 9.99285 4.36875
114 1 7.60738 15.4835 13.1615
115 2 7.94598 15.0327 14.0626
116 2 7.38237 15.0969 12.1307
117 2 19.5073 15.024 11.395
118 4 1.88821 9.98236 1.7
119 3 0.336016 10.2337 1.99214
120 1 19.7767 13.9829 19.7648
121 2 2.43182 8.26992 3.67734
122 2 12.2994 8.07719 17.5901
123 2 13.0279 3.45084 12.2545
124 1 2.278 9.4519 3.62183
125 2 9.30126 2.39554 17.0678
126 2 10.2564 1.77463 12.7829
127 2 4.45658 3.1332 17.8521
128 4 20.7448 10.7395 1.56249
129 3 19.8933 10.7855 2.95753
130 1 20.5954 10.3095 19.593
131 2 18.3033 12.571 18.5931
132 2 4.9474 1.59155 4.52327
133 2 20.5811 16.2438 4.84364
134 1 8.47883 1.79289 5.48288
135 2 18.7892 16.0358 7.47624
136 2 14.4311 1.03371 13.7396
137 2 9.00135 0.864989 5.54077
138 4 19.2739 10.6824 4.45791
139 3 19.5265 11.9643 5.47145
140 1 17.5684 10.1381 4.10516
141 2 17.0852 9.55097 4.91761
142 2 17.7285 9.60559 3.16763
143 2 11.9075 13.5665 15.656
144 1 19.829 9.31767 5.548
145 2 19.9603 8.38469 5.03247
146 2 20.7089 9.52272 6.16707
147 2 19.0114 9.12496 6.22047
148 4 15.586 6.71963 2.14308
149 3 14.7361 5.34795 1.12235
150 1 13.8299 8.99927 1.61279
151 2 8.94582 17.9136 3.29598
152 2 19.2291 18.537 0.321412
153 1 14.4696 8.03559 2.14483
154 2 11.8074 16.608 15.2966
155 2 3.8154 3.33329 8.71205
156 2 15.0374 13.2104 7.29122
157 4 14.591 3.7643 0.583431
158 3 15.8449 3.87096 19.3728
159 1 12.8382 3.56179 0.0677072
160 2 12.403 4.17254 0.917614
161 2 12.873 4.13481 18.9104
162 2 12.3945 2.4477 19.2361
163 1 14.6147 2.10158 1.31261
164 2 15.4981 1.43288 0.524979
165 2 18.6855 15.5789 11.1785
166 2 21.0058 7.96592 9.0513
167 4 16.8485 3.98675 18.0673
168 1 17.4797 2.18795 17.7807
169 2 14.4089 14.843 2.9343
170 2 18.4464 2.29687 17.2713
171 2 17.8982 1.50318 18.5188
172 1 18.3386 5.02767 18.5285
173 2 16.0975 10.8346 9.03073
174 2 18.1578 5.18567 19.5443
175 2 12.1663 15.8308 12.0816
176 4 2.97236 18.2347 5.12451
177 3 2.89619 17.1892 6.39058
178 1 4.41627 17.717 4.13035
179 2 12.1733 1.90018 6.0181
180 2 12.0067 16.6779 6.45358
181 2 13.3752 2.90291 12.6799
182 1 13.1342 1.59662 5.56892
183 2 13.6932 2.52755 5.5964
184 2 13.5153 0.82429 6.20015
185 2 13.0076 1.13123 4.59232
186 4 3.80036 16.3679 7.54045
187 3 3.04667 14.8674 7.75639
188 1 3.80847 17.3335 9.19547
189 2 3.14824 18.1637 9.01796
190 2 3.53674 16.651 9.996
191 2 4.745 17.8342 9.39398
192 1 5.62924 16.0006 7.19226
193 2 5.601 15.673 6.1571
194 2 6.29644 16.8442 7.45041
195 2 5.91292 15.16 7.86462
196 4 2.12025 13.7098 7.01591
197 3 2.75411 12.2983 7.66125
198 1 2.08124 13.9077 5.15223
199 2 2.27748 12.9017 4.70019
200 2 1.01173 13.9827 4.86245
201 2 2.64261 14.6803 4.58778
202 1 0.361939 14.0924 7.33248
203 2 0.0577954 14.2987 8.48985
204 2 21.684 14.6682 6.5961
205 2 21.5582 13.2868 7.33747
206 4 2.72643 10.8987 8.49763
207 3 3.93476 10.8874 9.70393
208 1 1.35203 10.628 9.77125
209 2 0.706826 9.75138 9.75797
210 2 0.759824 11.5411 9.91225
211 2 16.5029 0.83181 6.65744
212 1 2.96605 9.65679 7.07351
213 2 2.61515 8.621 7.30172
214 2 2.48769 10.0517 6.17773
215 2 4.0408 9.52672 6.8254
216 4 2.85743 10.1953 11.0228
217 3 3.96884 8.90483 11.3019
218 1 2.93266 11.6598 12.379
219 2 3.91211 12.1206 12.3445
220 2 2.24454 12.431 12.0105
221 2 2.63011 11.2255 13.3429
222 1 6.05537 7.05926 6.96075
223 2 5.40751 7.84215 7.38679
224 2 5.56768 6.08602 6.87441
225 2 6.40674 7.32705 5.93354
226 4 3.9246 7.23286 11.8319
227 1 2.77046 6.29042 10.5881
228 2 1.81876 6.80977 10.518
229 2 3.11473 6.09851 9.58201
230 2 2.62982 5.34563 11.1028
231 1 5.73248 6.80652 11.958
232 2 6.15932 6.39459 11.0229
233 2 6.17525 7.81384 12.1126
234 4 8.39032 18.8574 8.98364
235 3 8.80266 17.3836 8.70001
236 1 6.78506 0.325535 8.25761
237 2 6.12793 1.10007 8.43615
238 2 7.99291 0.386542 15.5369
239 2 10.7255 2.74154 10.7076
240 1 8.36816 2.56673 6.65412
241 2 7.96313 13.1543 1.0604
242 2 9.14697 2.74872 7.35728
243 2 7.38563 3.01413 6.80542
244 4 9.4613 15.67 8.77411
245 3 8.87225 15.0876 7.35365
246 1 11.2866 15.8941 8.84161
247 2 11.5922 16.8209 8.39474
248 2 11.4522 16.0897 9.92521
249 2 11.8235 15.0426 8.52383
250 1 8.9594 14.7461 10.3132
251 2 9.44256 13.758 10.3081
252 2 9.45108 15.3577 11.0971
253 2 7.88996 14.5962 10.382
254 4 9.30208 14.1281 6.0694
255 3 8.9193 12.6834 6.57811
256 1 11.0218 14.0924 5.43345
257 2 11.0465 13.9299 4.34754
258 2 11.5282 15.0308 5.69362
259 2 11.6166 13.3277 5.95429
260 1 8.39921 14.313 4.35729
261 2 8.95984 15.0465 3.74854
262 2 8.57477 13.3419 3.86005
263 2 7.32629 14.5614 4.27186
264 4 8.59221 11.2165 7.26031
265 3 10.0343 10.4706 7.15752
266 1 6.79945 10.7027 6.92149
267 2 6.35232 11.6216 6.50567
268 2 6.68711 9.8651 6.21905
269 2 6.31093 10.4968 7.89487
270 1 12.7476 12.5146 11.19
271 2 13.3669 12.9954 10.4215
272 2 13.0101 12.7463 12.1947
273 2 11.7438 12.479 10.8619
274 4 10.9762 9.13873 7.73348
275 3 10.8485 7.88864 6.68135
276 1 10.2589 8.98661 9.43625
277 2 10.6665 8.13463 10.0119
278 2 10.5402 9.89956 9.98568
279 2 9.15688 8.90283 9.41985
280 1 12.7486 9.49224 7.92188
281 2 13.3742 9.62475 7.03477
282 2 12.9261 10.3174 8.63197
283 2 13.1634 8.60332 8.44539
284 4 11.2494 7.30281 5.2157
285 1 13.115 7.02859 5.15946
286 2 13.3441 6.66376 4.12075
287 2 13.6523 7.9748 5.23439
288 1 10.7038 5.48038 5.18
289 2 11.1128 5.08905 4.22411
290 2 11.2887 4.97394 5.94552
291 2 9.63504 5.25045 5.27106
292 4 19.6672 5.1103 9.71357
293 3 20.7665 5.36401 8.42499
294 1 18.885 6.64547 10.2145
295 2 19.3311 7.69077 10.121
296 2 18.0856 6.45487 10.9586
297 2 13.8666 14.5271 2.80526
298 1 18.0751 5.89059 5.34188
299 2 9.56097 13.688 1.77971
300 2 2.83795 0.481322 5.78593
301 2 16.6673 7.64341 4.42871
302 4 19.906 4.81471 7.11188
303 3 20.7414 3.7016 6.286
304 1 16.516 6.616 3.89142
305 2 13.8073 16.1063 10.0429
306 2 17.0401 11.319 18.1324
307 2 21.3612 2.82808 0.733208
308 1 15.7579 17.0447 9.84926
309 2 17.7804 18.8862 15.7484
310 2 15.6772 17.4515 8.71856
311 2 18.4528 16.8012 16.3403
312 4 20.4963 2.59431 4.76996
313 3 18.8357 2.66091 4.59681
314 1 21.2661 3.71 3.41032
315 2 20.9996 4.639 3.09735
316 2 0.274483 4.05659 3.2068
317 2 21.9356 8.52025 8.91138
318 1 21.5204 1.16533 5.09697
319 2 15.2936 15.8466 11.4709
320 2 21.9022 0.50878 4.21883
321 2 21.4515 0.791989 6.01466
322 4 17.7155 3.77291 3.75932
323 3 16.2874 2.98455 3.87954
324 1 17.3362 5.50662 4.24164
325 2 0.641561 17.1221 2.99481
326 2 1.3596 6.84288 19.7947
327 2 15.3809 0.832009 3.71872
328 1 1.45801 16.4971 2.31114
329 2 16.3506 15.7008 16.6776
330 2 20.5516 18.6293 1.63011
331 2 3.1618 9.75463 4.08751
332 4 15.6824 1.82204 2.68323
333 3 17.0857 1.23186 1.91446
334 1 7.69171 1.78411 0.943626
335 2 8.51696 1.76032 0.361453
336 2 6.95848 1.19973 1.26031
337 2 7.02578 2.52243 0.632892
338 1 17.161 18.6688 14.8917
339 2 17.9399 0.204944 14.0562
340 2 3.9281 13.8409 10.1825
341 2 4.14367 14.2739 10.7171
342 4 18.5382 2.19297 1.92755
343 1 20.1858 0.0952087 0.777396
344 2 1.84374 15.1148 19.7503
345 2 17.0072 10.6109 18.3955
346 2 8.30236 18.0499 17.902
347 1 11.3275 0.118735 0.458374
348 2 8.5245 17.3587 0.671642
349 2 10.4114 6.34335 1.9116
350 2 14.9907 6.05877 12.5905
351 4 1.6386 14.7372 1.52702
352 3 0.536253 13.6511 1.50064
353 1 18.7528 3.78856 8.54053
354 2 14.3924 18.5231 18.2417
355 2 14.4297 18.277 17.2846
356 2 16.6472 1.60319 6.8833
357 1 17.4136 3.7338 8.23634
358 2 12.542 0.0654114 8.53219
359 2 14.6026 13.8119 7.03052
360 2 2.13416 8.95013 0.712446
361 4 21.2005 12.8404 0.488461
362 3 2.35702 11.1965 0.693829
363 1 4.7616 2.63215 16.8678
364 2 5.46673 3.10521 16.2221
365 2 5.44546 1.80631 17.1718
366 2 3.9632 2.35891 16.112
367 1 18.4127 16.128 17.3416
368 2 7.50463 18.9428 15.2642
369 2 9.99851 16.233 17.0461
370 2 4.76878 16.6964 4.78838
371 4 2.44616 12.4277 19.6527
372 3 2.76876 11.7568 18.1586
373 1 2.21113 17.5571 1.58421
374 2 10.6949 1.92203 10.5649
375 2 8.79543 17.1248 3.32406
376 2 2.0897 17.2969 0.416519
377 1 2.63178 14.4874 19.9119
378 2 21.6731 13.8441 19.2577
379 2 3.74994 14.6758 19.9973
380 2 19.303 12.288 1.07179
381 4 0.960198 11.5049 17.4738
382 3 1.53063 10.1637 16.5975
383 1 0.425339 13.0942 16.5753
384 2 1.25435 13.8903 16.6368
385 2 21.8857 12.7158 15.5886
386 2 21.6974 13.4759 17.4169
387 1 21.3051 11.282 19.1674
388 2 20.2672 9.18224 19.7257
389 2 12.5292 16.6125 15.2728
390 2 21.977 10.5822 18.0465
391 4 2.8462 9.34158 16.1743
392 3 2.84065 8.66865 14.7633
393 1 4.16641 8.74367 17.3538
394 2 4.3128 7.69879 17.5665
395 2 5.19593 9.23864 17.1799
396 2 3.93917 9.34418 18.2629
397 1 0.726866 5.92991 19.372
398 2 21.8993 6.04513 0.220946
399 2 1.22558 4.94717 19.4855
400 2 0.224276 5.99085 18.3899
401 4 2.83905 7.02248 14.0143
402 1 0.91139 6.66111 13.9081
403 2 0.474414 7.18088 14.8132
404 2 0.53755 7.10934 12.9551
405 2 0.758924 5.5579 13.7988
406 1 3.76241 5.63304 14.9278
407 2 3.46605 4.66281 14.4521
408 2 3.36756 5.61607 15.9679
409 4 9.95568 11.9253 15.4523
410 3 9.69853 11.5881 17.0353
411 1 14.6911 19.025 13.8366
412 2 19.7608 3.25303 10.955
413 2 18.8508 12.7442 5.38052
414 2 9.05418 2.54646 17.7217
415 1 15.8115 18.8483 14.6254
416 2 13.0579 11.4394 11.3228
417 2 12.1952 7.13079 17.5593
418 2 19.3125 2.74041 8.61018
419 4 9.59261 11.1767 18.6896
420 3 8.6482 11.6756 14.6232
421 1 7.86871 10.3396 18.8156
422 2 7.39045 10.7358 17.8042
423 2 8.06206 9.30315 18.2678
424 2 7.11819 10.4739 19.5074
425 1 9.76924 12.6433 19.7672
426 2 10.7033 12.8018 19.6438
427 2 5.07333 12.7121 2.41371
428 2 12.9192 12.6762 1.67312
429 4 7.92789 10.6218 13.5343
430 3 9.22231 9.70344 13.0245
431 1 7.46853 11.6544 12.0419
432 2 8.10918 11.37 11.1817
433 2 6.44545 11.5588 11.6629
434 2 7.64699 12.7212 11.9733
435 1 6.55912 9.89295 14.4167
436 2 6.73311 8.80975 14.4924
437 2 6.62419 10.3305 15.4262
438 2 5.61866 10.0308 13.8803
439 4 10.5519 8.98705 13.7585
440 3 10.0782 7.64652 14.5187
441 1 11.055 10.4274 14.9604
442 2 11.3408 9.85012 15.8546
443 2 19.9696 4.73286 12.1184
444 2 11.9433 10.8984 14.5035
445 1 12.0413 8.43676 12.6195
446 2 11.7531 7.38953 12.3468
447 2 11.9737 9.09136 11.7456
448 4 9.17147 6.21692 14.7558
449 3 7.82871 6.189 13.8154
450 1 8.96467 6.25717 16.6046
451 2 7.98633 5.86826 16.8931
452 2 9.71627 5.69817 17.1888
453 2 9.08433 7.28959 16.9694
454 1 10.2548 4.6989 14.2893
455 2 10.4586 4.49335 13.216
456 2 11.2647 4.75793 14.7478
457 2 9.85342 3.71812 14.6124
458 4 6.27575 5.68004 13.3644
459 1 5.28715 5.80328 14.9611
460 2 5.51979 6.76537 15.4762
461 2 5.7038 5.07913 15.6792
462 1 6.49704 3.86726 12.8553
463 2 7.18339 3.74355 11.9977
464 2 6.98529 3.35817 13.7092
465 2 5.53591 3.36266 12.6824
466 4 19.5517 11.3822 10.2398
467 3 18.5417 10.2908 11.122
468 1 20.305 12.0612 11.9104
469 2 20.0125 13.0908 12.1238
470 2 21.4078 12.0258 11.9899
471 2 16.7389 15.9291 1.57799
472 1 10.9804 13.4545 15.0627
473 2 10.4225 14.3937 15.2369
474 2 11.359 13.3391 14.0157
475 2 1.92946 9.32701 12.174
476 4 19.2599 10.6663 12.6536
477 3 17.9924 11.0029 13.6316
478 1 20.2963 9.26305 13.2837
479 2 20.0256 8.32305 12.7902
480 2 21.3192 9.52345 13.1318
481 2 20.0576 9.16001 14.3616
482 1 18.0987 16.7881 7.17433
483 2 17.2005 16.2735 7.13855
484 2 18.3556 17.4101 6.33503
485 2 18.1424 17.422 8.05206
486 4 16.4268 11.5927 13.4663
487 3 15.2632 10.5067 12.8556
488 1 16.1686 12.2467 15.2089
489 2 15.175 12.6888 15.3848
490 2 16.3026 11.3962 15.8897
491 2 16.9438 12.9981 15.5056
492 1 16.2143 13.1166 12.3256
493 2 15.2001 13.4498 12.5778
494 2 16.8627 13.9682 12.6169
495 2 16.2331 13.0197 11.2429
496 4 14.8944 8.92898 12.7348
497 3 16.0068 8.15352 13.7722
498 1 13.2726 8.31592 13.2913
499 2 13.2369 7.60066 14.1117
500 2 3.05428 3.53087 8.68763
501 1 15.1717 8.53784 10.9813
502 2 14.6254 7.59281 10.8665
503 2 14.8807 9.22508 10.1808
504 2 16.2483 8.27466 10.9051
505 4 16.1684 7.78214 15.4142
506 3 16.1776 6.10138 15.4316
507 1 17.7177 8.75944 16.0137
508 2 18.5719 8.07248 15.9246
509 2 17.7878 9.713 15.4805
510 2 17.5664 9.03836 17.0842
511 1 14.8712 8.40399 16.4551
512 2 13.8403 8.27189 16.0829
513 2 15.0389 7.8689 17.4275
514 2 15.1057 9.4577 16.6471
515 4 15.9611 4.51651 15.9637
516 1 14.2466 3.82365 15.8649
517 2 13.4583 4.56128 15.6946
518 2 14.205 2.9361 15.2043
519 2 14.1375 3.40208 16.8907
520 1 17.2643 3.68279 14.7515
521 2 18.2103 3.95223 15.2507
522 2 17.2255 2.59351 14.6424
523 2 17.2035 4.12072 13.7466
ITEM: TIMESTEP
21000
ITEM: NUMBER OF ATOMS
523
ITEM: BOX BOUNDS pp pp pp
5.4127179645229617e-02 2.1945872820354715e+01
4.6942935678247366e-02 1.9033020064321565e+01
4.9206526950058560e-02 1.9950793473049906e+01
ITEM: ATOMS id type x y z
1 4 7.09885 4.29843 2.48496
2 3 7.44515 5.66975 3.17861
3 1 17.8381 6.14217 6.41498
4 2 13.8952 10.3264 8.24751
5 2 5.05835 12.0049 2.9511
6 2 17.1938 6.91756 6.87348
7 1 21.8109 4.36719 9.68271
8 2 19.9187 15.8458 2.86696
9 2 11.3454 1.59102 8.77266
10 2 8.89696 18.7941 16.938
11 4 7.39917 7.33685 2.78545
12 3 6.23384 7.26179 1.69963
13 1 7.03789 8.52067 4.12595
14 2 3.62963 0.325482 13.053
15 2 6.3497 8.03562 4.84651
16 2 6.64718 9.5195 3.82721
17 1 8.36586 9.02013 4.83525
18 2 19.0483 12.7386 9.59601
19 2 17.4149 0.695625 18.2999
20 2 18.6198 17.8802 0.146671
21 4 5.53413 6.10859 0.735457
22 3 6.02145 4.60776 1.40112
23 1 5.78191 5.69336 18.7071
24 2 5.48638 6.47277 18.0254
25 2 6.81541 5.24304 18.4751
26 2 5.02092 4.86795 18.4839
27 1 3.7787 5.93718 1.29934
28 2 3.49382 7.15447 1.26707
29 2 3.23219 5.44083 0.544596
30 2 3.49169 5.60092 2.28658
31 4 7.43064 2.11271 3.43039
32 3 6.87985 0.698097 3.09342
33 1 15.2638 16.7015 9.75623
34 2 14.811 18.8039 9.65722
35 2 19.0646 16.2051 15.9155
36 2 4.59408 5.70584 6.73302
37 1 8.93128 3.61506 1.75684
38 2 13.9783 1.39798 2.15314
39 2 17.5503 10.3884 2.23688
40 2 9.67652 3.19472 2.41317
41 4 3.82376 17.5861 1.66802
42 3 5.09414 18.6671 1.36469
43 1 5.0799 13.0885 2.57086
44 2 0.335989 4.92226 8.72605
45 2 5.53573 13.1347 1.56432
46 2 21.6118 15.5327 4.35325
47 1 13.7551 7.61886 6.19459
48 2 13.4977 8.64387 6.49732
49 2 14.002 7.04403 7.11615
50 2 14.6947 7.65724 5.62701
51 4 5.20871 0.163152 3.16185
52 1 18.8641 14.4987 17.4493
53 2 19.2923 3.61335 17.3564
54 2 4.43999 16.2513 1.44614
55 2 12.0249 17.2318 4.50709
56 1 10.8038 18.386 19.6487
57 2 19.9645 1.56394 13.9052
58 2 19.9298 1.55447 13.3649
59 2 4.07043 13.4946 2.49056
60 4 9.24942 16.141 18.5276
61 3 12.7754 6.69203 9.57521
62 1 8.63676 3.86219 9.24137
63 2 9.39391 3.11641 9.02694
64 2 8.00511 3.92029 8.34935
65 2 9.091 4.84068 9.44869
66 1 12.4372 6.14562 10.5087
67 2 14.0952 2.68426 11.6274
68 2 19.2541 3.97166 19.0593
69 2 8.05486 3.54293 10.1012
70 4 20.6419 2.40695 18.7754
71 3 8.98339 15.3409 0.230864
72 1 8.3865 12.6506 1.18823
73 2 5.09764 17.2442 15.0566
74 2 12.5086 3.17203 6.30973
75 2 7.60528 14.5481 13.9929
76 1 18.8733 14.7337 18.7705
77 2 17.2844 2.36256 9.83142
78 2 3.30959 18.892 12.7399
79 2 16.497 3.75833 8.84771
80 4 7.92365 14.0693 19.7814
81 3 10.8397 10.2827 19.2929
82 1 20.4369 0.224459 9.84334
83 2 19.4848 18.9597 10.348
84 2 20.2417 0.665144 8.84117
85 2 20.8269 18.1802 9.87369
86 1 10.9385 16.9046 18.9622
87 2 2.73889 9.81564 4.15539
88 2 12.0351 2.54008 6.51213
89 2 18.0649 18.5498 11.1019
90 4 12.3892 10.5939 19.7996
91 3 11.4919 11.7498 2.57664
92 1 12.9152 12.316 19.2824
93 2 13.9063 12.7234 19.8056
94 2 12.8211 12.7833 18.1953
95 2 12.3708 12.783 0.10687
96 1 13.4404 9.82232 1.13646
97 2 16.1308 6.57778 0.311414
98 2 21.0161 1.07741 10.3854
99 4 12.2587 10.2665 2.85077
100 3 10.9619 9.33422 3.24765
101 1 18.4412 14.5961 0.0981655
102 2 11.8767 16.6186 4.70195
103 2 1.84554 17.8312 5.44903
104 2 18.539 6.94035 0.404629
105 1 13.8949 10.6388 3.77479
106 2 13.7726 10.5023 4.86268
107 2 14.7379 10.026 3.37833
108 2 14.3314 11.657 3.59602
109 4 9.827 8.28557 3.97956
110 1 9.1349 7.6617 2.33549
111 2 9.10858 8.56399 1.77252
112 2 14.4118 10.4518 1.35409
113 2 8.46333 9.84056 5.53486
114 1 5.23878 17.1938 14.0251
115 2 6.12725 17.551 13.5413
116 2 4.45568 16.7119 13.4352
117 2 17.6585 15.4822 11.256
118 4 2.28738 10.0175 1.35419
119 3 0.604797 10.6811 1.12619
120 1 18.9088 13.3588 0.337217
121 2 2.79487 11.486 3.18703
122 2 11.6806 7.30396 18.736
123 2 10.7593 1.17736 11.3715
124 1 2.351 10.4152 3.30862
125 2 9.79288 2.57964 16.8296
126 2 9.69591 18.4587 16.8433
127 2 4.36832 2.13919 15.2493
128 4 20.9014 10.5174 0.953535
129 3 20.4246 9.87401 2.38766
130 1 20.5379 9.79727 19.1836
131 2 17.4139 15.1018 0.389551
132 2 4.36327 1.44938 2.61724
133 2 21.4325 14.7899 4.15545
134 1 8.49189 1.58175 4.96918
135 2 18.1349 16.4813 7.64816
136 2 16.6527 0.935883 11.41
137 2 8.63363 0.530493 4.94713
138 4 19.4878 10.568 3.73657
139 3 19.4126 12.1788 3.37217
140 1 17.7334 9.96648 3.31378
141 2 16.9714 10.4987 3.9417
142 2 17.4575 8.93998 3.33088
143 2 13.0138 13.0637 15.9397
144 1 20.4203 10.7059 5.42769
145 2 20.0127 10.0069 6.11982
146 2 21.4888 10.398 5.28916
147 2 20.4221 11.7931 5.67624
148 4 15.4527 6.01243 1.44128
149 3 14.5838 4.5728 1.3628
150 1 13.815 8.3999 1.31672
151 2 11.9233 2.72789 2.20794
152 2 19.0135 1.0417 3.03667
153 1 14.3058 7.29672 1.43474
154 2 11.062 15.586 13.4516
155 2 2.98615 3.78918 4.83062
156 2 18.8332 12.8349 6.41684
157 4 14.6645 3.33872 0.290624
158 3 15.9408 3.43074 19.1095
159 1 13.0385 2.96583 19.3327
160 2 13.4334 3.80278 18.3869
161 2 13.0874 1.99034 18.5001
162 2 11.8177 3.47645 19.3331
163 1 14.8462 1.7224 1.48428
164 2 14.9173 0.583968 0.57269
165 2 18.0077 15.6701 11.9593
166 2 17.2232 10.5479 7.94606
167 4 17.0897 3.08495 18.004
168 1 16.8095 1.27512 17.5413
169 2 17.1823 17.6633 18.9132
170 2 15.7346 0.980942 17.5382
171 2 17.1696 1.03437 16.4893
172 1 19.0708 2.96324 18.3279
173 2 13.5071 9.97608 7.69422
174 2 19.1349 6.68793 1.01323
175 2 7.17842 14.9236 14.4535
176 4 3.70062 18.3975 5.3638
177 3 4.03501 17.4525 6.68558
178 1 4.32938 17.8427 3.80933
179 2 16.4329 0.745467 7.79652
180 2 19.5501 15.3842 2.50596
181 2 10.1333 1.23565 10.8533
182 1 16.0599 1.01145 6.79328
183 2 15.1682 0.405108 6.54912
184 2 15.912 2.12193 6.65702
185 2 16.8716 0.837449 6.07544
186 4 3.88814 16.4517 7.95048
187 3 2.55847 15.5045 7.84216
188 1 3.51021 17.409 9.51708
189 2 2.43926 17.2855 9.7742
190 2 4.11903 17.0552 10.3633
191 2 3.59726 18.5133 9.46124
192 1 5.31893 15.2867 8.05109
193 2 5.1999 14.3927 7.40513
194 2 6.3233 15.6791 7.90693
195 2 5.40355 14.8821 9.08911
196 4 1.84639 14.1127 7.54857
197 3 2.71519 12.9557 8.23531
198 1 2.01947 13.595 5.78115
199 2 1.76495 14.3651 5.05435
200 2 3.09514 13.5234 5.70007
201 2 1.56894 12.6126 5.58844
202 1 21.9069 14.5224 8.16665
203 2 21.5066 13.4726 8.54642
204 2 21.8643 15.0657 9.11364
205 2 21.4878 15.0506 7.34529
206 4 2.77902 11.3112 8.79158
207 3 3.94695 11.1065 9.99438
208 1 1.3911 10.9622 10.0521
209 2 0.918006 9.96781 10.0513
210 2 0.596316 11.7046 10.2572
211 2 14.3273 4.47076 7.74753
212 1 2.75623 9.90001 7.54288
213 2 1.97027 9.90839 6.78609
214 2 3.74216 9.82819 7.09709
215 2 2.59916 8.97168 8.09809
216 4 2.86867 10.8271 11.379
217 3 3.6064 9.35446 11.7676
218 1 3.4068 12.361 12.4575
219 2 4.44655 12.3769 12.7524
220 2 3.00576 13.2342 11.9019
221 2 2.88659 12.3026 13.455
222 1 5.49555 5.1127 6.49066
223 2 5.20159 4.07169 6.29896
224 2 6.15521 5.09889 7.37695
225 2 6.05586 5.53926 5.62136
226 4 4.05877 7.89031 12.2742
227 1 3.1335 6.90533 11.0198
228 2 2.11397 7.33795 10.8922
229 2 3.62838 6.94493 10.0201
230 2 3.04219 5.8249 11.2558
231 1 5.95791 7.56848 12.4226
232 2 6.46905 7.47865 11.4392
233 2 6.39176 8.41982 12.9716
234 4 8.58053 18.394 8.37855
235 3 8.7446 16.7726 8.68414
236 1 7.69138 0.212589 9.56601
237 2 6.69049 0.507415 10.211
238 2 4.2897 17.0619 17.366
239 2 8.35217 1.15804 12.6614
240 1 8.39466 2.28389 6.13398
241 2 7.47128 12.1323 1.2534
242 2 8.87084 1.85493 7.00067
243 2 7.94684 3.30378 6.15198
244 4 9.66499 15.3707 8.71422
245 3 9.44235 14.6783 7.22077
246 1 11.413 15.9261 9.10319
247 2 11.9419 15.2257 9.83412
248 2 11.9797 16.0537 8.09143
249 2 11.4475 16.9875 9.43287
250 1 8.97672 14.3458 10.1317
251 2 9.1985 13.2784 10.0845
252 2 9.6415 14.7266 10.9643
253 2 7.95244 14.4716 10.5052
254 4 9.1084 13.8739 5.83559
255 3 7.87402 12.7259 6.11348
256 1 10.6942 12.9181 5.4285
257 2 10.7297 12.3636 4.48804
258 2 11.4831 13.6883 5.59971
259 2 10.7844 12.1241 6.18873
260 1 8.23567 15.0865 4.68174
261 2 8.65783 16.0565 4.39127
262 2 8.01125 14.5232 3.76561
263 2 7.25721 15.3007 5.14947
264 4 7.92382 12.0242 7.66635
265 3 9.10087 10.7644 7.53776
266 1 6.2475 11.2836 7.81642
267 2 6.00828 11.0784 8.87126
268 2 5.42611 11.895 7.42203
269 2 6.26319 10.3148 7.2842
270 1 13.6073 12.7171 9.85247
271 2 12.7715 12.2518 9.28111
272 2 13.8115 13.7989 9.66254
273 2 13.4551 12.5243 10.9153
274 4 9.85486 9.44606 8.12462
275 3 10.859 8.72869 6.97868
276 1 8.31219 8.46917 8.4804
277 2 8.4585 7.42381 8.77863
278 2 7.66589 8.99562 9.1831
279 2 7.7932 8.42065 7.51242
280 1 11.0075 9.91645 9.52868
281 2 10.5712 10.162 10.4987
282 2 11.774 9.14213 9.69541
283 2 11.5559 10.7726 9.10905
284 4 10.9144 7.46115 5.88945
285 1 12.6433 6.98972 5.33237
286 2 12.6435 5.90128 5.29064
287 2 12.7873 7.30462 4.29652
288 1 10.2211 6.02204 6.81036
289 2 10.3285 5.12392 6.18033
290 2 10.7693 5.82817 7.73608
291 2 9.17795 6.13399 7.12473
292 4 19.9343 5.11287 9.87799
293 3 19.7893 6.34165 8.7529
294 1 19.1382 5.63948 11.3604
295 2 19.3014 5.12945 12.3581
296 2 18.3654 6.4622 11.3212
297 2 16.5375 18.3805 18.2929
298 1 17.5219 5.77331 5.24425
299 2 9.2816 12.9189 1.76454
300 2 3.71669 0.811341 5.59449
301 2 16.2591 7.33957 3.48619
302 4 19.0153 5.20069 7.51791
303 3 20.3977 4.68023 6.6415
304 1 16.481 6.25651 3.09616
305 2 14.9166 15.6596 9.41541
306 2 16.8023 11.1016 0.667845
307 2 20.9264 6.9034 2.81846
308 1 14.449 17.7505 9.70999
309 2 16.4052 17.5656 15.0249
310 2 13.4127 17.8517 10.2239
311 2 18.3696 14.4345 15.1649
312 4 20.2267 3.74307 5.0862
313 3 18.6784 3.03134 5.2171
314 1 21.8875 3.39675 4.04226
315 2 21.4521 3.01875 2.92524
316 2 21.4553 7.11701 3.18089
317 2 16.24 10.2358 7.66536
318 1 21.6943 2.15036 4.83696
319 2 16.1347 16.8991 9.43496
320 2 21.9618 1.12364 3.86115
321 2 0.639909 1.69794 5.38966
322 4 18.0388 3.65179 3.57564
323 3 16.7669 2.43579 3.53692
324 1 17.1576 5.34818 3.96253
325 2 22.1532 16.5892 1.22248
326 2 1.33276 5.60139 -0.00877416
327 2 16.5892 18.8798 2.94225
328 1 1.28276 16.6343 1.07623
329 2 20.0007 13.8016 17.1406
330 2 21.283 2.0397 1.82162
331 2 1.15751 10.6124 3.37202
332 4 16.2939 1.44476 2.34038
333 3 17.4561 1.79148 1.21791
334 1 8.89298 3.32721 0.374926
335 2 7.68861 3.24229 0.102559
336 2 11.4364 0.00978915 0.249711
337 2 9.53449 3.63891 19.5059
338 1 16.1864 17.6374 13.8665
339 2 15.3381 17.3182 13.2768
340 2 3.90009 14.6907 12.348
341 2 4.1605 15.3763 12.1195
342 4 18.7776 1.9359 2.20955
343 1 20.0929 1.92807 0.980919
344 2 2.87932 14.9665 18.7002
345 2 16.4802 11.3779 -0.00871223
346 2 8.05337 17.1169 18.1095
347 1 9.31247 18.6272 19.7435
348 2 11.952 16.9277 19.4043
349 2 9.77808 7.08093 1.89348
350 2 14.7336 3.01856 11.6542
351 4 1.3959 14.9563 0.401268
352 3 21.8347 14.1139 0.587586
353 1 18.6467 3.76449 8.7535
354 2 13.009 16.2041 15.6231
355 2 12.6712 16.837 14.7512
356 2 13.7816 4.47825 8.38017
357 1 17.4354 3.20528 9.16466
358 2 10.5308 1.21911 8.68608
359 2 19.4072 13.1784 6.21172
360 2 2.08698 8.88039 0.517506
361 4 20.7633 12.7494 0.212551
362 3 3.42643 11.2552 0.820014
363 1 5.45006 1.7754 15.5405
364 2 6.23477 2.35853 16.0915
365 2 5.03304 1.10248 16.2005
366 2 5.94226 1.1975 14.6741
367 1 18.6875 15.1915 15.9426
368 2 4.4545 17.2662 18.2379
369 2 15.1567 11.053 16.5858
370 2 4.62002 16.8857 3.97113
371 4 2.79079 12.5949 19.9197
372 3 1.63545 12.2221 18.7103
373 1 2.23636 17.6362 1.46838
374 2 8.58247 1.68845 13.0713
375 2 11.4444 2.82213 1.58049
376 2 1.90689 18.6059 1.81993
377 1 3.16359 14.5325 19.738
378 2 14.9126 16.3083 3.68952
379 2 4.3624 14.4656 19.8835
380 2 14.6391 15.62 3.20343
381 4 0.937869 11.1777 17.5451
382 3 2.20098 10.1893 17.2642
383 1 0.0768896 12.2699 16.1789
384 2 1.0233 12.3344 15.5697
385 2 21.1457 11.9331 15.4638
386 2 21.6003 13.337 16.4163
387 1 21.1961 10.1559 18.1099
388 2 19.5617 9.34241 18.7572
389 2 11.0505 15.8623 12.8924
390 2 20.5449 10.2986 17.2826
391 4 3.14363 8.78585 17.0656
392 3 3.32663 8.64847 15.4108
393 1 4.72692 9.40075 17.8145
394 2 5.4712 9.03067 17.0537
395 2 5.04463 10.4644 18.0546
396 2 5.11494 8.79931 18.6521
397 1 0.479351 5.04258 19.8154
398 2 0.265944 4.23347 0.551355
399 2 0.883611 4.46453 18.6023
400 2 21.3083 5.52385 19.7382
401 4 2.97785 7.33419 14.341
402 1 1.0891 7.25194 14.2092
403 2 0.723902 6.72186 13.3357
404 2 0.584743 6.64077 14.9925
405 2 0.696025 8.26006 14.2831
406 1 3.9389 5.70431 14.8706
407 2 3.64678 4.97978 14.1141
408 2 3.57092 5.35541 15.8678
409 4 10.6134 11.6105 15.9084
410 3 9.74248 11.5139 17.2467
411 1 17.2333 0.110918 11.792
412 2 21.8604 3.22364 9.95227
413 2 18.6403 12.3301 2.88097
414 2 9.90856 2.49355 17.5225
415 1 16.8474 18.4398 12.8692
416 2 14.5132 12.1354 9.57056
417 2 12.1399 6.85904 18.5861
418 2 19.3055 2.99973 8.36353
419 4 9.48787 10.8544 18.7044
420 3 9.80879 11.9726 14.5055
421 1 8.46632 9.37129 18.6624
422 2 7.6165 9.56924 17.9502
423 2 8.81245 8.38913 18.4489
424 2 8.23306 9.11845 19.821
425 1 8.87607 12.2481 19.9035
426 2 9.15548 15.7105 16.9679
427 2 5.61662 13.6791 3.28948
428 2 12.0611 12.6705 2.77916
429 4 8.80601 10.884 13.6227
430 3 9.81012 9.6297 13.307
431 1 8.2416 11.6087 12.0233
432 2 7.87003 12.6314 12.2297
433 2 9.1385 11.6378 11.3749
434 2 7.52623 10.9021 11.6064
435 1 7.27259 10.5725 14.7976
436 2 7.08923 9.50131 14.9771
437 2 7.25015 11.1448 15.7311
438 2 6.35606 10.8242 14.2448
439 4 10.9477 8.77028 14.0585
440 3 10.2442 7.30412 14.3082
441 1 11.4083 9.85839 15.5163
442 2 11.2926 9.3253 16.4656
443 2 0.485254 4.65982 10.5423
444 2 12.4851 10.0004 15.3762
445 1 12.4251 8.62885 12.9078
446 2 12.2005 8.0247 12.0058
447 2 12.5957 9.65666 12.5548
448 4 9.37407 5.90855 14.5618
449 3 7.90422 6.12721 14.0123
450 1 9.29055 5.71309 16.4267
451 2 9.21192 4.64508 16.663
452 2 10.161 6.16168 16.9338
453 2 8.38872 6.16973 16.8506
454 1 10.1738 4.54055 13.5384
455 2 10.9691 5.08414 12.9977
456 2 10.6 3.75751 14.1686
457 2 9.4455 4.16301 12.8211
458 4 6.41764 5.98136 13.3419
459 1 5.43096 5.70048 14.9136
460 2 5.82908 6.22944 15.7717
461 2 5.71043 4.64349 15.125
462 1 6.41667 4.45167 12.3165
463 2 7.36672 3.94157 12.0858
464 2 5.76682 3.67556 12.7505
465 2 5.9801 4.70576 11.3397
466 4 20.0369 11.6935 10.2047
467 3 18.7589 10.5361 10.6307
468 1 20.1305 12.1876 12.0376
469 2 19.6575 13.1727 12.0935
470 2 21.1329 12.1776 12.501
471 2 18.1992 18.477 0.548478
472 1 11.8827 13.017 16.0864
473 2 11.6956 13.042 17.1405
474 2 11.4978 13.8838 15.49
475 2 1.74934 10.5891 12.5284
476 4 19.1354 10.6035 12.2544
477 3 17.7757 10.5454 13.2569
478 1 20.1851 9.26552 13.081
479 2 19.6797 8.27443 13.0446
480 2 21.2135 9.11467 12.7782
481 2 20.1678 9.57924 14.1493
482 1 17.7944 17.141 6.81224
483 2 16.7667 17.4096 7.07829
484 2 17.7181 16.4148 5.98019
485 2 18.5172 17.871 6.36002
486 4 16.3163 11.1806 13.3426
487 3 15.2751 10.0264 12.8215
488 1 15.9941 11.2644 15.7067
489 2 16.0324 10.405 15.0746
490 2 17.0369 11.4937 16.0501
491 2 15.6458 12.0168 15.0116
492 1 15.821 12.8481 12.5447
493 2 15.3393 12.6441 11.5724
494 2 15.1076 13.4368 13.1588
495 2 16.6659 13.5503 12.3998
496 4 15.1857 8.40322 13.071
497 3 16.3022 8.08631 14.2546
498 1 13.5224 7.96551 13.572
499 2 13.2101 7.21714 14.3211
500 2 3.04444 3.83571 4.00585
501 1 15.7111 7.84842 11.3883
502 2 16.7036 8.14567 11.0165
503 2 15.6369 6.74101 11.3061
504 2 14.936 8.23755 10.6898
505 4 16.6948 7.41787 15.8064
506 3 16.6147 5.73555 15.764
507 1 18.5018 7.73705 16.2076
508 2 18.871 6.83723 16.745
509 2 19.1161 7.9979 15.3686
510 2 18.6142 8.57646 16.9362
511 1 15.467 8.07483 16.9659
512 2 15.6274 9.13825 17.1732
513 2 14.435 7.93153 16.6139
514 2 15.4964 7.55423 17.9095
515 4 16.5977 4.0298 15.6204
516 1 14.8427 3.35994 15.5718
517 2 14.8885 2.30217 15.254
518 2 14.3724 3.3491 16.5583
519 2 14.17 3.94092 14.9152
520 1 17.9016 3.44713 14.1757
521 2 18.4771 2.53374 14.3704
522 2 17.4496 3.22692 13.2056
523 2 18.6113 4.28354 14.0665
