ITEM: TIMESTEP
0
ITEM: NUMBER OF ATOMS
523
ITEM: BOX BOUNDS pp pp pp
0.0000000000000000e+00 2.2000000000000000e+01
0.0000000000000000e+00 1.9079962999999999e+01
0.0000000000000000e+00 2.0000000000000000e+01
ITEM: ATOMS id type x y z
1 4 4.125 17.0666 3.07771
2 3 4.125 15.4366 3.07771
3 1 5.88805 17.69 3.07771
4 2 5.88805 17.69 4.16771
5 2 6.20271 16.8 2.53271
6 2 5.5734 18.58 2.53271
7 1 2.36195 17.69 3.07771
8 2 2.36195 17.69 1.98771
9 2 2.04729 16.8 3.62271
10 2 2.6766 18.58 3.62271
11 4 4.125 13.8066 3.07771
12 3 4.125 12.1766 3.07771
13 1 5.37167 14.43 4.32437
14 2 4.60092 14.43 5.09512
15 2 5.97954 13.54 4.1615
16 2 5.53454 15.32 3.71651
17 1 2.87833 14.43 1.83104
18 2 3.64908 14.43 1.0603
19 2 2.27047 13.54 1.99392
20 2 2.71545 15.32 2.43891
21 4 4.125 10.5466 3.07771
22 3 4.125 8.91665 3.07771
23 1 4.125 11.17 4.84076
24 2 3.035 11.17 4.84076
25 2 4.67 10.28 5.15542
26 2 4.67 12.06 4.52611
27 1 4.125 11.17 1.31466
28 2 5.215 11.17 1.31466
29 2 3.58 10.28 1
30 2 3.58 12.06 1.62931
31 4 4.125 7.28665 3.07771
32 3 4.125 5.65665 3.07771
33 1 2.87833 7.90998 4.32437
34 2 2.10759 7.90998 3.55363
35 2 3.04121 7.02 4.93224
36 2 3.4862 8.79996 4.48725
37 1 5.37167 7.90998 1.83104
38 2 6.14241 7.90998 2.60179
39 2 5.20879 7.02 1.22317
40 2 4.7638 8.79996 1.66816
41 4 4.125 4.02665 3.07771
42 3 4.125 2.39665 3.07771
43 1 2.36195 4.64998 3.07771
44 2 2.36195 4.64998 1.98771
45 2 2.04729 3.76 3.62271
46 2 2.6766 5.53996 3.62271
47 1 5.88805 4.64998 3.07771
48 2 5.88805 4.64998 4.16771
49 2 6.20271 3.76 2.53271
50 2 5.5734 5.53996 2.53271
51 4 4.125 0.766648 3.07771
52 1 2.87833 1.38998 1.83104
53 2 3.64908 1.38998 1.0603
54 2 2.27047 0.5 1.99392
55 2 2.71545 2.27996 2.43891
56 1 5.37167 1.38998 4.32437
57 2 4.60092 1.38998 5.09512
58 2 5.97954 0.5 4.1615
59 2 5.53454 2.27996 3.71651
60 4 9.625 17.0666 3.07771
61 3 9.625 15.4366 3.07771
62 1 11.3881 17.69 3.07771
63 2 11.3881 17.69 4.16771
64 2 11.7027 16.8 2.53271
65 2 11.0734 18.58 2.53271
66 1 7.86195 17.69 3.07771
67 2 7.86195 17.69 1.98771
68 2 7.54729 16.8 3.62271
69 2 8.1766 18.58 3.62271
70 4 9.625 13.8066 3.07771
71 3 9.625 12.1766 3.07771
72 1 10.8717 14.43 4.32437
73 2 10.1009 14.43 5.09512
74 2 11.4795 13.54 4.1615
75 2 11.0345 15.32 3.71651
76 1 8.37833 14.43 1.83104
77 2 9.14908 14.43 1.0603
78 2 7.77046 13.54 1.99392
79 2 8.21546 15.32 2.43891
80 4 9.625 10.5466 3.07771
81 3 9.625 8.91665 3.07771
82 1 9.625 11.17 4.84076
83 2 8.535 11.17 4.84076
84 2 10.17 10.28 5.15542
85 2 10.17 12.06 4.52611
86 1 9.625 11.17 1.31466
87 2 10.715 11.17 1.31466
88 2 9.08 10.28 1
89 2 9.08 12.06 1.62931
90 4 9.625 7.28665 3.07771
91 3 9.625 5.65665 3.07771
92 1 8.37833 7.90998 4.32437
93 2 7.60759 7.90998 3.55363
94 2 8.54121 7.02 4.93224
95 2 8.9862 8.79996 4.48725
96 1 11.7823 7.90998 2.58619
97 2 11.6194 7.02 1.97832
98 2 11.1744 8.79996 2.42331
99 4 9.625 4.02665 3.07771
100 3 9.625 2.39665 3.07771
101 1 7.86195 4.64998 3.07771
102 2 7.86195 4.64998 1.98771
103 2 7.54729 3.76 3.62271
104 2 8.1766 5.53996 3.62271
105 1 11.3881 4.64998 3.07771
106 2 11.3881 4.64998 4.16771
107 2 11.7027 3.76 2.53271
108 2 11.0734 5.53996 2.53271
109 4 9.625 0.766648 3.07771
110 1 8.37833 1.38998 1.83104
111 2 9.14908 1.38998 1.0603
112 2 7.77046 0.5 1.99392
113 2 8.21546 2.27996 2.43891
114 1 10.8717 1.38998 4.32437
115 2 10.1009 1.38998 5.09512
116 2 11.4795 0.5 4.1615
117 2 11.0345 2.27996 3.71651
118 4 15.125 17.0666 3.07771
119 3 15.125 15.4366 3.07771
120 1 16.8881 17.69 3.07771
121 2 16.8881 17.69 4.16771
122 2 17.2027 16.8 2.53271
123 2 16.5734 18.58 2.53271
124 1 13.3619 17.69 3.07771
125 2 13.3619 17.69 1.98771
126 2 13.0473 16.8 3.62271
127 2 13.6766 18.58 3.62271
128 4 15.125 13.8066 3.07771
129 3 15.125 12.1766 3.07771
130 1 16.3717 14.43 4.32437
131 2 15.6009 14.43 5.09512
132 2 16.9795 13.54 4.1615
133 2 16.5345 15.32 3.71651
134 1 13.8783 14.43 1.83104
135 2 14.6491 14.43 1.0603
136 2 13.2705 13.54 1.99392
137 2 13.7155 15.32 2.43891
138 4 15.125 10.5466 3.07771
139 3 15.125 8.91665 3.07771
140 1 15.125 11.17 4.84076
141 2 14.035 11.17 4.84076
142 2 15.67 10.28 5.15542
143 2 15.67 12.06 4.52611
144 1 15.125 11.17 1.31466
145 2 16.215 11.17 1.31466
146 2 14.58 10.28 1
147 2 14.58 12.06 1.62931
148 4 15.125 7.28665 3.07771
149 3 15.125 5.65665 3.07771
150 1 12.9677 7.90998 3.56923
151 2 13.1306 7.02 4.1771
152 2 13.5756 8.79996 3.7321
153 1 16.3717 7.90998 1.83104
154 2 17.1424 7.90998 2.60179
155 2 16.2088 7.02 1.22317
156 2 15.7638 8.79996 1.66816
157 4 15.125 4.02665 3.07771
158 3 15.125 2.39665 3.07771
159 1 13.3619 4.64998 3.07771
160 2 13.3619 4.64998 1.98771
161 2 13.0473 3.76 3.62271
162 2 13.6766 5.53996 3.62271
163 1 16.8881 4.64998 3.07771
164 2 16.8881 4.64998 4.16771
165 2 17.2027 3.76 2.53271
166 2 16.5734 5.53996 2.53271
167 4 15.125 0.766648 3.07771
168 1 13.8783 1.38998 1.83104
169 2 14.6491 1.38998 1.0603
170 2 13.2705 0.5 1.99392
171 2 13.7155 2.27996 2.43891
172 1 16.3717 1.38998 4.32437
173 2 15.6009 1.38998 5.09512
174 2 16.9795 0.5 4.1615
175 2 16.5345 2.27996 3.71651
176 4 6.875 17.0666 7.84085
177 3 6.875 15.4366 7.84085
178 1 8.63805 17.69 7.84085
179 2 8.63805 17.69 8.93085
180 2 8.95271 16.8 7.29585
181 2 8.3234 18.58 7.29585
182 1 5.11195 17.69 7.84085
183 2 5.11195 17.69 6.75085
184 2 4.79729 16.8 8.38585
185 2 5.4266 18.58 8.38585
186 4 6.875 13.8066 7.84085
187 3 6.875 12.1766 7.84085
188 1 8.12167 14.43 9.08751
189 2 7.35092 14.43 9.85826
190 2 8.72954 13.54 8.92464
191 2 8.28454 15.32 8.47965
192 1 5.62833 14.43 6.59418
193 2 6.39908 14.43 5.82343
194 2 5.02046 13.54 6.75706
195 2 5.46546 15.32 7.20205
196 4 6.875 10.5466 7.84085
197 3 6.875 8.91665 7.84085
198 1 6.875 11.17 9.6039
199 2 5.785 11.17 9.6039
200 2 7.42 10.28 9.91856
201 2 7.42 12.06 9.28925
202 1 6.875 11.17 6.0778
203 2 7.965 11.17 6.0778
204 2 6.33 10.28 5.76314
205 2 6.33 12.06 6.39245
206 4 6.875 7.28665 7.84085
207 3 6.875 5.65665 7.84085
208 1 5.62833 7.90998 9.08751
209 2 4.85759 7.90998 8.31677
210 2 5.79121 7.02 9.69538
211 2 6.2362 8.79996 9.25039
212 1 8.12167 7.90998 6.59418
213 2 8.89241 7.90998 7.36493
214 2 7.95879 7.02 5.98631
215 2 7.5138 8.79996 6.4313
216 4 6.875 4.02665 7.84085
217 3 6.875 2.39665 7.84085
218 1 5.11195 4.64998 7.84085
219 2 5.11195 4.64998 6.75085
220 2 4.79729 3.76 8.38585
221 2 5.4266 5.53996 8.38585
222 1 8.63805 4.64998 7.84085
223 2 8.63805 4.64998 8.93085
224 2 8.95271 3.76 7.29585
225 2 8.3234 5.53996 7.29585
226 4 6.875 0.766648 7.84085
227 1 5.62833 1.38998 6.59418
228 2 6.39908 1.38998 5.82343
229 2 5.02046 0.5 6.75706
230 2 5.46546 2.27996 7.20205
231 1 9.03229 1.38998 8.33237
232 2 9.64016 0.5 8.16949
233 2 9.19516 2.27996 7.7245
234 4 12.375 17.0666 7.84085
235 3 12.375 15.4366 7.84085
236 1 14.1381 17.69 7.84085
237 2 14.1381 17.69 8.93085
238 2 14.4527 16.8 7.29585
239 2 13.8234 18.58 7.29585
240 1 10.6119 17.69 7.84085
241 2 10.6119 17.69 6.75085
242 2 10.2973 16.8 8.38585
243 2 10.9266 18.58 8.38585
244 4 12.375 13.8066 7.84085
245 3 12.375 12.1766 7.84085
246 1 13.6217 14.43 9.08751
247 2 12.8509 14.43 9.85826
248 2 14.2295 13.54 8.92464
249 2 13.7845 15.32 8.47965
250 1 11.1283 14.43 6.59418
251 2 11.8991 14.43 5.82343
252 2 10.5205 13.54 6.75706
253 2 10.9655 15.32 7.20205
254 4 12.375 10.5466 7.84085
255 3 12.375 8.91665 7.84085
256 1 12.375 11.17 9.6039
257 2 11.285 11.17 9.6039
258 2 12.92 10.28 9.91856
259 2 12.92 12.06 9.28925
260 1 12.375 11.17 6.0778
261 2 13.465 11.17 6.0778
262 2 11.83 10.28 5.76314
263 2 11.83 12.06 6.39245
264 4 12.375 7.28665 7.84085
265 3 12.375 5.65665 7.84085
266 1 11.1283 7.90998 9.08751
267 2 10.3576 7.90998 8.31677
268 2 11.2912 7.02 9.69538
269 2 11.7362 8.79996 9.25039
270 1 13.6217 7.90998 6.59418
271 2 14.3924 7.90998 7.36493
272 2 13.4588 7.02 5.98631
273 2 13.0138 8.79996 6.4313
274 4 12.375 4.02665 7.84085
275 3 12.375 2.39665 7.84085
276 1 10.6119 4.64998 7.84085
277 2 10.6119 4.64998 6.75085
278 2 10.2973 3.76 8.38585
279 2 10.9266 5.53996 8.38585
280 1 14.1381 4.64998 7.84085
281 2 14.1381 4.64998 8.93085
282 2 14.4527 3.76 7.29585
283 2 13.8234 5.53996 7.29585
284 4 12.375 0.766648 7.84085
285 1 10.2177 1.38998 7.34933
286 2 9.60984 0.5 7.51221
287 2 10.0548 2.27996 7.9572
288 1 13.6217 1.38998 9.08751
289 2 12.8509 1.38998 9.85826
290 2 14.2295 0.5 8.92464
291 2 13.7845 2.27996 8.47965
292 4 17.875 17.0666 7.84085
293 3 17.875 15.4366 7.84085
294 1 19.6381 17.69 7.84085
295 2 19.6381 17.69 8.93085
296 2 19.9527 16.8 7.29585
297 2 19.3234 18.58 7.29585
298 1 16.1119 17.69 7.84085
299 2 16.1119 17.69 6.75085
300 2 15.7973 16.8 8.38585
301 2 16.4266 18.58 8.38585
302 4 17.875 13.8066 7.84085
303 3 17.875 12.1766 7.84085
304 1 19.1217 14.43 9.08751
305 2 18.3509 14.43 9.85826
306 2 19.7295 13.54 8.92464
307 2 19.2845 15.32 8.47965
308 1 16.6283 14.43 6.59418
309 2 17.3991 14.43 5.82343
310 2 16.0205 13.54 6.75706
311 2 16.4655 15.32 7.20205
312 4 17.875 10.5466 7.84085
313 3 17.875 8.91665 7.84085
314 1 17.875 11.17 9.6039
315 2 16.785 11.17 9.6039
316 2 18.42 10.28 9.91856
317 2 18.42 12.06 9.28925
318 1 17.875 11.17 6.0778
319 2 18.965 11.17 6.0778
320 2 17.33 10.28 5.76314
321 2 17.33 12.06 6.39245
322 4 17.875 7.28665 7.84085
323 3 17.875 5.65665 7.84085
324 1 16.6283 7.90998 9.08751
325 2 15.8576 7.90998 8.31677
326 2 16.7912 7.02 9.69538
327 2 17.2362 8.79996 9.25039
328 1 19.1217 7.90998 6.59418
329 2 19.8924 7.90998 7.36493
330 2 18.9588 7.02 5.98631
331 2 18.5138 8.79996 6.4313
332 4 17.875 4.02665 7.84085
333 3 17.875 2.39665 7.84085
334 1 16.1119 4.64998 7.84085
335 2 16.1119 4.64998 6.75085
336 2 15.7973 3.76 8.38585
337 2 16.4266 5.53996 8.38585
338 1 19.6381 4.64998 7.84085
339 2 19.6381 4.64998 8.93085
340 2 19.9527 3.76 7.29585
341 2 19.3234 5.53996 7.29585
342 4 17.875 0.766648 7.84085
343 1 16.6283 1.38998 6.59418
344 2 17.3991 1.38998 5.82343
345 2 16.0205 0.5 6.75706
346 2 16.4655 2.27996 7.20205
347 1 19.1217 1.38998 9.08751
348 2 18.3509 1.38998 9.85826
349 2 19.7295 0.5 8.92464
350 2 19.2845 2.27996 8.47965
351 4 4.125 17.0666 12.604
352 3 4.125 15.4366 12.604
353 1 5.88805 17.69 12.604
354 2 5.88805 17.69 13.694
355 2 6.20271 16.8 12.059
356 2 5.5734 18.58 12.059
357 1 2.36195 17.69 12.604
358 2 2.36195 17.69 11.514
359 2 2.04729 16.8 13.149
360 2 2.6766 18.58 13.149
361 4 4.125 13.8066 12.604
362 3 4.125 12.1766 12.604
363 1 5.37167 14.43 13.8507
364 2 4.60092 14.43 14.6214
365 2 5.97954 13.54 13.6878
366 2 5.53454 15.32 13.2428
367 1 2.87833 14.43 11.3573
368 2 3.64908 14.43 10.5866
369 2 2.27047 13.54 11.5202
370 2 2.71545 15.32 11.9652
371 4 4.125 10.5466 12.604
372 3 4.125 8.91665 12.604
373 1 4.125 11.17 14.367
374 2 3.035 11.17 14.367
375 2 4.67 10.28 14.6817
376 2 4.67 12.06 14.0524
377 1 4.125 11.17 10.8409
378 2 5.215 11.17 10.8409
379 2 3.58 10.28 10.5263
380 2 3.58 12.06 11.1556
381 4 4.125 7.28665 12.604
382 3 4.125 5.65665 12.604
383 1 2.87833 7.90998 13.8507
384 2 2.10759 7.90998 13.0799
385 2 3.04121 7.02 14.4585
386 2 3.4862 8.79996 14.0135
387 1 5.37167 7.90998 11.3573
388 2 6.14241 7.90998 12.1281
389 2 5.20879 7.02 10.7495
390 2 4.7638 8.79996 11.1944
391 4 4.125 4.02665 12.604
392 3 4.125 2.39665 12.604
393 1 2.36195 4.64998 12.604
394 2 2.36195 4.64998 11.514
395 2 2.04729 3.76 13.149
396 2 2.6766 5.53996 13.149
397 1 5.88805 4.64998 12.604
398 2 5.88805 4.64998 13.694
399 2 6.20271 3.76 12.059
400 2 5.5734 5.53996 12.059
401 4 4.125 0.766648 12.604
402 1 2.87833 1.38998 11.3573
403 2 3.64908 1.38998 10.5866
404 2 2.27047 0.5 11.5202
405 2 2.71545 2.27996 11.9652
406 1 6.28229 1.38998 13.0955
407 2 6.89016 0.5 12.9326
408 2 6.44516 2.27996 12.4876
409 4 9.625 17.0666 12.604
410 3 9.625 15.4366 12.604
411 1 11.3881 17.69 12.604
412 2 11.3881 17.69 13.694
413 2 11.7027 16.8 12.059
414 2 11.0734 18.58 12.059
415 1 7.86195 17.69 12.604
416 2 7.86195 17.69 11.514
417 2 7.54729 16.8 13.149
418 2 8.1766 18.58 13.149
419 4 9.625 13.8066 12.604
420 3 9.625 12.1766 12.604
421 1 10.8717 14.43 13.8507
422 2 10.1009 14.43 14.6214
423 2 11.4795 13.54 13.6878
424 2 11.0345 15.32 13.2428
425 1 8.37833 14.43 11.3573
426 2 9.14908 14.43 10.5866
427 2 7.77046 13.54 11.5202
428 2 8.21546 15.32 11.9652
429 4 9.625 10.5466 12.604
430 3 9.625 8.91665 12.604
431 1 9.625 11.17 14.367
432 2 8.535 11.17 14.367
433 2 10.17 10.28 14.6817
434 2 10.17 12.06 14.0524
435 1 9.625 11.17 10.8409
436 2 10.715 11.17 10.8409
437 2 9.08 10.28 10.5263
438 2 9.08 12.06 11.1556
439 4 9.625 7.28665 12.604
440 3 9.625 5.65665 12.604
441 1 8.37833 7.90998 13.8507
442 2 7.60759 7.90998 13.0799
443 2 8.54121 7.02 14.4585
444 2 8.9862 8.79996 14.0135
445 1 11.7823 7.90998 12.1125
446 2 11.6194 7.02 11.5046
447 2 11.1744 8.79996 11.9496
448 4 9.625 4.02665 12.604
449 3 9.625 2.39665 12.604
450 1 7.86195 4.64998 12.604
451 2 7.86195 4.64998 11.514
452 2 7.54729 3.76 13.149
453 2 8.1766 5.53996 13.149
454 1 11.3881 4.64998 12.604
455 2 11.3881 4.64998 13.694
456 2 11.7027 3.76 12.059
457 2 11.0734 5.53996 12.059
458 4 9.625 0.766648 12.604
459 1 7.46771 1.38998 12.1125
460 2 6.85984 0.5 12.2753
461 2 7.30484 2.27996 12.7203
462 1 10.8717 1.38998 13.8507
463 2 10.1009 1.38998 14.6214
464 2 11.4795 0.5 13.6878
465 2 11.0345 2.27996 13.2428
466 4 15.125 17.0666 12.604
467 3 15.125 15.4366 12.604
468 1 16.8881 17.69 12.604
469 2 16.8881 17.69 13.694
470 2 17.2027 16.8 12.059
471 2 16.5734 18.58 12.059
472 1 13.3619 17.69 12.604
473 2 13.3619 17.69 11.514
474 2 13.0473 16.8 13.149
475 2 13.6766 18.58 13.149
476 4 15.125 13.8066 12.604
477 3 15.125 12.1766 12.604
478 1 16.3717 14.43 13.8507
479 2 15.6009 14.43 14.6214
480 2 16.9795 13.54 13.6878
481 2 16.5345 15.32 13.2428
482 1 13.8783 14.43 11.3573
483 2 14.6491 14.43 10.5866
484 2 13.2705 13.54 11.5202
485 2 13.7155 15.32 11.9652
486 4 15.125 10.5466 12.604
487 3 15.125 8.91665 12.604
488 1 15.125 11.17 14.367
489 2 14.035 11.17 14.367
490 2 15.67 10.28 14.6817
491 2 15.67 12.06 14.0524
492 1 15.125 11.17 10.8409
493 2 16.215 11.17 10.8409
494 2 14.58 10.28 10.5263
495 2 14.58 12.06 11.1556
496 4 15.125 7.28665 12.604
497 3 15.125 5.65665 12.604
498 1 12.9677 7.90998 13.0955
499 2 13.1306 7.02 13.7034
500 2 13.5756 8.79996 13.2584
501 1 16.3717 7.90998 11.3573
502 2 17.1424 7.90998 12.1281
503 2 16.2088 7.02 10.7495
504 2 15.7638 8.79996 11.1944
505 4 15.125 4.02665 12.604
506 3 15.125 2.39665 12.604
507 1 13.3619 4.64998 12.604
508 2 13.3619 4.64998 11.514
509 2 13.0473 3.76 13.149
510 2 13.6766 5.53996 13.149
511 1 16.8881 4.64998 12.604
512 2 16.8881 4.64998 13.694
513 2 17.2027 3.76 12.059
514 2 16.5734 5.53996 12.059
515 4 15.125 0.766648 12.604
516 1 13.8783 1.38998 11.3573
517 2 14.6491 1.38998 10.5866
518 2 13.2705 0.5 11.5202
519 2 13.7155 2.27996 11.9652
520 1 16.3717 1.38998 13.8507
521 2 15.6009 1.38998 14.6214
522 2 16.9795 0.5 13.6878
523 2 16.5345 2.27996 13.2428
ITEM: TIMESTEP
68
ITEM: NUMBER OF ATOMS
523
ITEM: BOX BOUNDS pp pp pp
0.0000000000000000e+00 2.2000000000000000e+01
0.0000000000000000e+00 1.9079962999999999e+01
0.0000000000000000e+00 2.0000000000000000e+01
ITEM: ATOMS id type x y z
1 4 3.11548 16.5544 3.87783
2 3 2.76849 14.9427 3.67626
3 1 4.534 17.1734 2.81163
4 2 5.38346 17.5381 3.39678
5 2 4.92672 16.4194 2.1228
6 2 4.1779 18.0116 2.19935
7 1 1.5536 17.5479 3.51859
8 2 1.33746 17.4731 2.43278
9 2 0.684024 17.1402 4.06358
10 2 1.68162 18.6057 3.78907
11 4 3.34577 13.7903 2.60354
12 3 2.67093 12.2907 2.87473
13 1 5.19151 13.7693 2.92788
14 2 5.36029 13.5145 3.97926
15 2 5.77148 13.065 2.32631
16 2 5.64105 14.7567 2.78149
17 1 2.83411 14.3199 0.872043
18 2 3.68148 14.5638 0.215628
19 2 2.24796 13.5173 0.398184
20 2 2.18845 15.2105 0.944715
21 4 3.58252 10.8781 2.75752
22 3 2.76404 9.4288 2.50722
23 1 4.34455 10.7726 4.4729
24 2 3.51023 10.6255 5.17411
25 2 5.0664 9.96061 4.62108
26 2 4.83606 11.7097 4.75381
27 1 4.64959 11.0962 1.21349
28 2 5.73062 11.0661 1.40359
29 2 4.398 10.3046 0.498315
30 2 4.41651 12.0542 0.731254
31 4 3.49493 7.95791 2.83242
32 3 2.85217 6.59956 2.06711
33 1 3.17914 7.6648 4.66894
34 2 2.08961 7.60453 4.80874
35 2 3.62771 6.73675 5.04168
36 2 3.54488 8.4839 5.29465
37 1 5.28134 8.0043 2.2078
38 2 6.03234 8.22244 2.97982
39 2 5.53209 7.03635 1.75496
40 2 5.38946 8.75726 1.42169
41 4 3.11651 5.06356 2.68006
42 3 3.31922 3.86142 1.52728
43 1 1.5959 4.58508 3.65912
44 2 0.767834 4.48375 2.94638
45 2 1.7282 3.61704 4.15562
46 2 1.31075 5.32495 4.41744
47 1 4.7524 5.0295 3.60313
48 2 4.6508 4.74817 4.65677
49 2 5.39625 4.28578 3.13368
50 2 5.29235 5.98027 3.56438
51 4 3.92058 2.33146 1.60478
52 1 2.63026 1.16066 1.00394
53 2 2.57469 1.18476 19.9175
54 2 2.85367 0.120045 1.32099
55 2 1.64703 1.43091 1.42102
56 1 4.49872 1.82104 3.35665
57 2 3.7069 1.96864 4.11908
58 2 4.73524 0.728225 3.35919
59 2 5.40307 2.33826 3.7037
60 4 9.38982 16.4125 3.59745
61 3 8.56659 15.0298 3.16092
62 1 10.7786 17.1834 2.5108
63 2 11.4808 17.726 3.16317
64 2 11.3788 16.4751 1.91389
65 2 10.3564 17.9239 1.81284
66 1 8.03956 17.6975 3.76226
67 2 7.56705 17.8002 2.77584
68 2 7.25648 17.3659 4.46712
69 2 8.39027 18.6862 4.08545
70 4 9.01183 13.7266 2.17489
71 3 8.47151 12.0922 2.54274
72 1 10.8337 13.709 2.71492
73 2 10.8074 13.6655 3.82587
74 2 11.4362 12.8566 2.36081
75 2 11.3473 14.6396 2.43755
76 1 8.28423 14.0387 0.517191
77 2 8.85717 14.4322 19.6587
78 2 7.79818 13.1058 0.158909
79 2 7.47327 14.7888 0.705597
80 4 9.58497 10.8514 2.30116
81 3 9.18007 9.21751 2.02064
82 1 10.338 10.7561 3.99985
83 2 9.50717 10.445 4.64766
84 2 11.1301 10.0182 4.12929
85 2 10.6813 11.7174 4.37762
86 1 10.5072 11.2475 0.705578
87 2 11.5907 11.3418 0.819557
88 2 10.3187 10.4333 19.9984
89 2 10.1363 12.1752 0.261844
90 4 10.1114 7.88972 2.49122
91 3 9.66995 6.49631 1.648
92 1 9.4431 7.58295 4.21671
93 2 8.35769 7.4523 4.06989
94 2 9.84706 6.70323 4.71948
95 2 9.57793 8.43579 4.88578
96 1 12.007 8.06509 2.02982
97 2 12.1515 7.17972 1.38862
98 2 12.0015 8.91899 1.32897
99 4 9.68988 4.9925 2.35248
100 3 9.94054 3.7608 1.22658
101 1 8.0681 4.55298 3.17092
102 2 7.32488 4.2641 2.4221
103 2 8.19894 3.70674 3.85747
104 2 7.6522 5.36959 3.76496
105 1 11.1192 4.8896 3.53185
106 2 10.8179 4.63577 4.54971
107 2 11.8282 4.13264 3.19875
108 2 11.6644 5.8329 3.58637
109 4 9.91833 2.10957 1.56533
110 1 8.24523 1.40496 1.09796
111 2 8.13985 1.25868 0.0229843
112 2 8.08535 0.446699 1.597
113 2 7.44669 2.09007 1.41773
114 1 10.359 1.71711 3.36492
115 2 9.60763 2.13249 4.06198
116 2 10.3532 0.626404 3.5219
117 2 11.3358 2.10343 3.67689
118 4 16.3037 16.1906 2.61795
119 3 16.4356 15.165 1.30266
120 1 17.7704 17.3148 2.69041
121 2 18.0178 17.6459 3.71038
122 2 18.652 16.8248 2.25736
123 2 17.5432 18.213 2.09527
124 1 14.6537 17.0488 2.91956
125 2 14.1446 17.3718 2.00016
126 2 13.963 16.3966 3.47369
127 2 14.8138 17.9316 3.5496
128 4 15.8127 13.863 2.12459
129 3 16.4734 12.3628 1.97182
130 1 16.2957 14.6671 3.93854
131 2 15.4287 14.6971 4.61233
132 2 16.8456 13.7117 4.08808
133 2 17.1155 15.2662 4.40824
134 1 13.9881 13.9353 1.83178
135 2 13.8144 13.8936 0.748053
136 2 13.4244 13.1232 2.2967
137 2 13.5602 14.8752 2.19561
138 4 15.4603 11.0396 2.37944
139 3 15.993 9.48227 2.66335
140 1 14.9053 11.548 4.07952
141 2 14.0289 12.1937 4.15451
142 2 14.7074 10.6257 4.6313
143 2 15.7392 12.0227 4.6109
144 1 14.3866 10.8067 0.86744
145 2 15.1007 10.605 0.0552142
146 2 13.7411 9.92305 0.957982
147 2 13.7771 11.6651 0.581605
148 4 15.1295 8.04126 2.45644
149 3 15.8418 6.88863 3.45531
150 1 13.2543 8.18077 2.988
151 2 13.1634 7.39822 3.7596
152 2 13.1764 9.13419 3.5431
153 1 15.6995 7.43517 0.786717
154 2 16.7864 7.3333 0.949186
155 2 15.2977 6.4652 0.473932
156 2 15.5499 8.16347 19.9852
157 4 16.0824 5.26496 3.06571
158 3 16.2446 3.65937 1.608
159 1 14.3734 4.5379 3.27152
160 2 13.9866 4.41724 2.24127
161 2 14.2891 3.58245 3.7993
162 2 13.7042 5.24478 3.77096
163 1 17.9182 4.99292 3.27019
164 2 18.3116 5.11762 4.28555
165 2 18.139 3.99427 2.8776
166 2 18.423 5.74328 2.63552
167 4 15.6199 2.30647 2.11484
168 1 14.0155 1.53653 1.50158
169 2 14.0229 1.30641 0.428713
170 2 13.8507 0.609266 2.05177
171 2 13.1463 2.18181 1.6871
172 1 16.0745 1.58527 3.79301
173 2 15.3328 1.84922 4.54833
174 2 16.0849 0.486332 3.74851
175 2 17.0561 1.93276 4.14291
176 4 5.71215 16.773 8.94309
177 3 5.50944 15.109 9.20545
178 1 7.23295 17.2021 7.90794
179 2 8.16338 17.2088 8.48337
180 2 7.36253 16.4831 7.08117
181 2 7.10106 18.198 7.47225
182 1 4.10115 17.4592 8.22533
183 2 4.21643 17.5505 7.12166
184 2 3.27333 16.7839 8.44071
185 2 3.85982 18.4601 8.60574
186 4 6.09742 13.9384 8.13266
187 3 5.51873 12.4039 8.4792
188 1 7.93211 13.9627 8.46374
189 2 8.09273 13.8626 9.54216
190 2 8.50821 13.1702 7.98694
191 2 8.37042 14.9168 8.16678
192 1 5.48958 14.4896 6.43878
193 2 6.28376 14.7985 5.74641
194 2 4.91879 13.6955 5.9434
195 2 4.79932 15.3372 6.53504
196 4 6.49371 11.0284 8.27179
197 3 5.76044 9.53239 8.33414
198 1 7.45749 10.8469 9.85266
199 2 6.73068 10.4099 10.5483
200 2 8.2711 10.1192 9.77162
201 2 7.8249 11.7806 10.2806
202 1 7.30916 11.3301 6.58066
203 2 8.38729 11.5334 6.64409
204 2 7.17721 10.4926 5.88543
205 2 6.84874 12.2022 6.09072
206 4 5.83146 7.84301 8.16661
207 3 6.3728 6.3772 8.96938
208 1 4.01862 7.67872 8.72816
209 2 3.22355 7.82752 7.99553
210 2 3.8769 6.73977 9.27189
211 2 3.92346 8.48409 9.47176
212 1 7.31353 7.86211 6.99999
213 2 8.13169 8.03261 7.73486
214 2 7.59013 6.93663 6.49964
215 2 7.36526 8.68937 6.29552
216 4 6.18508 4.90035 8.18345
217 3 6.46681 3.64465 9.27948
218 1 4.42908 4.68352 7.53377
219 2 4.40144 4.70261 6.43479
220 2 4.00703 3.72225 7.84529
221 2 3.74706 5.47271 7.86067
222 1 7.44473 4.48192 6.85499
223 2 8.42473 4.31983 7.32752
224 2 7.16167 3.54699 6.362
225 2 7.58146 5.22378 6.05951
226 4 6.86892 2.03319 9.10643
227 1 6.15251 1.46911 7.43383
228 2 6.87891 1.41165 6.5938
229 2 5.66075 0.474516 7.49584
230 2 5.36808 2.19749 7.15371
231 1 8.62404 1.6748 9.88223
232 2 8.83512 0.611255 9.84395
233 2 9.36382 2.17595 9.23719
234 4 12.4612 16.8923 7.10134
235 3 12.7039 15.2986 7.04879
236 1 14.0969 17.7471 7.11085
237 2 14.4174 17.8896 8.16038
238 2 14.8331 17.0908 6.62221
239 2 14.1156 18.7285 6.64186
240 1 11.1193 17.543 8.25783
241 2 10.1472 17.6934 7.7632
242 2 10.9425 16.8346 9.0921
243 2 11.4313 18.5124 8.67543
244 4 11.8375 13.7075 7.69761
245 3 11.1814 12.0949 7.99856
246 1 13.3133 13.7014 8.89052
247 2 13.0697 14.094 9.888
248 2 13.7427 12.6961 9.03051
249 2 14.107 14.3408 8.47381
250 1 10.5059 14.2372 6.49296
251 2 10.991 14.5346 5.55584
252 2 9.75642 13.4604 6.30432
253 2 10.0083 15.1531 6.85408
254 4 11.9704 10.6652 7.59345
255 3 11.1062 9.26901 7.2035
256 1 13.0974 10.2291 9.01956
257 2 12.4896 9.98685 9.8883
258 2 13.7789 9.40023 8.86075
259 2 13.6995 11.0779 9.32021
260 1 12.8668 11.2135 6.07322
261 2 13.8886 11.5218 6.3027
262 2 12.8994 10.4029 5.34556
263 2 12.3611 12.0419 5.5669
264 4 11.9331 7.77201 7.47788
265 3 11.4666 6.33468 6.76369
266 1 11.5631 7.44616 9.28076
267 2 10.524 7.09243 9.33585
268 2 12.1896 6.67313 9.74377
269 2 11.6147 8.33799 9.90471
270 1 13.6829 7.98861 6.80182
271 2 14.4489 8.06032 7.58314
272 2 13.9406 7.13798 6.15989
273 2 13.7838 8.88421 6.1784
274 4 12.0748 4.92301 7.45223
275 3 12.216 3.72419 6.34805
276 1 10.9122 4.28273 8.76511
277 2 10.0659 3.77959 8.28731
278 2 11.3941 3.5473 9.42566
279 2 10.4903 5.04717 9.42775
280 1 13.8121 5.07793 8.19577
281 2 13.7718 4.96305 9.29186
282 2 14.4306 4.26029 7.79556
283 2 14.3482 6.01054 7.97888
284 4 12.1212 2.11507 6.84343
285 1 10.4762 1.48588 6.63844
286 2 10.2763 0.418191 6.54547
287 2 9.64047 2.14463 6.41201
288 1 13.1093 1.75119 8.40913
289 2 12.3821 1.6997 9.22444
290 2 13.6319 0.794288 8.3864
291 2 13.8253 2.5347 8.64067
292 4 19.0542 16.649 6.99839
293 3 19.5021 15.061 7.11898
294 1 20.5845 17.6897 7.43781
295 2 20.7689 17.5744 8.52205
296 2 21.452 17.3254 6.88152
297 2 20.3962 18.7615 7.22642
298 1 17.5797 17.1259 8.10748
299 2 16.711 17.4382 7.52682
300 2 17.274 16.2972 8.75187
301 2 17.8767 17.9735 8.73975
302 4 18.896 13.8202 8.09418
303 3 19.6476 12.3602 7.7949
304 1 19.2266 14.3386 9.86827
305 2 18.3115 14.4743 10.4657
306 2 19.8512 13.5906 10.3769
307 2 19.784 15.2891 9.87524
308 1 17.0818 13.7841 7.59444
309 2 17.0065 13.6708 6.50649
310 2 16.4905 12.9876 8.05835
311 2 16.5927 14.7303 7.8487
312 4 18.8012 10.9191 7.94947
313 3 19.6068 9.44098 8.13365
314 1 17.884 11.1305 9.58517
315 2 16.8521 11.491 9.49839
316 2 17.8661 10.191 10.1523
317 2 18.431 11.8545 10.2038
318 1 17.9577 10.8121 6.27111
319 2 18.7624 10.6813 5.53455
320 2 17.2458 9.99217 6.13304
321 2 17.4443 11.7432 6.02058
322 4 18.8177 7.99584 7.78026
323 3 19.2872 6.61468 8.63347
324 1 17.0086 8.20186 8.23096
325 2 16.4048 8.56234 7.39158
326 2 16.5873 7.25022 8.57465
327 2 16.8902 8.90702 9.0572
328 1 19.1573 7.6344 5.97102
329 2 20.2393 7.52647 5.81531
330 2 18.6653 6.71378 5.64275
331 2 18.8038 8.4405 5.32317
332 4 19.0036 5.07208 8.07867
333 3 18.7748 3.9509 9.31295
334 1 17.3751 4.99641 7.13065
335 2 17.4888 4.57316 6.12655
336 2 16.6733 4.35933 7.67584
337 2 16.9037 5.97866 7.02606
338 1 20.5255 4.54323 7.13715
339 2 21.3516 4.47915 7.86041
340 2 20.4164 3.55808 6.66084
341 2 20.8088 5.27027 6.36334
342 4 18.0372 2.4439 9.34366
343 1 17.4966 1.80556 7.63638
344 2 18.2851 1.90485 6.89301
345 2 17.2565 0.737092 7.71903
346 2 16.5987 2.29458 7.24198
347 1 19.3071 1.22542 10.0321
348 2 19.4306 1.27922 11.1222
349 2 18.983 0.204546 9.79134
350 2 20.2824 1.39209 9.56107
351 4 2.78468 16.2954 12.8385
352 3 2.46332 15.0644 13.8932
353 1 4.5026 17.0374 12.6477
354 2 5.00669 17.256 13.6073
355 2 5.17401 16.405 12.04
356 2 4.38417 17.994 12.1127
357 1 1.41699 17.4964 12.7091
358 2 1.15753 17.7769 11.6928
359 2 0.526532 17.1196 13.2112
360 2 1.73549 18.4061 13.2222
361 4 3.17892 13.78 13.0211
362 3 2.53441 12.2499 13.1963
363 1 4.93127 13.8731 13.5907
364 2 4.99522 13.7893 14.6779
365 2 5.53935 13.0885 13.1458
366 2 5.3621 14.8272 13.3027
367 1 2.94246 14.4935 11.2553
368 2 3.89156 14.6318 10.7244
369 2 2.37627 13.703 10.7353
370 2 2.27864 15.3689 11.0284
371 4 3.48518 10.8515 12.9053
372 3 2.75735 9.35306 12.8845
373 1 4.64393 10.7966 14.395
374 2 3.99576 10.801 15.2844
375 2 5.2611 9.89338 14.4234
376 2 5.30614 11.6605 14.4668
377 1 4.10922 11.1551 11.169
378 2 4.89744 11.9157 11.082
379 2 4.47785 10.2369 10.6911
380 2 3.26052 11.5054 10.562
381 4 3.50133 7.94915 13.474
382 3 2.88553 6.51748 12.9094
383 1 3.06031 7.87348 15.2789
384 2 1.96358 7.76889 15.2958
385 2 3.48661 7.00142 15.7888
386 2 3.32178 8.78255 15.8287
387 1 5.28663 7.97562 12.8719
388 2 6.04118 7.99047 13.6676
389 2 5.48688 7.10295 12.2422
390 2 5.47033 8.85346 12.2364
391 4 3.03554 4.92099 12.5127
392 3 3.41707 3.82518 13.7583
393 1 1.37831 4.40955 11.8517
394 2 1.2395 4.57743 10.7811
395 2 1.18447 3.35845 12.099
396 2 0.649956 5.02976 12.387
397 1 4.67414 4.6349 11.5778
398 2 5.52904 4.92398 12.208
399 2 4.89709 3.73758 10.9831
400 2 4.73067 5.35977 10.745
401 4 4.38883 2.81049 12.828
402 1 3.54947 1.65846 11.6235
403 2 4.23233 1.45083 10.7994
404 2 3.31065 0.707773 12.105
405 2 2.63589 2.08679 11.2189
406 1 6.04631 2.07647 13.4128
407 2 5.78167 1.07819 13.8283
408 2 6.49942 2.63982 14.2472
409 4 9.83753 16.693 11.8928
410 3 10.3896 15.1506 12.1887
411 1 11.3279 17.8291 11.9689
412 2 11.6413 17.9822 13.0207
413 2 12.1804 17.4213 11.421
414 2 11.1295 18.8241 11.5517
415 1 8.44789 17.4175 12.9712
416 2 7.6555 17.8372 12.3364
417 2 7.9492 16.717 13.662
418 2 8.80468 18.2553 13.5834
419 4 9.54583 13.9783 13.133
420 3 9.48828 12.3665 12.7444
421 1 10.4717 14.1678 14.776
422 2 9.87299 14.3332 15.681
423 2 11.0731 13.2597 14.9355
424 2 11.1904 14.9976 14.6695
425 1 7.81841 14.3116 12.5528
426 2 7.93269 14.4003 11.4578
427 2 7.21859 13.4172 12.7144
428 2 7.29665 15.1976 12.8933
429 4 10.0665 10.8004 12.6212
430 3 9.32811 9.26612 12.383
431 1 10.4281 10.5937 14.4617
432 2 9.37856 10.4929 14.8076
433 2 10.9601 9.70123 14.7993
434 2 10.8324 11.4729 14.9622
435 1 10.7132 11.0285 10.8969
436 2 11.6194 11.6128 10.7238
437 2 10.7218 10.0824 10.3438
438 2 9.91005 11.6182 10.4263
439 4 10.0859 7.84559 12.9193
440 3 9.62278 6.46135 12.0311
441 1 9.33835 7.49905 14.6039
442 2 8.26227 7.40107 14.3959
443 2 9.68656 6.56754 15.0578
444 2 9.46124 8.31039 15.3188
445 1 11.9935 7.98507 12.6142
446 2 12.1716 7.14709 11.923
447 2 12.0812 8.89013 11.9898
448 4 9.52808 4.93104 12.7108
449 3 9.34853 3.77324 11.5306
450 1 8.00102 4.63564 13.7324
451 2 7.20965 4.31191 13.0599
452 2 8.16074 3.82027 14.4427
453 2 7.64545 5.49889 14.2896
454 1 11.1271 4.66561 13.7036
455 2 10.9194 4.47157 14.7672
456 2 11.7589 3.84264 13.3372
457 2 11.7474 5.57271 13.6581
458 4 8.73063 2.19907 11.6549
459 1 6.82329 1.96157 12.1414
460 2 6.59526 0.985012 11.6598
461 2 6.50722 2.69594 11.3771
462 1 9.72369 1.53462 13.1786
463 2 8.95603 1.5374 13.9677
464 2 10.2169 0.553725 13.2331
465 2 10.4969 2.28255 13.4266
466 4 16.2001 16.3717 11.8962
467 3 16.6041 14.7526 12.1918
468 1 17.7297 17.4335 12.22
469 2 17.9347 17.4062 13.2976
470 2 18.6156 17.0616 11.6752
471 2 17.5315 18.4696 11.9293
472 1 14.7936 17.068 12.9745
473 2 13.9623 17.4281 12.3605
474 2 14.3909 16.3567 13.6957
475 2 15.1829 17.9316 13.5275
476 4 15.8786 13.7383 13.3166
477 3 16.4079 12.1435 13.2427
478 1 16.3786 14.4123 14.9892
479 2 15.5425 14.5882 15.6748
480 2 17.0746 13.7092 15.4649
481 2 16.908 15.3669 14.8501
482 1 14.0647 13.8195 12.8234
483 2 14.007 13.7178 11.7307
484 2 13.4418 13.0376 13.2637
485 2 13.5967 14.7749 13.0698
486 4 15.3068 10.8828 13.4648
487 3 15.7936 9.30554 13.773
488 1 14.2794 11.3342 14.9767
489 2 13.1963 11.2911 14.8115
490 2 14.526 10.6231 15.7732
491 2 14.531 12.3417 15.3325
492 1 14.5466 10.7911 11.7629
493 2 15.3752 10.5781 11.0714
494 2 13.7896 10.0126 11.6417
495 2 14.1096 11.7383 11.4441
496 4 15.0293 7.9133 13.2353
497 3 15.5419 6.50547 13.983
498 1 13.1252 8.00379 13.6778
499 2 12.9991 7.1532 14.3683
500 2 13.0328 8.89776 14.3162
501 1 15.7205 7.73151 11.4995
502 2 16.8105 7.68791 11.6501
503 2 15.4178 6.82883 10.9612
504 2 15.5127 8.58863 10.8575
505 4 15.6537 5.01682 13.2189
506 3 15.3643 3.75954 14.2954
507 1 14.2794 4.86295 11.9432
508 2 14.684 4.54572 10.9743
509 2 13.5485 4.11864 12.2688
510 2 13.7322 5.80199 11.794
511 1 17.3691 4.73447 12.5182
512 2 18.1076 4.70463 13.3277
513 2 17.414 3.77281 11.9876
514 2 17.678 5.49822 11.7936
515 4 15.0959 2.15019 14.068
516 1 14.6109 1.63535 12.3153
517 2 15.4406 1.76465 11.597
518 2 14.3809 0.558327 12.3122
519 2 13.7382 2.15667 11.9228
520 1 16.6246 1.22462 14.62
521 2 16.7375 1.24407 15.7044
522 2 16.5825 0.172369 14.2802
523 2 17.5339 1.67153 14.1698
