523
 Atoms. Timestep: 0
Si 4.125 17.0666 3.07771
O 4.125 15.4366 3.07771
C 5.88805 17.69 3.07771
H 5.88805 17.69 4.16771
H 6.20271 16.8 2.53271
H 5.5734 18.58 2.53271
C 2.36195 17.69 3.07771
H 2.36195 17.69 1.98771
H 2.04729 16.8 3.62271
H 2.6766 18.58 3.62271
Si 4.125 13.8066 3.07771
O 4.125 12.1766 3.07771
C 5.37167 14.43 4.32437
H 4.60092 14.43 5.09512
H 5.97954 13.54 4.1615
H 5.53454 15.32 3.71651
C 2.87833 14.43 1.83104
H 3.64908 14.43 1.0603
H 2.27047 13.54 1.99392
H 2.71545 15.32 2.43891
Si 4.125 10.5466 3.07771
O 4.125 8.91665 3.07771
C 4.125 11.17 4.84076
H 3.035 11.17 4.84076
H 4.67 10.28 5.15542
H 4.67 12.06 4.52611
C 4.125 11.17 1.31466
H 5.215 11.17 1.31466
H 3.58 10.28 1
H 3.58 12.06 1.62931
Si 4.125 7.28665 3.07771
O 4.125 5.65665 3.07771
C 2.87833 7.90998 4.32437
H 2.10759 7.90998 3.55363
H 3.04121 7.02 4.93224
H 3.4862 8.79996 4.48725
C 5.37167 7.90998 1.83104
H 6.14241 7.90998 2.60179
H 5.20879 7.02 1.22317
H 4.7638 8.79996 1.66816
Si 4.125 4.02665 3.07771
O 4.125 2.39665 3.07771
C 2.36195 4.64998 3.07771
H 2.36195 4.64998 1.98771
H 2.04729 3.76 3.62271
H 2.6766 5.53996 3.62271
C 5.88805 4.64998 3.07771
H 5.88805 4.64998 4.16771
H 6.20271 3.76 2.53271
H 5.5734 5.53996 2.53271
Si 4.125 0.766648 3.07771
C 2.87833 1.38998 1.83104
H 3.64908 1.38998 1.0603
H 2.27047 0.5 1.99392
H 2.71545 2.27996 2.43891
C 5.37167 1.38998 4.32437
H 4.60092 1.38998 5.09512
H 5.97954 0.5 4.1615
H 5.53454 2.27996 3.71651
Si 9.625 17.0666 3.07771
O 9.625 15.4366 3.07771
C 11.3881 17.69 3.07771
H 11.3881 17.69 4.16771
H 11.7027 16.8 2.53271
H 11.0734 18.58 2.53271
C 7.86195 17.69 3.07771
H 7.86195 17.69 1.98771
H 7.54729 16.8 3.62271
H 8.1766 18.58 3.62271
Si 9.625 13.8066 3.07771
O 9.625 12.1766 3.07771
C 10.8717 14.43 4.32437
H 10.1009 14.43 5.09512
H 11.4795 13.54 4.1615
H 11.0345 15.32 3.71651
C 8.37833 14.43 1.83104
H 9.14908 14.43 1.0603
H 7.77046 13.54 1.99392
H 8.21546 15.32 2.43891
Si 9.625 10.5466 3.07771
O 9.625 8.91665 3.07771
C 9.625 11.17 4.84076
H 8.535 11.17 4.84076
H 10.17 10.28 5.15542
H 10.17 12.06 4.52611
C 9.625 11.17 1.31466
H 10.715 11.17 1.31466
H 9.08 10.28 1
H 9.08 12.06 1.62931
Si 9.625 7.28665 3.07771
O 9.625 5.65665 3.07771
C 8.37833 7.90998 4.32437
H 7.60759 7.90998 3.55363
H 8.54121 7.02 4.93224
H 8.9862 8.79996 4.48725
C 11.7823 7.90998 2.58619
H 11.6194 7.02 1.97832
H 11.1744 8.79996 2.42331
Si 9.625 4.02665 3.07771
O 9.625 2.39665 3.07771
C 7.86195 4.64998 3.07771
H 7.86195 4.64998 1.98771
H 7.54729 3.76 3.62271
H 8.1766 5.53996 3.62271
C 11.3881 4.64998 3.07771
H 11.3881 4.64998 4.16771
H 11.7027 3.76 2.53271
H 11.0734 5.53996 2.53271
Si 9.625 0.766648 3.07771
C 8.37833 1.38998 1.83104
H 9.14908 1.38998 1.0603
H 7.77046 0.5 1.99392
H 8.21546 2.27996 2.43891
C 10.8717 1.38998 4.32437
H 10.1009 1.38998 5.09512
H 11.4795 0.5 4.1615
H 11.0345 2.27996 3.71651
Si 15.125 17.0666 3.07771
O 15.125 15.4366 3.07771
C 16.8881 17.69 3.07771
H 16.8881 17.69 4.16771
H 17.2027 16.8 2.53271
H 16.5734 18.58 2.53271
C 13.3619 17.69 3.07771
H 13.3619 17.69 1.98771
H 13.0473 16.8 3.62271
H 13.6766 18.58 3.62271
Si 15.125 13.8066 3.07771
O 15.125 12.1766 3.07771
C 16.3717 14.43 4.32437
H 15.6009 14.43 5.09512
H 16.9795 13.54 4.1615
H 16.5345 15.32 3.71651
C 13.8783 14.43 1.83104
H 14.6491 14.43 1.0603
H 13.2705 13.54 1.99392
H 13.7155 15.32 2.43891
Si 15.125 10.5466 3.07771
O 15.125 8.91665 3.07771
C 15.125 11.17 4.84076
H 14.035 11.17 4.84076
H 15.67 10.28 5.15542
H 15.67 12.06 4.52611
C 15.125 11.17 1.31466
H 16.215 11.17 1.31466
H 14.58 10.28 1
H 14.58 12.06 1.62931
Si 15.125 7.28665 3.07771
O 15.125 5.65665 3.07771
C 12.9677 7.90998 3.56923
H 13.1306 7.02 4.1771
H 13.5756 8.79996 3.7321
C 16.3717 7.90998 1.83104
H 17.1424 7.90998 2.60179
H 16.2088 7.02 1.22317
H 15.7638 8.79996 1.66816
Si 15.125 4.02665 3.07771
O 15.125 2.39665 3.07771
C 13.3619 4.64998 3.07771
H 13.3619 4.64998 1.98771
H 13.0473 3.76 3.62271
H 13.6766 5.53996 3.62271
C 16.8881 4.64998 3.07771
H 16.8881 4.64998 4.16771
H 17.2027 3.76 2.53271
H 16.5734 5.53996 2.53271
Si 15.125 0.766648 3.07771
C 13.8783 1.38998 1.83104
H 14.6491 1.38998 1.0603
H 13.2705 0.5 1.99392
H 13.7155 2.27996 2.43891
C 16.3717 1.38998 4.32437
H 15.6009 1.38998 5.09512
H 16.9795 0.5 4.1615
H 16.5345 2.27996 3.71651
Si 6.875 17.0666 7.84085
O 6.875 15.4366 7.84085
C 8.63805 17.69 7.84085
H 8.63805 17.69 8.93085
H 8.95271 16.8 7.29585
H 8.3234 18.58 7.29585
C 5.11195 17.69 7.84085
H 5.11195 17.69 6.75085
H 4.79729 16.8 8.38585
H 5.4266 18.58 8.38585
Si 6.875 13.8066 7.84085
O 6.875 12.1766 7.84085
C 8.12167 14.43 9.08751
H 7.35092 14.43 9.85826
H 8.72954 13.54 8.92464
H 8.28454 15.32 8.47965
C 5.62833 14.43 6.59418
H 6.39908 14.43 5.82343
H 5.02046 13.54 6.75706
H 5.46546 15.32 7.20205
Si 6.875 10.5466 7.84085
O 6.875 8.91665 7.84085
C 6.875 11.17 9.6039
H 5.785 11.17 9.6039
H 7.42 10.28 9.91856
H 7.42 12.06 9.28925
C 6.875 11.17 6.0778
H 7.965 11.17 6.0778
H 6.33 10.28 5.76314
H 6.33 12.06 6.39245
Si 6.875 7.28665 7.84085
O 6.875 5.65665 7.84085
C 5.62833 7.90998 9.08751
H 4.85759 7.90998 8.31677
H 5.79121 7.02 9.69538
H 6.2362 8.79996 9.25039
C 8.12167 7.90998 6.59418
H 8.89241 7.90998 7.36493
H 7.95879 7.02 5.98631
H 7.5138 8.79996 6.4313
Si 6.875 4.02665 7.84085
O 6.875 2.39665 7.84085
C 5.11195 4.64998 7.84085
H 5.11195 4.64998 6.75085
H 4.79729 3.76 8.38585
H 5.4266 5.53996 8.38585
C 8.63805 4.64998 7.84085
H 8.63805 4.64998 8.93085
H 8.95271 3.76 7.29585
H 8.3234 5.53996 7.29585
Si 6.875 0.766648 7.84085
C 5.62833 1.38998 6.59418
H 6.39908 1.38998 5.82343
H 5.02046 0.5 6.75706
H 5.46546 2.27996 7.20205
C 9.03229 1.38998 8.33237
H 9.64016 0.5 8.16949
H 9.19516 2.27996 7.7245
Si 12.375 17.0666 7.84085
O 12.375 15.4366 7.84085
C 14.1381 17.69 7.84085
H 14.1381 17.69 8.93085
H 14.4527 16.8 7.29585
H 13.8234 18.58 7.29585
C 10.6119 17.69 7.84085
H 10.6119 17.69 6.75085
H 10.2973 16.8 8.38585
H 10.9266 18.58 8.38585
Si 12.375 13.8066 7.84085
O 12.375 12.1766 7.84085
C 13.6217 14.43 9.08751
H 12.8509 14.43 9.85826
H 14.2295 13.54 8.92464
H 13.7845 15.32 8.47965
C 11.1283 14.43 6.59418
H 11.8991 14.43 5.82343
H 10.5205 13.54 6.75706
H 10.9655 15.32 7.20205
Si 12.375 10.5466 7.84085
O 12.375 8.91665 7.84085
C 12.375 11.17 9.6039
H 11.285 11.17 9.6039
H 12.92 10.28 9.91856
H 12.92 12.06 9.28925
C 12.375 11.17 6.0778
H 13.465 11.17 6.0778
H 11.83 10.28 5.76314
H 11.83 12.06 6.39245
Si 12.375 7.28665 7.84085
O 12.375 5.65665 7.84085
C 11.1283 7.90998 9.08751
H 10.3576 7.90998 8.31677
H 11.2912 7.02 9.69538
H 11.7362 8.79996 9.25039
C 13.6217 7.90998 6.59418
H 14.3924 7.90998 7.36493
H 13.4588 7.02 5.98631
H 13.0138 8.79996 6.4313
Si 12.375 4.02665 7.84085
O 12.375 2.39665 7.84085
C 10.6119 4.64998 7.84085
H 10.6119 4.64998 6.75085
H 10.2973 3.76 8.38585
H 10.9266 5.53996 8.38585
C 14.1381 4.64998 7.84085
H 14.1381 4.64998 8.93085
H 14.4527 3.76 7.29585
H 13.8234 5.53996 7.29585
Si 12.375 0.766648 7.84085
C 10.2177 1.38998 7.34933
H 9.60984 0.5 7.51221
H 10.0548 2.27996 7.9572
C 13.6217 1.38998 9.08751
H 12.8509 1.38998 9.85826
H 14.2295 0.5 8.92464
H 13.7845 2.27996 8.47965
Si 17.875 17.0666 7.84085
O 17.875 15.4366 7.84085
C 19.6381 17.69 7.84085
H 19.6381 17.69 8.93085
H 19.9527 16.8 7.29585
H 19.3234 18.58 7.29585
C 16.1119 17.69 7.84085
H 16.1119 17.69 6.75085
H 15.7973 16.8 8.38585
H 16.4266 18.58 8.38585
Si 17.875 13.8066 7.84085
O 17.875 12.1766 7.84085
C 19.1217 14.43 9.08751
H 18.3509 14.43 9.85826
H 19.7295 13.54 8.92464
H 19.2845 15.32 8.47965
C 16.6283 14.43 6.59418
H 17.3991 14.43 5.82343
H 16.0205 13.54 6.75706
H 16.4655 15.32 7.20205
Si 17.875 10.5466 7.84085
O 17.875 8.91665 7.84085
C 17.875 11.17 9.6039
H 16.785 11.17 9.6039
H 18.42 10.28 9.91856
H 18.42 12.06 9.28925
C 17.875 11.17 6.0778
H 18.965 11.17 6.0778
H 17.33 10.28 5.76314
H 17.33 12.06 6.39245
Si 17.875 7.28665 7.84085
O 17.875 5.65665 7.84085
C 16.6283 7.90998 9.08751
H 15.8576 7.90998 8.31677
H 16.7912 7.02 9.69538
H 17.2362 8.79996 9.25039
C 19.1217 7.90998 6.59418
H 19.8924 7.90998 7.36493
H 18.9588 7.02 5.98631
H 18.5138 8.79996 6.4313
Si 17.875 4.02665 7.84085
O 17.875 2.39665 7.84085
C 16.1119 4.64998 7.84085
H 16.1119 4.64998 6.75085
H 15.7973 3.76 8.38585
H 16.4266 5.53996 8.38585
C 19.6381 4.64998 7.84085
H 19.6381 4.64998 8.93085
H 19.9527 3.76 7.29585
H 19.3234 5.53996 7.29585
Si 17.875 0.766648 7.84085
C 16.6283 1.38998 6.59418
H 17.3991 1.38998 5.82343
H 16.0205 0.5 6.75706
H 16.4655 2.27996 7.20205
C 19.1217 1.38998 9.08751
H 18.3509 1.38998 9.85826
H 19.7295 0.5 8.92464
H 19.2845 2.27996 8.47965
Si 4.125 17.0666 12.604
O 4.125 15.4366 12.604
C 5.88805 17.69 12.604
H 5.88805 17.69 13.694
H 6.20271 16.8 12.059
H 5.5734 18.58 12.059
C 2.36195 17.69 12.604
H 2.36195 17.69 11.514
H 2.04729 16.8 13.149
H 2.6766 18.58 13.149
Si 4.125 13.8066 12.604
O 4.125 12.1766 12.604
C 5.37167 14.43 13.8507
H 4.60092 14.43 14.6214
H 5.97954 13.54 13.6878
H 5.53454 15.32 13.2428
C 2.87833 14.43 11.3573
H 3.64908 14.43 10.5866
H 2.27047 13.54 11.5202
H 2.71545 15.32 11.9652
Si 4.125 10.5466 12.604
O 4.125 8.91665 12.604
C 4.125 11.17 14.367
H 3.035 11.17 14.367
H 4.67 10.28 14.6817
H 4.67 12.06 14.0524
C 4.125 11.17 10.8409
H 5.215 11.17 10.8409
H 3.58 10.28 10.5263
H 3.58 12.06 11.1556
Si 4.125 7.28665 12.604
O 4.125 5.65665 12.604
C 2.87833 7.90998 13.8507
H 2.10759 7.90998 13.0799
H 3.04121 7.02 14.4585
H 3.4862 8.79996 14.0135
C 5.37167 7.90998 11.3573
H 6.14241 7.90998 12.1281
H 5.20879 7.02 10.7495
H 4.7638 8.79996 11.1944
Si 4.125 4.02665 12.604
O 4.125 2.39665 12.604
C 2.36195 4.64998 12.604
H 2.36195 4.64998 11.514
H 2.04729 3.76 13.149
H 2.6766 5.53996 13.149
C 5.88805 4.64998 12.604
H 5.88805 4.64998 13.694
H 6.20271 3.76 12.059
H 5.5734 5.53996 12.059
Si 4.125 0.766648 12.604
C 2.87833 1.38998 11.3573
H 3.64908 1.38998 10.5866
H 2.27047 0.5 11.5202
H 2.71545 2.27996 11.9652
C 6.28229 1.38998 13.0955
H 6.89016 0.5 12.9326
H 6.44516 2.27996 12.4876
Si 9.625 17.0666 12.604
O 9.625 15.4366 12.604
C 11.3881 17.69 12.604
H 11.3881 17.69 13.694
H 11.7027 16.8 12.059
H 11.0734 18.58 12.059
C 7.86195 17.69 12.604
H 7.86195 17.69 11.514
H 7.54729 16.8 13.149
H 8.1766 18.58 13.149
Si 9.625 13.8066 12.604
O 9.625 12.1766 12.604
C 10.8717 14.43 13.8507
H 10.1009 14.43 14.6214
H 11.4795 13.54 13.6878
H 11.0345 15.32 13.2428
C 8.37833 14.43 11.3573
H 9.14908 14.43 10.5866
H 7.77046 13.54 11.5202
H 8.21546 15.32 11.9652
Si 9.625 10.5466 12.604
O 9.625 8.91665 12.604
C 9.625 11.17 14.367
H 8.535 11.17 14.367
H 10.17 10.28 14.6817
H 10.17 12.06 14.0524
C 9.625 11.17 10.8409
H 10.715 11.17 10.8409
H 9.08 10.28 10.5263
H 9.08 12.06 11.1556
Si 9.625 7.28665 12.604
O 9.625 5.65665 12.604
C 8.37833 7.90998 13.8507
H 7.60759 7.90998 13.0799
H 8.54121 7.02 14.4585
H 8.9862 8.79996 14.0135
C 11.7823 7.90998 12.1125
H 11.6194 7.02 11.5046
H 11.1744 8.79996 11.9496
Si 9.625 4.02665 12.604
O 9.625 2.39665 12.604
C 7.86195 4.64998 12.604
H 7.86195 4.64998 11.514
H 7.54729 3.76 13.149
H 8.1766 5.53996 13.149
C 11.3881 4.64998 12.604
H 11.3881 4.64998 13.694
H 11.7027 3.76 12.059
H 11.0734 5.53996 12.059
Si 9.625 0.766648 12.604
C 7.46771 1.38998 12.1125
H 6.85984 0.5 12.2753
H 7.30484 2.27996 12.7203
C 10.8717 1.38998 13.8507
H 10.1009 1.38998 14.6214
H 11.4795 0.5 13.6878
H 11.0345 2.27996 13.2428
Si 15.125 17.0666 12.604
O 15.125 15.4366 12.604
C 16.8881 17.69 12.604
H 16.8881 17.69 13.694
H 17.2027 16.8 12.059
H 16.5734 18.58 12.059
C 13.3619 17.69 12.604
H 13.3619 17.69 11.514
H 13.0473 16.8 13.149
H 13.6766 18.58 13.149
Si 15.125 13.8066 12.604
O 15.125 12.1766 12.604
C 16.3717 14.43 13.8507
H 15.6009 14.43 14.6214
H 16.9795 13.54 13.6878
H 16.5345 15.32 13.2428
C 13.8783 14.43 11.3573
H 14.6491 14.43 10.5866
H 13.2705 13.54 11.5202
H 13.7155 15.32 11.9652
Si 15.125 10.5466 12.604
O 15.125 8.91665 12.604
C 15.125 11.17 14.367
H 14.035 11.17 14.367
H 15.67 10.28 14.6817
H 15.67 12.06 14.0524
C 15.125 11.17 10.8409
H 16.215 11.17 10.8409
H 14.58 10.28 10.5263
H 14.58 12.06 11.1556
Si 15.125 7.28665 12.604
O 15.125 5.65665 12.604
C 12.9677 7.90998 13.0955
H 13.1306 7.02 13.7034
H 13.5756 8.79996 13.2584
C 16.3717 7.90998 11.3573
H 17.1424 7.90998 12.1281
H 16.2088 7.02 10.7495
H 15.7638 8.79996 11.1944
Si 15.125 4.02665 12.604
O 15.125 2.39665 12.604
C 13.3619 4.64998 12.604
H 13.3619 4.64998 11.514
H 13.0473 3.76 13.149
H 13.6766 5.53996 13.149
C 16.8881 4.64998 12.604
H 16.8881 4.64998 13.694
H 17.2027 3.76 12.059
H 16.5734 5.53996 12.059
Si 15.125 0.766648 12.604
C 13.8783 1.38998 11.3573
H 14.6491 1.38998 10.5866
H 13.2705 0.5 11.5202
H 13.7155 2.27996 11.9652
C 16.3717 1.38998 13.8507
H 15.6009 1.38998 14.6214
H 16.9795 0.5 13.6878
H 16.5345 2.27996 13.2428
523
 Atoms. Timestep: 68
Si 3.11548 16.5544 3.87783
O 2.76849 14.9427 3.67626
C 4.534 17.1734 2.81163
H 5.38346 17.5381 3.39678
H 4.92672 16.4194 2.1228
H 4.1779 18.0116 2.19935
C 1.5536 17.5479 3.51859
H 1.33746 17.4731 2.43278
H 0.684024 17.1402 4.06358
H 1.68162 18.6057 3.78907
Si 3.34577 13.7903 2.60354
O 2.67093 12.2907 2.87473
C 5.19151 13.7693 2.92788
H 5.36029 13.5145 3.97926
H 5.77148 13.065 2.32631
H 5.64105 14.7567 2.78149
C 2.83411 14.3199 0.872043
H 3.68148 14.5638 0.215628
H 2.24796 13.5173 0.398184
H 2.18845 15.2105 0.944715
Si 3.58252 10.8781 2.75752
O 2.76404 9.4288 2.50722
C 4.34455 10.7726 4.4729
H 3.51023 10.6255 5.17411
H 5.0664 9.96061 4.62108
H 4.83606 11.7097 4.75381
C 4.64959 11.0962 1.21349
H 5.73062 11.0661 1.40359
H 4.398 10.3046 0.498315
H 4.41651 12.0542 0.731254
Si 3.49493 7.95791 2.83242
O 2.85217 6.59956 2.06711
C 3.17914 7.6648 4.66894
H 2.08961 7.60453 4.80874
H 3.62771 6.73675 5.04168
H 3.54488 8.4839 5.29465
C 5.28134 8.0043 2.2078
H 6.03234 8.22244 2.97982
H 5.53209 7.03635 1.75496
H 5.38946 8.75726 1.42169
Si 3.11651 5.06356 2.68006
O 3.31922 3.86142 1.52728
C 1.5959 4.58508 3.65912
H 0.767834 4.48375 2.94638
H 1.7282 3.61704 4.15562
H 1.31075 5.32495 4.41744
C 4.7524 5.0295 3.60313
H 4.6508 4.74817 4.65677
H 5.39625 4.28578 3.13368
H 5.29235 5.98027 3.56438
Si 3.92058 2.33146 1.60478
C 2.63026 1.16066 1.00394
H 2.57469 1.18476 19.9175
H 2.85367 0.120045 1.32099
H 1.64703 1.43091 1.42102
C 4.49872 1.82104 3.35665
H 3.7069 1.96864 4.11908
H 4.73524 0.728225 3.35919
H 5.40307 2.33826 3.7037
Si 9.38982 16.4125 3.59745
O 8.56659 15.0298 3.16092
C 10.7786 17.1834 2.5108
H 11.4808 17.726 3.16317
H 11.3788 16.4751 1.91389
H 10.3564 17.9239 1.81284
C 8.03956 17.6975 3.76226
H 7.56705 17.8002 2.77584
H 7.25648 17.3659 4.46712
H 8.39027 18.6862 4.08545
Si 9.01183 13.7266 2.17489
O 8.47151 12.0922 2.54274
C 10.8337 13.709 2.71492
H 10.8074 13.6655 3.82587
H 11.4362 12.8566 2.36081
H 11.3473 14.6396 2.43755
C 8.28423 14.0387 0.517191
H 8.85717 14.4322 19.6587
H 7.79818 13.1058 0.158909
H 7.47327 14.7888 0.705597
Si 9.58497 10.8514 2.30116
O 9.18007 9.21751 2.02064
C 10.338 10.7561 3.99985
H 9.50717 10.445 4.64766
H 11.1301 10.0182 4.12929
H 10.6813 11.7174 4.37762
C 10.5072 11.2475 0.705578
H 11.5907 11.3418 0.819557
H 10.3187 10.4333 19.9984
H 10.1363 12.1752 0.261844
Si 10.1114 7.88972 2.49122
O 9.66995 6.49631 1.648
C 9.4431 7.58295 4.21671
H 8.35769 7.4523 4.06989
H 9.84706 6.70323 4.71948
H 9.57793 8.43579 4.88578
C 12.007 8.06509 2.02982
H 12.1515 7.17972 1.38862
H 12.0015 8.91899 1.32897
Si 9.68988 4.9925 2.35248
O 9.94054 3.7608 1.22658
C 8.0681 4.55298 3.17092
H 7.32488 4.2641 2.4221
H 8.19894 3.70674 3.85747
H 7.6522 5.36959 3.76496
C 11.1192 4.8896 3.53185
H 10.8179 4.63577 4.54971
H 11.8282 4.13264 3.19875
H 11.6644 5.8329 3.58637
Si 9.91833 2.10957 1.56533
C 8.24523 1.40496 1.09796
H 8.13985 1.25868 0.0229843
H 8.08535 0.446699 1.597
H 7.44669 2.09007 1.41773
C 10.359 1.71711 3.36492
H 9.60763 2.13249 4.06198
H 10.3532 0.626404 3.5219
H 11.3358 2.10343 3.67689
Si 16.3037 16.1906 2.61795
O 16.4356 15.165 1.30266
C 17.7704 17.3148 2.69041
H 18.0178 17.6459 3.71038
H 18.652 16.8248 2.25736
H 17.5432 18.213 2.09527
C 14.6537 17.0488 2.91956
H 14.1446 17.3718 2.00016
H 13.963 16.3966 3.47369
H 14.8138 17.9316 3.5496
Si 15.8127 13.863 2.12459
O 16.4734 12.3628 1.97182
C 16.2957 14.6671 3.93854
H 15.4287 14.6971 4.61233
H 16.8456 13.7117 4.08808
H 17.1155 15.2662 4.40824
C 13.9881 13.9353 1.83178
H 13.8144 13.8936 0.748053
H 13.4244 13.1232 2.2967
H 13.5602 14.8752 2.19561
Si 15.4603 11.0396 2.37944
O 15.993 9.48227 2.66335
C 14.9053 11.548 4.07952
H 14.0289 12.1937 4.15451
H 14.7074 10.6257 4.6313
H 15.7392 12.0227 4.6109
C 14.3866 10.8067 0.86744
H 15.1007 10.605 0.0552142
H 13.7411 9.92305 0.957982
H 13.7771 11.6651 0.581605
Si 15.1295 8.04126 2.45644
O 15.8418 6.88863 3.45531
C 13.2543 8.18077 2.988
H 13.1634 7.39822 3.7596
H 13.1764 9.13419 3.5431
C 15.6995 7.43517 0.786717
H 16.7864 7.3333 0.949186
H 15.2977 6.4652 0.473932
H 15.5499 8.16347 19.9852
Si 16.0824 5.26496 3.06571
O 16.2446 3.65937 1.608
C 14.3734 4.5379 3.27152
H 13.9866 4.41724 2.24127
H 14.2891 3.58245 3.7993
H 13.7042 5.24478 3.77096
C 17.9182 4.99292 3.27019
H 18.3116 5.11762 4.28555
H 18.139 3.99427 2.8776
H 18.423 5.74328 2.63552
Si 15.6199 2.30647 2.11484
C 14.0155 1.53653 1.50158
H 14.0229 1.30641 0.428713
H 13.8507 0.609266 2.05177
H 13.1463 2.18181 1.6871
C 16.0745 1.58527 3.79301
H 15.3328 1.84922 4.54833
H 16.0849 0.486332 3.74851
H 17.0561 1.93276 4.14291
Si 5.71215 16.773 8.94309
O 5.50944 15.109 9.20545
C 7.23295 17.2021 7.90794
H 8.16338 17.2088 8.48337
H 7.36253 16.4831 7.08117
H 7.10106 18.198 7.47225
C 4.10115 17.4592 8.22533
H 4.21643 17.5505 7.12166
H 3.27333 16.7839 8.44071
H 3.85982 18.4601 8.60574
Si 6.09742 13.9384 8.13266
O 5.51873 12.4039 8.4792
C 7.93211 13.9627 8.46374
H 8.09273 13.8626 9.54216
H 8.50821 13.1702 7.98694
H 8.37042 14.9168 8.16678
C 5.48958 14.4896 6.43878
H 6.28376 14.7985 5.74641
H 4.91879 13.6955 5.9434
H 4.79932 15.3372 6.53504
Si 6.49371 11.0284 8.27179
O 5.76044 9.53239 8.33414
C 7.45749 10.8469 9.85266
H 6.73068 10.4099 10.5483
H 8.2711 10.1192 9.77162
H 7.8249 11.7806 10.2806
C 7.30916 11.3301 6.58066
H 8.38729 11.5334 6.64409
H 7.17721 10.4926 5.88543
H 6.84874 12.2022 6.09072
Si 5.83146 7.84301 8.16661
O 6.3728 6.3772 8.96938
C 4.01862 7.67872 8.72816
H 3.22355 7.82752 7.99553
H 3.8769 6.73977 9.27189
H 3.92346 8.48409 9.47176
C 7.31353 7.86211 6.99999
H 8.13169 8.03261 7.73486
H 7.59013 6.93663 6.49964
H 7.36526 8.68937 6.29552
Si 6.18508 4.90035 8.18345
O 6.46681 3.64465 9.27948
C 4.42908 4.68352 7.53377
H 4.40144 4.70261 6.43479
H 4.00703 3.72225 7.84529
H 3.74706 5.47271 7.86067
C 7.44473 4.48192 6.85499
H 8.42473 4.31983 7.32752
H 7.16167 3.54699 6.362
H 7.58146 5.22378 6.05951
Si 6.86892 2.03319 9.10643
C 6.15251 1.46911 7.43383
H 6.87891 1.41165 6.5938
H 5.66075 0.474516 7.49584
H 5.36808 2.19749 7.15371
C 8.62404 1.6748 9.88223
H 8.83512 0.611255 9.84395
H 9.36382 2.17595 9.23719
Si 12.4612 16.8923 7.10134
O 12.7039 15.2986 7.04879
C 14.0969 17.7471 7.11085
H 14.4174 17.8896 8.16038
H 14.8331 17.0908 6.62221
H 14.1156 18.7285 6.64186
C 11.1193 17.543 8.25783
H 10.1472 17.6934 7.7632
H 10.9425 16.8346 9.0921
H 11.4313 18.5124 8.67543
Si 11.8375 13.7075 7.69761
O 11.1814 12.0949 7.99856
C 13.3133 13.7014 8.89052
H 13.0697 14.094 9.888
H 13.7427 12.6961 9.03051
H 14.107 14.3408 8.47381
C 10.5059 14.2372 6.49296
H 10.991 14.5346 5.55584
H 9.75642 13.4604 6.30432
H 10.0083 15.1531 6.85408
Si 11.9704 10.6652 7.59345
O 11.1062 9.26901 7.2035
C 13.0974 10.2291 9.01956
H 12.4896 9.98685 9.8883
H 13.7789 9.40023 8.86075
H 13.6995 11.0779 9.32021
C 12.8668 11.2135 6.07322
H 13.8886 11.5218 6.3027
H 12.8994 10.4029 5.34556
H 12.3611 12.0419 5.5669
Si 11.9331 7.77201 7.47788
O 11.4666 6.33468 6.76369
C 11.5631 7.44616 9.28076
H 10.524 7.09243 9.33585
H 12.1896 6.67313 9.74377
H 11.6147 8.33799 9.90471
C 13.6829 7.98861 6.80182
H 14.4489 8.06032 7.58314
H 13.9406 7.13798 6.15989
H 13.7838 8.88421 6.1784
Si 12.0748 4.92301 7.45223
O 12.216 3.72419 6.34805
C 10.9122 4.28273 8.76511
H 10.0659 3.77959 8.28731
H 11.3941 3.5473 9.42566
H 10.4903 5.04717 9.42775
C 13.8121 5.07793 8.19577
H 13.7718 4.96305 9.29186
H 14.4306 4.26029 7.79556
H 14.3482 6.01054 7.97888
Si 12.1212 2.11507 6.84343
C 10.4762 1.48588 6.63844
H 10.2763 0.418191 6.54547
H 9.64047 2.14463 6.41201
C 13.1093 1.75119 8.40913
H 12.3821 1.6997 9.22444
H 13.6319 0.794288 8.3864
H 13.8253 2.5347 8.64067
Si 19.0542 16.649 6.99839
O 19.5021 15.061 7.11898
C 20.5845 17.6897 7.43781
H 20.7689 17.5744 8.52205
H 21.452 17.3254 6.88152
H 20.3962 18.7615 7.22642
C 17.5797 17.1259 8.10748
H 16.711 17.4382 7.52682
H 17.274 16.2972 8.75187
H 17.8767 17.9735 8.73975
Si 18.896 13.8202 8.09418
O 19.6476 12.3602 7.7949
C 19.2266 14.3386 9.86827
H 18.3115 14.4743 10.4657
H 19.8512 13.5906 10.3769
H 19.784 15.2891 9.87524
C 17.0818 13.7841 7.59444
H 17.0065 13.6708 6.50649
H 16.4905 12.9876 8.05835
H 16.5927 14.7303 7.8487
Si 18.8012 10.9191 7.94947
O 19.6068 9.44098 8.13365
C 17.884 11.1305 9.58517
H 16.8521 11.491 9.49839
H 17.8661 10.191 10.1523
H 18.431 11.8545 10.2038
C 17.9577 10.8121 6.27111
H 18.7624 10.6813 5.53455
H 17.2458 9.99217 6.13304
H 17.4443 11.7432 6.02058
Si 18.8177 7.99584 7.78026
O 19.2872 6.61468 8.63347
C 17.0086 8.20186 8.23096
H 16.4048 8.56234 7.39158
H 16.5873 7.25022 8.57465
H 16.8902 8.90702 9.0572
C 19.1573 7.6344 5.97102
H 20.2393 7.52647 5.81531
H 18.6653 6.71378 5.64275
H 18.8038 8.4405 5.32317
Si 19.0036 5.07208 8.07867
O 18.7748 3.9509 9.31295
C 17.3751 4.99641 7.13065
H 17.4888 4.57316 6.12655
H 16.6733 4.35933 7.67584
H 16.9037 5.97866 7.02606
C 20.5255 4.54323 7.13715
H 21.3516 4.47915 7.86041
H 20.4164 3.55808 6.66084
H 20.8088 5.27027 6.36334
Si 18.0372 2.4439 9.34366
C 17.4966 1.80556 7.63638
H 18.2851 1.90485 6.89301
H 17.2565 0.737092 7.71903
H 16.5987 2.29458 7.24198
C 19.3071 1.22542 10.0321
H 19.4306 1.27922 11.1222
H 18.983 0.204546 9.79134
H 20.2824 1.39209 9.56107
Si 2.78468 16.2954 12.8385
O 2.46332 15.0644 13.8932
C 4.5026 17.0374 12.6477
H 5.00669 17.256 13.6073
H 5.17401 16.405 12.04
H 4.38417 17.994 12.1127
C 1.41699 17.4964 12.7091
H 1.15753 17.7769 11.6928
H 0.526532 17.1196 13.2112
H 1.73549 18.4061 13.2222
Si 3.17892 13.78 13.0211
O 2.53441 12.2499 13.1963
C 4.93127 13.8731 13.5907
H 4.99522 13.7893 14.6779
H 5.53935 13.0885 13.1458
H 5.3621 14.8272 13.3027
C 2.94246 14.4935 11.2553
H 3.89156 14.6318 10.7244
H 2.37627 13.703 10.7353
H 2.27864 15.3689 11.0284
Si 3.48518 10.8515 12.9053
O 2.75735 9.35306 12.8845
C 4.64393 10.7966 14.395
H 3.99576 10.801 15.2844
H 5.2611 9.89338 14.4234
H 5.30614 11.6605 14.4668
C 4.10922 11.1551 11.169
H 4.89744 11.9157 11.082
H 4.47785 10.2369 10.6911
H 3.26052 11.5054 10.562
Si 3.50133 7.94915 13.474
O 2.88553 6.51748 12.9094
C 3.06031 7.87348 15.2789
H 1.96358 7.76889 15.2958
H 3.48661 7.00142 15.7888
H 3.32178 8.78255 15.8287
C 5.28663 7.97562 12.8719
H 6.04118 7.99047 13.6676
H 5.48688 7.10295 12.2422
H 5.47033 8.85346 12.2364
Si 3.03554 4.92099 12.5127
O 3.41707 3.82518 13.7583
C 1.37831 4.40955 11.8517
H 1.2395 4.57743 10.7811
H 1.18447 3.35845 12.099
H 0.649956 5.02976 12.387
C 4.67414 4.6349 11.5778
H 5.52904 4.92398 12.208
H 4.89709 3.73758 10.9831
H 4.73067 5.35977 10.745
Si 4.38883 2.81049 12.828
C 3.54947 1.65846 11.6235
H 4.23233 1.45083 10.7994
H 3.31065 0.707773 12.105
H 2.63589 2.08679 11.2189
C 6.04631 2.07647 13.4128
H 5.78167 1.07819 13.8283
H 6.49942 2.63982 14.2472
Si 9.83753 16.693 11.8928
O 10.3896 15.1506 12.1887
C 11.3279 17.8291 11.9689
H 11.6413 17.9822 13.0207
H 12.1804 17.4213 11.421
H 11.1295 18.8241 11.5517
C 8.44789 17.4175 12.9712
H 7.6555 17.8372 12.3364
H 7.9492 16.717 13.662
H 8.80468 18.2553 13.5834
Si 9.54583 13.9783 13.133
O 9.48828 12.3665 12.7444
C 10.4717 14.1678 14.776
H 9.87299 14.3332 15.681
H 11.0731 13.2597 14.9355
H 11.1904 14.9976 14.6695
C 7.81841 14.3116 12.5528
H 7.93269 14.4003 11.4578
H 7.21859 13.4172 12.7144
H 7.29665 15.1976 12.8933
Si 10.0665 10.8004 12.6212
O 9.32811 9.26612 12.383
C 10.4281 10.5937 14.4617
H 9.37856 10.4929 14.8076
H 10.9601 9.70123 14.7993
H 10.8324 11.4729 14.9622
C 10.7132 11.0285 10.8969
H 11.6194 11.6128 10.7238
H 10.7218 10.0824 10.3438
H 9.91005 11.6182 10.4263
Si 10.0859 7.84559 12.9193
O 9.62278 6.46135 12.0311
C 9.33835 7.49905 14.6039
H 8.26227 7.40107 14.3959
H 9.68656 6.56754 15.0578
H 9.46124 8.31039 15.3188
C 11.9935 7.98507 12.6142
H 12.1716 7.14709 11.923
H 12.0812 8.89013 11.9898
Si 9.52808 4.93104 12.7108
O 9.34853 3.77324 11.5306
C 8.00102 4.63564 13.7324
H 7.20965 4.31191 13.0599
H 8.16074 3.82027 14.4427
H 7.64545 5.49889 14.2896
C 11.1271 4.66561 13.7036
H 10.9194 4.47157 14.7672
H 11.7589 3.84264 13.3372
H 11.7474 5.57271 13.6581
Si 8.73063 2.19907 11.6549
C 6.82329 1.96157 12.1414
H 6.59526 0.985012 11.6598
H 6.50722 2.69594 11.3771
C 9.72369 1.53462 13.1786
H 8.95603 1.5374 13.9677
H 10.2169 0.553725 13.2331
H 10.4969 2.28255 13.4266
Si 16.2001 16.3717 11.8962
O 16.6041 14.7526 12.1918
C 17.7297 17.4335 12.22
H 17.9347 17.4062 13.2976
H 18.6156 17.0616 11.6752
H 17.5315 18.4696 11.9293
C 14.7936 17.068 12.9745
H 13.9623 17.4281 12.3605
H 14.3909 16.3567 13.6957
H 15.1829 17.9316 13.5275
Si 15.8786 13.7383 13.3166
O 16.4079 12.1435 13.2427
C 16.3786 14.4123 14.9892
H 15.5425 14.5882 15.6748
H 17.0746 13.7092 15.4649
H 16.908 15.3669 14.8501
C 14.0647 13.8195 12.8234
H 14.007 13.7178 11.7307
H 13.4418 13.0376 13.2637
H 13.5967 14.7749 13.0698
Si 15.3068 10.8828 13.4648
O 15.7936 9.30554 13.773
C 14.2794 11.3342 14.9767
H 13.1963 11.2911 14.8115
H 14.526 10.6231 15.7732
H 14.531 12.3417 15.3325
C 14.5466 10.7911 11.7629
H 15.3752 10.5781 11.0714
H 13.7896 10.0126 11.6417
H 14.1096 11.7383 11.4441
Si 15.0293 7.9133 13.2353
O 15.5419 6.50547 13.983
C 13.1252 8.00379 13.6778
H 12.9991 7.1532 14.3683
H 13.0328 8.89776 14.3162
C 15.7205 7.73151 11.4995
H 16.8105 7.68791 11.6501
H 15.4178 6.82883 10.9612
H 15.5127 8.58863 10.8575
Si 15.6537 5.01682 13.2189
O 15.3643 3.75954 14.2954
C 14.2794 4.86295 11.9432
H 14.684 4.54572 10.9743
H 13.5485 4.11864 12.2688
H 13.7322 5.80199 11.794
C 17.3691 4.73447 12.5182
H 18.1076 4.70463 13.3277
H 17.414 3.77281 11.9876
H 17.678 5.49822 11.7936
Si 15.0959 2.15019 14.068
C 14.6109 1.63535 12.3153
H 15.4406 1.76465 11.597
H 14.3809 0.558327 12.3122
H 13.7382 2.15667 11.9228
C 16.6246 1.22462 14.62
H 16.7375 1.24407 15.7044
H 16.5825 0.172369 14.2802
H 17.5339 1.67153 14.1698
