523
 Atoms. Timestep: 23607
Si 1.92651 12.327 19.2086
O 21.007 11.334 1.35121
C 1.2887 13.3981 17.8045
H 1.70516 14.4478 17.7353
H 1.41323 12.9339 16.8402
H 20.5101 13.6038 18.095
C 2.33729 13.4444 2.23545
H 1.55898 14.0713 2.57025
H 2.55412 12.7873 3.07329
H 3.22323 14.0116 2.02658
Si 20.7399 9.86223 2.08843
O 1.82346 8.81449 1.96348
C 19.2552 9.09086 1.19251
H 18.3974 9.48437 1.75208
H 19.2914 9.59228 18.6052
H 19.1423 8.02219 1.24398
C 20.278 10.0779 3.91819
H 19.476 9.36454 4.00863
H 21.0205 9.74658 4.70107
H 19.8268 11.0875 4.06384
Si 2.27853 7.21085 2.18106
O 1.23127 6.1481 1.49787
C 2.25042 6.70657 3.98286
H 2.57554 5.65637 4.19012
H 2.92868 7.35742 4.59913
H 1.19947 6.87525 4.32135
C 3.92025 6.99427 1.30455
H 3.85612 7.11802 18.6236
H 4.76333 7.55818 1.62252
H 4.30636 5.99633 1.45881
Si 20.6604 4.83728 0.954595
O 1.55224 3.67523 18.8797
C 19.4678 5.22022 17.9185
H 20.0323 5.08176 17.0135
H 18.6943 4.41241 17.9613
H 18.9746 6.22682 18.1047
C 19.715 4.0633 2.52932
H 18.9452 3.37444 2.14563
H 20.3691 3.37151 3.07405
H 19.4607 4.92274 3.28277
Si 1.89072 2.07552 18.6994
O 2.83752 1.934 17.2746
C 20.5322 1.06651 18.6046
H 20.6161 17.8844 17.7646
H 20.4718 18.0647 1.14644
H 19.7111 1.78975 18.3926
C 2.98213 1.53319 1.70795
H 3.09441 18.0584 1.74495
H 3.98025 2.07253 1.8094
H 2.47452 1.88238 2.59887
Si 4.33956 1.50785 16.7679
C 5.77816 2.28825 17.7054
H 6.74321 1.93419 17.3697
H 5.5928 3.42181 17.7403
H 5.73181 1.86859 18.7264
C 4.53253 17.1642 17.1141
H 4.63243 17.2144 18.2326
H 3.67077 16.5401 16.8423
H 5.39384 16.619 16.6622
Si 11.1442 16.5161 2.30338
O 9.62607 16.1157 2.82004
C 11.6175 15.4157 0.85698
H 11.2913 14.3945 1.08681
H 11.2267 15.7948 18.3674
H 12.6601 15.5277 19.1779
C 11.0054 0.920859 2.05487
H 10.3902 1.01715 1.23177
H 10.5749 1.32439 3.02566
H 12.0239 1.37801 1.87551
Si 8.17466 15.767 2.02815
O 8.26268 14.0757 1.80162
C 8.1069 16.5472 18.7328
H 7.24991 16.1159 18.1754
H 7.93591 17.6793 18.6401
H 8.96009 16.3274 18.1119
C 6.84201 16.365 3.16877
H 6.01435 16.7753 2.55622
H 6.46118 15.6018 3.83215
H 7.21261 17.1823 3.75755
Si 7.47162 12.6917 1.70459
O 8.62559 11.4491 1.9236
C 6.79289 12.5285 18.4394
H 7.39105 12.9224 17.6663
H 6.52841 11.4776 18.3289
H 5.85906 13.1135 18.3706
C 6.12759 12.449 2.93901
H 6.365 12.8274 3.91053
H 5.18871 13.0441 2.70463
H 5.8702 11.39 3.04442
Si 9.65082 10.4724 2.81459
O 9.43563 8.81687 2.48558
C 9.48062 10.6812 4.68229
H 10.4166 10.7652 5.19093
H 8.93943 11.5991 4.94805
H 8.95521 9.77922 4.96028
C 11.4694 10.842 2.45688
H 11.663 11.9378 2.35838
H 11.8296 10.7635 3.44883
Si 8.94641 7.70728 1.24084
O 10.3712 7.07636 19.0151
C 8.11469 8.55786 18.3042
H 7.08353 8.19522 18.1086
H 7.99977 9.62493 18.685
H 8.6569 8.66978 17.3458
C 7.76256 6.58181 2.12652
H 7.09492 7.16618 2.80853
H 7.02321 6.08859 1.55697
H 8.21507 5.97312 2.90809
Si 10.7214 5.85745 17.971
C 9.76605 4.24046 18.0444
H 9.69384 3.73732 17.0476
H 10.257 3.50278 18.7336
H 8.80497 4.41167 18.4907
C 12.5478 5.44734 18.4737
H 12.2543 4.87558 0.96644
H 12.7599 4.96203 17.463
H 12.914 6.37314 18.7238
Si 18.1336 16.0994 5.82734
O 17.2365 15.3158 4.47464
C 19.8127 15.4022 5.67329
H 20.3095 15.6844 4.70575
H 20.5786 15.5503 6.50406
H 19.7153 14.2984 5.50032
C 18.2502 18.0242 5.54243
H 18.7892 0.93494 6.41315
H 18.6991 0.771254 4.60507
H 17.1444 0.839911 5.50453
Si 15.7731 15.3358 3.75769
O 15.5008 13.8723 3.10767
C 17.2105 15.815 7.45488
H 17.8069 16.1949 8.27267
H 16.2188 16.2585 7.45538
H 17.2331 14.7657 7.62741
C 15.7266 16.7448 2.48759
H 15.2873 17.6215 2.96854
H 16.7603 16.9131 2.18529
H 15.1475 16.4159 1.5946
Si 15.7271 12.8692 1.82373
O 14.819 11.4294 1.87761
C 15.3419 13.7195 18.6079
H 14.2906 14.0845 18.5863
H 15.9018 14.6839 18.4402
H 15.5996 13.2214 17.5741
C 17.5365 12.2574 2.16207
H 17.4107 11.917 3.18178
H 17.9249 11.4289 1.51519
H 18.2809 13.0371 2.17215
Si 14.1571 10.0989 1.33954
O 14.7104 8.83706 2.27958
C 12.3013 9.96964 1.42978
H 11.9215 10.2549 18.8945
H 12.0267 8.90644 1.46757
C 14.5645 9.62832 17.9928
H 13.6842 9.22485 17.4873
H 14.782 10.5454 17.3566
H 15.3703 8.84003 17.8583
Si 15.0653 7.35085 3.00408
O 14.4289 6.05024 2.08577
C 14.0465 7.24412 4.59065
H 13.2517 7.96695 4.47066
H 13.6249 6.27428 4.7926
H 14.6397 7.48453 5.50499
C 16.9322 7.25538 3.27463
H 17.3127 6.25194 3.21105
H 17.6002 7.99634 2.76781
H 17.1191 7.46386 4.31565
Si 14.489 5.07869 19.1517
C 15.7169 5.75728 17.8641
H 15.5286 5.229 16.8429
H 15.5238 6.83536 17.7548
H 16.7787 5.4733 18.0591
C 14.632 3.30443 1.22026
H 13.6756 2.96631 1.61112
H 14.8273 2.75254 18.691
H 15.4056 3.11307 1.99503
Si 4.39132 11.3988 6.93086
O 4.97301 9.93272 7.40691
C 5.67845 12.7572 6.89966
H 6.56371 12.1629 6.53913
H 5.37042 13.6126 6.14812
H 5.93715 13.1113 7.88735
C 3.46924 11.3876 5.3004
H 2.85936 10.461 5.40261
H 2.88151 12.2681 5.19331
H 4.07759 11.2913 4.39646
Si 6.17024 8.76356 7.04568
O 5.78969 7.57222 8.09006
C 7.74422 9.62772 7.65388
H 7.44657 9.98544 8.64665
H 8.54871 8.89791 7.69608
H 8.00947 10.4579 6.9637
C 5.92256 7.93088 5.24534
H 6.6956 8.41904 4.58815
H 6.22356 6.82334 5.40042
H 4.8654 8.00986 4.90031
Si 6.15795 6.13378 8.87174
O 5.20627 4.95841 8.33316
C 6.49057 6.40034 10.694
H 7.53395 6.72678 10.7756
H 5.81882 7.20123 11.2051
H 6.46432 5.49725 11.2874
C 8.00884 5.67058 8.15063
H 7.6876 5.44048 7.06244
H 8.3631 6.68715 8.30354
H 8.29996 4.86749 8.81832
Si 4.31565 3.95287 7.38421
O 5.14776 3.53446 6.07653
C 3.91272 2.38978 8.51431
H 3.36136 2.87464 9.3588
H 3.25523 1.63252 8.10464
H 4.94048 2.06781 8.93998
C 2.75039 4.85951 6.9927
H 2.10147 4.80253 7.88658
H 2.9947 5.86239 6.70869
H 2.25373 4.30448 6.23208
Si 5.70178 2.01521 5.56774
O 6.93148 1.56312 6.56255
C 4.35748 0.762776 5.55763
H 4.16029 17.9503 6.56103
H 3.47082 1.20451 5.05167
H 4.81164 17.4877 5.03148
C 6.25297 2.42442 3.85468
H 5.52614 3.09376 3.42963
H 7.27301 2.94673 3.80448
H 6.35765 1.44899 3.28592
Si 8.00227 1.6096 7.82298
C 8.29128 17.5713 8.68445
H 9.09186 16.9484 8.26297
H 8.60536 17.6902 9.72539
H 7.38127 16.9742 8.7393
C 9.67575 2.10306 7.12011
H 9.60845 1.98582 6.03519
H 10.2249 1.17993 7.45055
Si 13.9412 15.9292 5.12977
O 13.2094 14.7916 6.1266
C 13.9331 17.6075 5.89785
H 14.1076 18.2458 4.9864
H 13.117 17.8523 6.49828
H 14.9451 17.6714 6.48357
C 12.364 16.1528 3.78988
H 12.1557 15.064 3.7178
H 11.9579 16.7011 4.60762
H 13.2075 16.6576 3.2769
Si 12.0857 14.1486 7.10669
O 12.7142 12.7069 7.47638
C 12.3536 15.1785 8.60257
H 13.326 14.8297 9.0271
H 12.5239 16.2615 8.36279
H 11.6399 15.0483 9.39216
C 10.3692 14.0885 6.453
H 9.76341 13.3695 7.11397
H 9.90539 15.0774 6.38742
H 10.308 13.6975 5.42678
Si 13.981 11.5629 7.47227
O 13.5503 10.1736 8.1135
C 15.6435 12.0366 8.13415
H 16.0829 11.0416 8.11139
H 16.0409 12.6079 7.26239
H 15.8041 12.5869 9.05585
C 14.4076 11.0415 5.68782
H 13.6548 10.3963 5.29911
H 14.569 11.9127 4.93782
H 15.3356 10.4007 5.7951
Si 12.7199 9.35723 9.29741
O 12.8129 7.67481 9.07277
C 10.9338 9.83034 9.03318
H 10.775 10.8816 9.16998
H 10.6113 9.50864 8.05297
H 10.2177 9.27151 9.77014
C 13.6557 9.87356 10.8151
H 13.2339 10.8422 11.1347
H 13.3768 9.17421 11.5912
H 14.6869 9.92219 10.5473
Si 12.2517 6.19738 9.1957
O 10.8599 5.97024 8.43288
C 11.7052 5.68176 11.0143
H 12.7339 5.8957 11.4805
H 10.8162 6.37835 11.081
H 11.3937 4.66461 10.6761
C 13.6873 4.82134 8.79717
H 12.9279 4.15154 8.45029
H 14.0533 5.56773 8.05624
H 13.9002 4.99403 9.85006
Si 9.86101 5.15009 7.44857
C 10.3598 3.38192 7.70176
H 10.4939 3.218 8.7879
H 11.4464 3.43294 7.50978
C 9.91669 5.67203 5.62595
H 10.0061 6.81203 5.4342
H 10.7298 5.23358 5.10271
H 8.99086 5.36615 5.11619
Si 1.54932 14.7907 10.4656
O 1.35008 13.1425 10.1628
C 20.1348 15.7219 10.0734
H 20.4478 16.7259 9.80005
H 19.5209 15.2509 9.40337
H 19.5615 15.8873 10.9935
C 2.93651 15.4757 9.46162
H 3.92933 15.2414 9.92422
H 3.04723 15.2815 8.40455
H 2.8021 16.6027 9.67341
Si 1.21156 11.944 9.08878
O 1.05323 10.5329 9.99972
C 20.1537 12.1744 7.78898
H 19.7139 11.2515 7.3719
H 19.3472 12.6475 8.41965
H 20.47 12.8525 6.97587
C 2.93053 11.5927 8.18763
H 2.91622 12.6487 7.7813
H 3.51227 11.3791 9.08029
H 2.5793 10.7699 7.59156
Si 20.4221 9.21956 10.169
O 19.3401 9.10948 8.95809
C 1.27757 7.74211 10.4274
H 2.19678 8.14158 10.9213
H 21.0178 6.99364 11.1824
H 1.62859 7.29872 9.57606
C 19.3379 9.36617 11.7847
H 18.9816 8.32039 11.6398
H 20.2293 9.50221 12.4716
H 18.8421 10.2408 11.3702
Si 18.517 7.90532 8.13262
O 18.0181 6.73709 9.19715
C 16.9051 8.5066 7.50328
H 16.889 9.61291 7.22478
H 16.5525 7.82924 6.70272
H 16.2468 8.49292 8.44389
C 19.6197 7.23671 6.78862
H 19.9269 8.01704 6.06303
H 20.5124 6.73407 7.11812
H 19.0696 6.51917 6.13233
Si 17.6885 5.29385 9.87405
O 16.3301 4.86738 9.08672
C 19.0509 3.9776 9.57302
H 18.6841 2.91146 9.66837
H 19.6214 4.09374 8.65577
H 19.7966 4.14635 10.3249
C 17.307 5.51854 11.6432
H 17.6529 6.5401 11.8551
H 16.1926 5.41698 11.7957
H 17.9116 4.86381 12.2575
Si 15.3186 3.71947 8.5297
C 15.2917 3.22506 6.71957
H 15.4587 4.15775 6.1519
H 16.1056 2.51303 6.40019
H 14.3232 2.69515 6.51117
C 15.1374 2.21358 9.63124
H 14.4635 2.55333 10.4761
H 14.576 1.5063 8.99172
H 16.1245 1.80998 9.88323
Si 1.8438 10.1412 15.4982
O 3.15787 9.8639 14.5603
C 3.41406 11.3086 18.5967
H 4.15145 11.4623 0.981499
H 3.76602 11.7584 17.6832
H 3.24649 10.2097 18.3905
C 2.03642 14.9564 12.2826
H 2.93442 14.4596 12.5624
H 1.18325 14.5888 12.8302
H 2.12219 16.0644 12.4802
Si 4.56579 9.1615 13.8108
O 4.40096 7.52662 13.983
C 6.01516 9.80855 14.6829
H 5.85456 10.5523 15.4766
H 6.57302 9.04795 15.1702
H 6.84941 10.2136 14.0041
C 4.47318 9.55617 11.982
H 4.28616 10.6518 11.9069
H 5.46063 9.37357 11.5955
H 3.70832 9.01981 11.4569
Si 3.9027 6.25151 14.9325
O 3.34526 5.15728 13.8965
C 2.31233 6.81708 15.8161
H 1.34266 6.99111 15.2585
H 2.12623 6.26474 16.7119
H 2.65101 7.8803 16.1868
C 5.28987 5.9444 16.1192
H 5.89774 5.05329 15.7319
H 5.86275 6.85096 16.2592
H 4.9319 5.64326 17.0589
Si 2.2995 3.85602 13.4855
O 3.09285 2.50274 13.7394
C 2.06656 4.12281 11.636
H 3.00712 4.66299 11.3339
H 2.03996 3.25636 10.9852
H 1.21538 4.74949 11.4306
C 21.0222 4.12578 14.4604
H 0.90069 4.07241 15.5409
H 20.6069 5.12385 14.1989
H 20.3294 3.26546 14.3467
Si 4.4173 1.87671 14.4742
O 5.8632 2.61289 14.1535
C 4.51371 17.6728 13.6383
H 4.34307 17.6899 12.5389
H 5.43555 17.1292 13.8424
H 3.68976 17.0046 14.0139
C 6.42983 2.70456 11.3779
H 6.47273 1.6817 10.8629
H 5.34727 3.01945 11.4147
H 7.07492 3.30824 10.6839
Si 7.09458 2.60796 13.0793
C 7.98482 0.842479 13.3466
H 7.83578 18.1544 12.2622
H 8.79211 1.53933 13.773
H 7.17561 18.0677 14.0032
C 8.21728 4.06102 13.3587
H 8.67637 4.00921 14.3445
H 7.50683 4.90032 13.3484
Si 9.24874 16.7991 13.3568
O 8.32692 15.5415 12.8447
C 10.4397 17.0514 11.8791
H 10.6015 15.9867 11.5849
H 10.0409 17.5805 10.9647
H 11.4182 17.4072 12.1641
C 9.86492 16.5036 15.1272
H 10.6883 15.8237 15.0178
H 10.3074 17.4164 15.5168
H 9.03013 16.1024 15.6952
Si 7.38017 14.3113 13.355
O 8.26262 12.9377 13.1695
C 6.67169 14.4472 15.0592
H 6.32388 15.4912 15.1936
H 5.7963 13.7706 15.1331
H 7.37562 14.33 15.886
C 5.98896 14.1666 12.1014
H 6.52939 14.2291 11.1325
H 5.21965 13.3754 12.2269
H 5.34339 15.0389 12.1633
Si 9.28648 12.0426 12.2099
O 10.0764 11.1748 13.321
C 10.4495 13.1759 11.149
H 11.1087 13.7426 11.8555
H 11.114 12.4358 10.648
H 9.88559 13.8013 10.4741
C 8.15546 11.0103 11.2075
H 7.46124 10.5069 11.7757
H 7.71806 11.6323 10.4436
H 8.72761 10.3029 10.6651
Si 10.9001 10.6323 14.5982
O 10.7494 9.0112 14.4166
C 9.9328 11.0784 16.1037
H 10.3819 10.61 16.9726
H 9.90019 12.1612 16.2577
H 8.92723 10.6663 15.9877
C 12.7179 11.0849 14.6142
H 13.1713 10.3995 15.3827
H 13.0705 10.798 13.5828
Si 11.3464 7.51778 14.5819
O 10.599 6.57378 13.5516
C 10.7735 6.85836 16.3951
H 11.0882 5.91805 15.84
H 11.5388 7.66355 16.795
H 9.69175 7.19372 16.3514
C 13.2208 7.4692 14.5221
H 13.7935 6.98823 15.3291
H 13.3638 6.88258 13.5735
H 13.5872 8.48822 14.4148
Si 10.9614 5.1481 12.8146
C 9.37584 4.39209 12.2853
H 9.69601 3.51996 11.6189
H 8.93051 5.11324 11.5901
C 12.0847 3.88448 13.6456
H 11.5646 3.5624 14.5858
H 12.0024 3.03054 12.9776
H 13.1362 4.13298 13.7796
Si 17.6146 1.1645 14.7316
O 17.5959 1.26096 16.4187
C 19.1533 18.1245 13.8086
H 18.8412 18.1467 12.759
H 19.9792 1.30895 13.9483
H 19.5185 17.0979 14.1933
C 16.5856 2.44604 13.8945
H 16.4134 2.24707 12.8429
H 15.623 2.50157 14.4046
H 17.0284 3.44378 13.9478
Si 16.8702 17.373 16.7241
O 16.5212 17.2477 14.9281
C 18.0631 16.0799 17.3756
H 19.0609 16.4111 17.6746
H 17.7564 15.5626 18.2585
H 18.2281 15.2912 16.6442
C 15.2654 17.6269 17.4681
H 14.9808 16.6698 17.9316
H 15.3508 0.850134 18.2057
H 14.5147 17.7238 16.6696
Si 15.3566 16.43 13.9315
O 15.1602 14.8734 14.4636
C 13.6863 17.2858 14.0872
H 12.9932 16.7442 13.4498
H 13.1695 17.0405 15.0555
H 13.7225 0.8205 14.007
C 16.0493 16.7207 12.2217
H 17.1316 16.4209 12.0544
H 15.5002 15.924 11.6039
H 15.8486 17.7359 11.7598
Si 14.8163 13.1456 14.2699
O 16.2084 12.5551 14.9996
C 13.1448 12.5319 15.015
H 13.0287 12.7047 16.088
H 12.3895 13.2233 14.5852
C 14.7622 12.7287 12.4552
H 14.9795 11.6441 12.2246
H 13.8063 12.9641 12.0504
H 15.5526 13.4078 11.9221
Si 17.8709 12.4205 14.8506
O 17.9966 10.9126 14.0898
C 18.6481 13.7568 13.8125
H 19.7872 13.6304 13.7128
H 18.2559 13.8392 12.7706
H 18.4681 14.7262 14.3695
C 18.4707 12.2202 16.6195
H 19.241 11.3432 16.6187
H 18.9425 13.1016 16.9432
H 17.7261 11.8524 17.3062
Si 18.145 9.42681 13.4762
C 18.92 8.22507 14.5942
H 18.3559 7.28348 14.3918
H 19.9775 8.00571 14.3814
H 18.5956 8.29245 15.6891
C 16.4313 8.8696 12.9332
H 16.3958 8.08968 12.166
H 15.9918 8.33302 13.7568
H 15.8309 9.6375 12.5113
