========================================== 
PDMS MACE Automated Workflow Started 
Model: mp / mh-1 
Head:  omat_pbe 
Started at: 2026/04/11 ÷‹¡˘  0:37:01.40 
========================================== 
[INFO] silicone_slab.lmpdat not found. Generating from XYZ... 

==========
== CUDA ==
==========

CUDA Version 12.9.0

Container image Copyright (c) 2016-2023, NVIDIA CORPORATION & AFFILIATES. All rights reserved.

This container image and its contents are governed by the NVIDIA Deep Learning Container License.
By pulling and using the container, you accept the terms and conditions of this license:
https://developer.nvidia.com/ngc/nvidia-deep-learning-container-license

A copy of this license is made available in this container at /NGC-DL-CONTAINER-LICENSE for your convenience.

Successfully converted /workspace/silicone_slab.xyz to /workspace/silicone_slab.lmpdat
Cell dimensions: 22.000 x 19.080 x 20.000 A
Elements found: ['C', 'H', 'O', 'Si']
Total atoms: 523
Initial density: 0.762 g/cm^3
Target density: 1.10 g/cm^3 (PDMS rubber)
[INFO] Raw model found at: mace_pretained_models/mace-mh-1.model 
[INFO] Converted MLIAP model found at: mace_pretained_models/mace-mh-1.model_omat_pbe.pt 
[INFO] Starting LAMMPS simulation with model: mace_pretained_models/mace-mh-1.model_omat_pbe.pt 

==========
== CUDA ==
==========

CUDA Version 12.9.0

Container image Copyright (c) 2016-2023, NVIDIA CORPORATION & AFFILIATES. All rights reserved.

This container image and its contents are governed by the NVIDIA Deep Learning Container License.
By pulling and using the container, you accept the terms and conditions of this license:
https://developer.nvidia.com/ngc/nvidia-deep-learning-container-license

A copy of this license is made available in this container at /NGC-DL-CONTAINER-LICENSE for your convenience.

LAMMPS (10 Dec 2025)
Failed to get GPU information from pynvml: Not Supported. Using default values for NVIDIA GeForce RTX 5090.
W0410 16:37:16.088000 1 torch/fx/_symbolic_trace.py:52] is_fx_tracing will return true for both fx.symbolic_trace and torch.export. Please use is_fx_tracing_symbolic_tracing() for specifically fx.symbolic_trace or torch.compiler.is_compiling() for specifically torch.export/compile.
KOKKOS mode with Kokkos version 4.7.1 is enabled
  using double precision
  using view layout = legacy
  will use up to 1 GPU(s) per node
WARNING: When using a single thread, the Kokkos Serial backend (i.e. Makefile.kokkos_mpi_only) gives better performance than the OpenMP backend (src/KOKKOS/kokkos.cpp:266)
  using 1 OpenMP thread(s) per MPI task
Reading data file ...
  orthogonal box = (0 0 0) to (22 19.079963 20)
  1 by 1 by 1 MPI processor grid
  reading atoms ...
  523 atoms
  read_data CPU = 0.022 seconds
Step 1: Quick Minimization

CITE-CITE-CITE-CITE-CITE-CITE-CITE-CITE-CITE-CITE-CITE-CITE-CITE

Your simulation uses code contributions which should be cited:
- KOKKOS package: https://doi.org/10.1145/3731599.3767498
The log file lists these citations in BibTeX format.

CITE-CITE-CITE-CITE-CITE-CITE-CITE-CITE-CITE-CITE-CITE-CITE-CITE

Neighbor list info ...
  update: every = 1 steps, delay = 0 steps, check = yes
  max neighbors/atom: 2000, page size: 100000
  master list distance cutoff = 7
  ghost atom cutoff = 7
  binsize = 7, bins = 4 3 3
  1 neighbor lists, perpetual/occasional/extra = 1 0 0
  (1) pair mliap/kk, perpetual
      attributes: full, newton on, kokkos_device
      pair build: full/bin/kk/device
      stencil: full/bin/3d
      bin: kk/device
Setting up cg/kk style minimization ...
  Unit style    : metal
  Current step  : 0
WARNING: Fix MINIMIZE/kk not compatible with sending data in Kokkos communication (src/KOKKOS/comm_kokkos.cpp:744)
WARNING: Fix with atom-based arrays not compatible with sending data in Kokkos communication, switching to legacy exchange/border communication (src/KOKKOS/comm_kokkos.cpp:751)
WARNING: Fix MINIMIZE/kk not compatible with Kokkos sorting on device (src/KOKKOS/atom_kokkos.cpp:217)
WARNING: Fix with atom-based arrays not compatible with Kokkos sorting on device, switching to legacy host sorting (src/KOKKOS/atom_kokkos.cpp:223)
Per MPI rank memory allocation (min/avg/max) = 118.4 | 118.4 | 118.4 Mbytes
   Step          CPU           S/CPU           Temp          Press          PotEng         KinEng         TotEng         Volume        Density          Fmax          Fnorm     
         0   0              0              0              136467.85     -2358.8385      0             -2358.8385      8395.1837      0.76196043     14.05495       89.143153    
       100   16.794431      5.9543533      0              1563.7309     -2827.4557      0             -2827.4557      8395.1837      0.76196043     1.4055251      5.553541     
       200   37.59209       4.8082334      0              2106.4025     -2836.2777      0             -2836.2777      8395.1837      0.76196043     0.23308999     0.91110867   
       266   58.640897      3.1355695      0              1608.648      -2837.4809      0             -2837.4809      8395.1837      0.76196043     0.082883508    0.32626807   
Loop time of 58.6435 on 1 procs for 266 steps with 523 atoms

100.2% CPU use with 1 MPI tasks x 1 OpenMP threads

Minimization stats:
  Stopping criterion = linesearch alpha is zero
  Energy initial, next-to-last, final = 
     -2358.83848166638  -2837.48085101804  -2837.48085101804
  Force two-norm initial, final = 89.143153 0.32626807
  Force max component initial, final = 14.05495 0.082883508
  Final line search alpha, max atom move = 5.9604645e-08 4.940242e-09
  Iterations, force evaluations = 266 605

MPI task timing breakdown:
Section |  min time  |  avg time  |  max time  |%varavg| %total
---------------------------------------------------------------
Pair    | 58.372     | 58.372     | 58.372     |   0.0 | 99.54
Neigh   | 0.020279   | 0.020279   | 0.020279   |   0.0 |  0.03
Comm    | 0.071852   | 0.071852   | 0.071852   |   0.0 |  0.12
Output  | 0.0059302  | 0.0059302  | 0.0059302  |   0.0 |  0.01
Modify  | 0          | 0          | 0          |   0.0 |  0.00
Other   |            | 0.1738     |            |       |  0.30

Nlocal:            523 ave         523 max         523 min
Histogram: 1 0 0 0 0 0 0 0 0 0
Nghost:           1812 ave        1812 max        1812 min
Histogram: 1 0 0 0 0 0 0 0 0 0
Neighs:              0 ave           0 max           0 min
Histogram: 1 0 0 0 0 0 0 0 0 0
FullNghs:        47782 ave       47782 max       47782 min
Histogram: 1 0 0 0 0 0 0 0 0 0

Total # of neighbors = 47782
Ave neighs/atom = 91.361377
Neighbor list builds = 26
Dangerous builds = 0
Initial density: 0.761960427262085 g/cm^3
Step 2: Heating 300K -> 500K (10000 steps)
Setting up Verlet run ...
  Unit style    : metal
  Current step  : 266
  Time step     : 0.0005
Per MPI rank memory allocation (min/avg/max) = 126.4 | 126.4 | 126.4 Mbytes
   Step          CPU           S/CPU           Temp          Press          PotEng         KinEng         TotEng         Volume        Density          Fmax          Fnorm     
       266   0              0              300            4187.0498     -2837.4809      20.242139     -2817.2387      8395.1837      0.76196043     0.083849591    0.34091635   
       300   3.1447745      10.811572      178.56121     -1713.2369     -2829.1266      12.048203     -2817.0784      8399.0512      0.76160957     2.1529223      15.085915    
       400   12.322529      10.89591       174.94513      4284.9872     -2827.6869      11.804212     -2815.8827      8430.0256      0.75881119     1.8566527      18.105482    
       500   21.587895      10.792883      158.40434     -222.43394     -2824.9688      10.688142     -2814.2807      8494.192       0.75307901     3.1894386      24.27245     
       600   31.014666      10.608086      192.75411      1594.0812     -2825.2936      13.005852     -2812.2877      8587.96        0.7448565      2.6146765      25.687667    
       700   40.16933       10.923393      220.63699     -431.5641      -2824.9616      14.887215     -2810.0744      8708.9549      0.73450808     2.5896539      25.835903    
       800   49.265457      10.993692      228.95787     -185.43376     -2822.7736      15.448656     -2807.3249      8857.1161      0.72222128     3.0495179      26.586513    
       900   58.34324       11.015904      264.40423      3188.5799     -2823.214       17.840357     -2805.3736      9031.5894      0.70826933     2.5887775      26.659461    
      1000   67.441395      10.99124       290.45914     -400.16888     -2822.7051      19.598381     -2803.1068      9232.1122      0.69288562     3.1054559      26.544872    
      1100   76.40633       11.154571      312.8118       2244.0816     -2822.1251      21.1066       -2801.0185      9435.9762      0.67791585     2.8653755      28.146044    
      1200   85.34921       11.18208       312.04701      54.052165     -2820.2644      21.054996     -2799.2094      9627.6533      0.6644192      3.5144165      28.411384    
      1300   94.163265      11.345516      336.35115      2556.2669     -2820.1461      22.694889     -2797.4512      9818.7497      0.65148802     3.6876337      28.632295    
      1400   102.83042      11.537807      335.54464     -1597.3647     -2818.838       22.640471     -2796.1975      10010.975      0.63897852     3.8458362      29.722608    
      1500   111.4322       11.62551       340.7706      -636.82165     -2818.7935      22.993086     -2795.8004      10179.357      0.62840881     3.4420159      30.347742    
      1600   120.10377      11.531927      311.40359      3072.6622     -2817.1489      21.011582     -2796.1374      10339.257      0.61869025     3.8445082      33.002271    
      1700   128.73863      11.580969      337.91617      94.094848     -2819.4826      22.800487     -2796.6821      10536.48       0.60710958     3.3317088      30.49055     
      1800   137.30405      11.674856      331.16944     -758.92206     -2819.7526      22.345259     -2797.4073      10741.561      0.59551846     3.3969463      30.238408    
      1900   145.8484       11.703633      324.30406      1057.0443     -2820.1534      21.882026     -2798.2714      10928.907      0.58530994     3.3437248      30.971716    
      2000   154.38963      11.707919      314.84853     -902.44122     -2820.0833      21.244026     -2798.8393      11114.333      0.57554492     3.268076       30.237987    
      2100   162.89876      11.752086      328.80733     -1740.346      -2820.5801      22.185878     -2798.3942      11251.696      0.56851852     3.8280785      30.206022    
      2200   171.35287      11.828559      325.43338      2245.2766     -2819.8228      21.958225     -2797.8646      11354.641      0.56336415     3.714439       29.96715     
      2300   179.95998      11.618308      340.41981     -397.18832     -2820.2298      22.969417     -2797.2603      11483.134      0.55706027     3.8882675      29.170202    
      2400   188.49343      11.718579      349.80088      3001.7803     -2820.1152      23.602393     -2796.5128      11646.556      0.54924374     4.4051997      31.605488    
      2500   196.94178      11.83664       336.81061     -89.200538     -2817.9967      22.72589      -2795.2708      11829.207      0.54076303     3.7401729      31.568892    
      2600   205.34447      11.900948      346.69159     -1687.1166     -2817.897       23.392598     -2794.5044      11992.181      0.53341405     3.6548159      30.842633    
      2700   213.77788      11.857593      369.09197      1799.6289     -2819.0721      24.904036     -2794.168       12111.254      0.52816971     3.7604088      31.925154    
      2800   222.18965      11.888104      371.57986     -1318.0728     -2819.2574      25.071904     -2794.1855      12221.982      0.52338465     4.4833095      30.958414    
      2900   230.59698      11.894386      349.76911      542.76972     -2817.7814      23.60025      -2794.1811      12342.123      0.51828989     4.0127322      32.238446    
      3000   239.03022      11.857843      359.44224     -656.46734     -2818.795       24.252932     -2794.5421      12457.355      0.51349568     3.8100711      32.281866    
      3100   247.47069      11.847677      336.62148      300.6244      -2817.7191      22.713129     -2795.006       12572.86       0.50877825     3.8637117      32.436855    
      3200   255.80634      11.996669      350.01834      3791.0271     -2818.9359      23.617066     -2795.3188      12719.859      0.50289846     3.8835012      31.050203    
      3300   264.17386      11.950976      342.76396     -2801.2398     -2818.4464      23.127586     -2795.3188      12892.427      0.49616706     2.9887904      30.269842    
      3400   272.52915      11.968461      352.78575      31.494864     -2818.6843      23.803793     -2794.8805      13014.769      0.49150297     3.6435366      31.209607    
      3500   280.85604      12.009288      357.04376      155.02403     -2818.6021      24.091098     -2794.511       13118.683      0.48760977     3.5813788      32.260997    
      3600   289.15215      12.05384       364.13697     -532.43475     -2818.0446      24.569703     -2793.4749      13207.414      0.48433386     4.261367       32.539489    
      3700   297.48286      12.003777      369.56209      1133.2276     -2817.0983      24.935757     -2792.1625      13313.785      0.48046424     3.4224497      33.011768    
      3800   305.84567      11.957706      378.21032      1624.1165     -2816.8922      25.519286     -2791.3729      13442.357      0.47586875     3.6026133      33.467447    
      3900   314.16198      12.02456       380.95042      362.66639     -2816.9446      25.704171     -2791.2404      13597.299      0.47044619     3.8513147      33.878926    
      4000   322.45817      12.053723      383.35058     -1968.3206     -2817.0333      25.866119     -2791.1671      13764.999      0.46471473     4.455169       32.371837    
      4100   330.70287      12.129009      396.89513      1309.1816     -2818.0931      26.780021     -2791.3131      13893.83       0.46040565     4.4304265      32.606235    
      4200   338.92407      12.163675      359.04065     -905.17687     -2815.8113      24.225835     -2791.5855      13991.297      0.45719834     4.1737938      33.200479    
      4300   347.14154      12.169197      383.33916     -1350.1715     -2817.9814      25.865348     -2792.116       14068.432      0.45469158     4.7853539      32.216002    
      4400   355.34491      12.190106      364.24228      2144.0098     -2817.1121      24.576809     -2792.5353      14140.056      0.45238842     4.3655886      32.117223    
      4500   363.6127       12.095136      366.40039     -226.39071     -2816.9227      24.722425     -2792.2003      14252.351      0.44882405     4.636695       32.442288    
      4600   371.80997      12.199174      366.37583      1041.4441     -2816.4312      24.720768     -2791.7104      14373.966      0.44502664     4.5420147      33.369436    
      4700   379.9214       12.328288      374.2851      -769.16744     -2816.1312      25.254436     -2790.8768      14511.834      0.44079871     3.7260872      33.0431      
      4800   388.08131      12.255037      397.0876      -565.69221     -2816.5385      26.793007     -2789.7455      14639.067      0.43696758     5.7550426      33.163555    
      4900   396.21366      12.296569      404.9941       1362.0881     -2816.4932      27.326489     -2789.1667      14734.493      0.43413763     3.9946765      33.73323     
      5000   404.3304       12.320218      399.24545     -88.223302     -2815.6419      26.938606     -2788.7033      14844.85       0.43091023     5.1334457      35.915693    
      5100   412.42027      12.361132      398.94207      905.42881     -2815.353       26.918136     -2788.4349      14928.595      0.42849294     4.3127696      34.521837    
      5200   420.50712      12.365755      391.33427     -2027.4625     -2814.1998      26.404808     -2787.795       15000.109      0.42645007     4.4116533      33.771415    
      5300   428.64124      12.293891      411.94298      2137.5346     -2816.2984      27.795357     -2788.503       15036.801      0.42540947     5.3013445      33.60036     
      5400   436.68443      12.432887      386.04481     -761.43526     -2815.4221      26.047909     -2789.3742      15109.882      0.42335192     4.6838889      33.624167    
      5500   444.74425      12.407225      374.56245      835.23119     -2815.5512      25.27315      -2790.2781      15210.38       0.42055477     5.8564582      35.356441    
      5600   452.66135      12.630892      396.23384     -334.13017     -2817.2973      26.735401     -2790.5619      15333.738      0.41717144     4.9417976      33.521589    
      5700   460.4362       12.861978      392.98156     -153.05289     -2816.7482      26.515958     -2790.2323      15408.108      0.4151579      4.7016472      33.062232    
      5800   468.21824      12.850106      405.13326      177.43593     -2816.1958      27.335879     -2788.8599      15444.195      0.41418784     4.2139728      33.454432    
      5900   475.98211      12.880169      411.01676     -926.2426      -2815.2218      27.732861     -2787.4889      15462.085      0.41370862     4.6578765      33.625124    
      6000   483.77259      12.836173      415.44111      1460.0974     -2814.9754      28.031388     -2786.944       15502.733      0.41262387     5.20833        35.140274    
      6100   491.59809      12.77874       411.33999     -638.08947     -2814.2194      27.754671     -2786.4647      15575.295      0.41070156     3.8112977      34.047918    
      6200   499.33785      12.920308      404.4697       7.6408049     -2813.1741      27.291106     -2785.883       15696.742      0.40752391     5.1298369      35.562664    
      6300   507.08207      12.912855      436.52343     -237.2684      -2814.7179      29.453893     -2785.264       15806.323      0.40469866     3.9852543      34.883615    
      6400   514.81931      12.924484      422.78077      554.8553      -2813.1752      28.526624     -2784.6486      15887.329      0.40263519     5.1287563      36.698007    
      6500   522.57192      12.898892      408.06978     -871.65368     -2812.2731      27.534017     -2784.7391      15990.595      0.400035       5.2160776      37.296031    
      6600   530.3202       12.906099      399.00871      525.35366     -2811.3794      26.922632     -2784.4567      16090.01       0.39756331     5.2050488      38.622621    
      6700   538.05276      12.932328      414.36413      21.470216     -2812.1729      27.95872      -2784.2142      16188.594      0.39514226     5.1743814      37.351038    
      6800   545.79477      12.916542      435.60434     -706.56002     -2813.3278      29.391878     -2783.9359      16267.853      0.39321708     3.5279525      35.120178    
      6900   553.55757      12.881947      449.13216      1227.8874     -2815.1054      30.304652     -2784.8008      16370.14       0.3907601      6.8844609      37.247621    
      7000   561.2561       12.989487      413.18591     -19.370463     -2812.9371      27.879222     -2785.0579      16480.868      0.38813476     4.8350882      36.234454    
      7100   568.91989      13.048377      429.79434     -604.9544      -2814.0539      28.999856     -2785.054       16575.38       0.38592163     6.5275171      35.279027    
      7200   576.62139      12.984479      406.76939      77.495656     -2812.4519      27.446275     -2785.0056      16662.555      0.38390257     5.6432335      36.865984    
      7300   584.28355      13.051148      417.74122     -1178.7079     -2812.3126      28.186586     -2784.126       16731.908      0.38231131     5.8779664      36.936125    
      7400   591.94468      13.052905      438.55703      855.2706      -2812.2608      29.591107     -2782.6697      16790.072      0.38098693     5.4546513      37.047685    
      7500   599.67217      12.940821      445.14364     -409.568       -2810.5385      30.035531     -2780.503       16851.642      0.37959492     13.835733      41.721093    
      7600   607.39168      12.954183      495.77602     -778.08406     -2813.179       33.45189      -2779.7271      16926.254      0.37792165     4.1679751      34.579854    
      7700   614.9853       13.168962      499.1259       1010.6483     -2813.4986      33.677919     -2779.8206      16993.226      0.37643221     6.4180174      36.772863    
      7800   622.63186      13.077769      468.31357     -648.22993     -2811.5194      31.598894     -2779.9205      17059.897      0.37496109     4.6719135      36.705721    
      7900   630.33194      12.986873      476.64202     -91.946776     -2812.5698      32.160846     -2780.409       17155.287      0.37287617     6.3228382      36.696488    
      8000   638.00905      13.025747      457.09904     -316.17171     -2811.7041      30.842207     -2780.8619      17289.643      0.36997859     7.4065711      37.736523    
      8100   645.66282      13.065454      461.68994     -236.43767     -2812.5527      31.151973     -2781.4007      17407.777      0.3674678      4.8509364      35.967375    
      8200   653.33613      13.032187      453.57507      1340.1331     -2811.7754      30.604432     -2781.1709      17541.939      0.36465739     7.2337297      38.46801     
      8300   661.00345      13.042364      464.8627      -21.062054     -2812.3725      31.366051     -2781.0064      17688.476      0.36163645     5.484648       36.50563     
      8400   668.77517      12.867166      429.47825     -938.33654     -2809.1977      28.978528     -2780.2191      17797.751      0.35941608     8.2041263      40.579148    
      8500   676.444        13.03979       457.42723      1564.009      -2810.8138      30.864351     -2779.9494      17872.916      0.35790454     5.4184484      38.075832    
      8600   684.14748      12.981141      475.07376      1370.1555     -2811.3355      32.05503      -2779.2805      17974.83       0.35587529     6.309698       38.98408     
      8700   691.79371      13.078347      490.28324     -446.02002     -2810.5557      33.081271     -2777.4744      18125.846      0.3529103      6.636394       37.469228    
      8800   699.43287      13.090451      481.33039     -986.92348     -2808.6606      32.477189     -2776.1835      18268.599      0.35015262     3.8850853      37.431604    
      8900   707.09607      13.049368      486.56492     -342.70631     -2807.442       32.830382     -2774.6116      18379.556      0.34803876     5.6565616      39.1843      
      9000   714.74527      13.073277      492.91346      664.07239     -2808.4345      33.258742     -2775.1758      18482.282      0.34610433     6.1561655      38.633926    
      9100   722.40181      13.060722      489.89506     -1335.569      -2808.7347      33.055079     -2775.6796      18609.05       0.3437466      5.548599       40.079665    
      9200   730.12298      12.951404      498.62449      237.43905     -2810.0987      33.644087     -2776.4546      18767.947      0.3408363      5.6360673      38.179299    
      9300   737.7669       13.082294      473.37044     -120.08012     -2807.9323      31.940101     -2775.9922      18903.461      0.33839295     6.3881108      40.613336    
      9400   745.41245      13.079513      485.45467     -1471.1248     -2808.8503      32.755469     -2776.0949      19007.427      0.33654201     5.7874589      38.983302    
      9500   753.08308      13.036725      507.33696      839.11553     -2810.3829      34.23195      -2776.1509      19101.556      0.3348836      6.4855345      39.622895    
      9600   760.71893      13.09612       494.93858      1165.1454     -2809.1846      33.395384     -2775.7892      19241.693      0.33244465     9.6704223      42.040023    
      9700   768.33089      13.137219      465.95389     -47.938525     -2807.7132      31.439678     -2776.2736      19390.833      0.32988772     6.7612646      39.958681    
      9800   775.94387      13.135472      489.04528     -396.75266     -2809.9903      32.997741     -2776.9926      19550.646      0.32719111     5.7915923      40.957034    
      9900   783.54495      13.156021      480.2212      -700.43338     -2809.4964      32.402347     -2777.0941      19684.231      0.32497067     8.1260711      40.136153    
     10000   791.22545      13.019993      505.7383      -124.2238      -2810.5063      34.124083     -2776.3822      19780.58       0.32338778     8.7417779      38.16296     
     10100   798.83682      13.138236      437.8303       2165.1609     -2804.179       29.542072     -2774.637       19880.006      0.32177042     17.395235      48.312893    
     10200   806.43038      13.169051      508.22672     -451.30768     -2806.5901      34.291986     -2772.2981      20021.31       0.31949946     12.879815      43.822437    
     10266   811.47825      13.074828      532.31273      1045.8936     -2807.3545      35.91716      -2771.4374      20127.598      0.31781227     6.2691894      39.836968    
Loop time of 811.479 on 1 procs for 10000 steps with 523 atoms

Performance: 0.532 ns/day, 45.082 hours/ns, 12.323 timesteps/s, 6.445 katom-step/s
99.3% CPU use with 1 MPI tasks x 1 OpenMP threads

MPI task timing breakdown:
Section |  min time  |  avg time  |  max time  |%varavg| %total
---------------------------------------------------------------
Pair    | 798.55     | 798.55     | 798.55     |   0.0 | 98.41
Neigh   | 0.43132    | 0.43132    | 0.43132    |   0.0 |  0.05
Comm    | 1.1319     | 1.1319     | 1.1319     |   0.0 |  0.14
Output  | 0.26087    | 0.26087    | 0.26087    |   0.0 |  0.03
Modify  | 9.445      | 9.445      | 9.445      |   0.0 |  1.16
Other   |            | 1.656      |            |       |  0.20

Nlocal:            523 ave         523 max         523 min
Histogram: 1 0 0 0 0 0 0 0 0 0
Nghost:           1085 ave        1085 max        1085 min
Histogram: 1 0 0 0 0 0 0 0 0 0
Neighs:              0 ave           0 max           0 min
Histogram: 1 0 0 0 0 0 0 0 0 0
FullNghs:        28092 ave       28092 max       28092 min
Histogram: 1 0 0 0 0 0 0 0 0 0

Total # of neighbors = 28092
Ave neighs/atom = 53.713193
Neighbor list builds = 660
Dangerous builds = 0
Step 3: Compression 1.0 bar -> 15000.0 bar (20000 steps)
Setting up Verlet run ...
  Unit style    : metal
  Current step  : 10266
  Time step     : 0.0005
Per MPI rank memory allocation (min/avg/max) = 125.8 | 125.8 | 125.8 Mbytes
   Step          CPU           S/CPU           Temp          Press          PotEng         KinEng         TotEng         Volume        Density          Fmax          Fnorm     
     10266   0              0              532.31273      1039.7246     -2807.3545      35.91716      -2771.4374      20127.598      0.31781227     6.2700345      39.83588     
     10300   2.5893129      13.130875      529.20962     -9.7166292     -2806.8432      35.707782     -2771.1355      20131.116      0.31775673     5.0812353      41.007365    
     10400   10.203572      13.133254      532.26931      2254.6434     -2807.4867      35.914231     -2771.5725      20134.892      0.31769715     6.4511241      41.115102    
     10500   17.831517      13.109692      517.85353     -1475.218      -2807.2057      34.941543     -2772.2641      20125.146      0.31785099     7.4844415      42.337932    
     10600   25.472174      13.087879      491.26677      753.21146     -2806.4943      33.147634     -2773.3467      20072.568      0.31868358     9.4785124      43.134007    
     10700   33.344807      12.702231      500.24264      2100.8136     -2806.4118      33.753269     -2772.6586      20028.224      0.31938917     9.7032708      43.391035    
     10800   41.191024      12.744993      490.06745      769.21161     -2806.0257      33.066711     -2772.959       19997.603      0.31987822     6.1588547      40.683443    
     10900   48.87211       13.018994      528.27096      1405.7929     -2809.1345      35.644447     -2773.49        19951.517      0.32061711     7.9159735      42.165185    
     11000   56.837559      12.554221      466.47711     -132.70444     -2805.2447      31.474981     -2773.7697      19894.528      0.32153555     7.4023987      40.875318    
     11100   64.481608      13.082072      521.13074      118.85114     -2809.3461      35.162669     -2774.1835      19775.339      0.32347348     5.1095221      38.34123     
     11200   72.097456      13.130513      507.32192     -306.38155     -2808.7521      34.230935     -2774.5212      19621.238      0.32601397     8.9162667      42.629594    
     11300   79.723835      13.112382      526.23567      1689.3615     -2810.2323      35.507118     -2774.7252      19400.008      0.32973171     6.4251313      40.067577    
     11400   87.359927      13.095705      485.15796     -342.2516      -2807.2149      32.735449     -2774.4794      19157.683      0.33390248     7.7643154      43.355506    
     11500   94.998275      13.091835      501.77445     -591.57796     -2807.6339      33.856626     -2773.7773      18899.978      0.3384553      7.6324715      42.295687    
     11600   102.70175      12.981155      512.32441     -85.291375     -2808.3819      34.568473     -2773.8135      18587.128      0.34415202     7.8399549      42.690702    
     11700   110.36479      13.049649      527.95299      1946.2475     -2809.4173      35.622992     -2773.7943      18259.296      0.35033101     7.3857809      42.09307     
     11800   118.02783      13.049652      480.76471     -510.30427     -2806.3922      32.43902      -2773.9532      17930.113      0.35676282     6.098721       40.043045    
     11900   125.738        12.969885      498.50893      417.28476     -2808.926       33.636289     -2775.2897      17629.741      0.36284127     10.038489      40.373934    
     12000   133.48336      12.910959      485.02761      616.09732     -2809.3932      32.726654     -2776.6666      17338.872      0.36892814     9.629418       40.521248    
     12100   141.25432      12.868423      460.11442     -1470.4896     -2807.1574      31.045667     -2776.1117      17055.043      0.37506781     6.3682836      39.351826    
     12200   149.06537      12.802366      493.07089      862.02063     -2808.4778      33.269365     -2775.2084      16781.711      0.38117673     5.2933658      38.56011     
     12300   156.89844      12.766398      508.4482       695.4352      -2808.6083      34.30693      -2774.3014      16517.722      0.38726876     7.0488471      40.403533    
     12400   164.75369      12.730334      502.11362      563.61409     -2806.4791      33.879512     -2772.5996      16232.994      0.3940615      20.64139       50.685783    
     12500   172.562        12.806876      519.45364     -502.27964     -2807.0892      35.049508     -2772.0397      15949.724      0.40106009     5.5511259      38.151912    
     12600   180.41026      12.741671      523.73149      1157.8096     -2807.8287      35.338152     -2772.4906      15648.23       0.4087873      5.0884545      39.142485    
     12700   188.27017      12.722798      529.15925      571.0311      -2808.6748      35.704383     -2772.9704      15342.13       0.41694326     17.706299      48.151252    
     12800   196.26611      12.506343      510.13916     -107.66237     -2807.2609      34.421026     -2772.8398      15028.559      0.4256428      5.970674       39.664484    
     12900   204.39168      12.306833      469.21196      2066.7216     -2803.9421      31.659512     -2772.2825      14727.781      0.43433547     6.1214269      41.881508    
     13000   212.55759      12.246032      513.40798      1536.1131     -2807.2252      34.641585     -2772.5837      14465.616      0.44220709     9.5849474      40.9027      
     13100   220.7819       12.159072      501.73019     -1349.1179     -2806.8586      33.85364      -2773.0049      14226.39       0.44964308     13.501239      42.9364      
     13200   228.98629      12.188597      497.81122      381.46292     -2806.8338      33.589212     -2773.2446      13987.09       0.45733584     11.840284      43.240575    
     13300   237.1883       12.192125      505.70002      1551.2775     -2808.1674      34.1215       -2774.0459      13741.769      0.46550032     10.564821      43.591005    
     13400   245.41266      12.159013      507.175        3681.2209     -2807.9044      34.221022     -2773.6834      13506.256      0.47361739     7.4108405      42.334624    
     13500   253.66073      12.124041      479.85079     -393.35619     -2806.88        32.377354     -2774.5026      13272.914      0.48194374     8.6425545      41.818813    
     13600   261.96286      12.045107      511.32173      1852.693      -2808.3995      34.500818     -2773.8986      13043.692      0.49041311     7.1621994      41.268592    
     13700   270.26201      12.049424      539.8833      -1258.266      -2809.6777      36.427976     -2773.2497      12823.434      0.49883656     7.3430448      38.714708    
     13800   278.59426      12.001564      532.47848      553.28403     -2808.306       35.928344     -2772.3777      12601.133      0.50763671     11.842003      43.038273    
     13900   287.0099       11.882635      540.43381      1939.9723     -2809.1271      36.46512      -2772.662       12377.047      0.51682747     7.0536714      42.390407    
     14000   295.38598      11.93876       493.52793     -2358.4357     -2806.3806      33.300203     -2773.0804      12146.748      0.52662638     6.0150606      43.673222    
     14100   303.80427      11.87889       527.60821      1562.3332     -2808.2716      35.599729     -2772.6719      11901.087      0.53749693     6.4983331      40.627104    
     14200   312.25105      11.838836      562.01121      3842.6784     -2810.2018      37.92103      -2772.2808      11684.043      0.54748156     9.746247       43.073511    
     14300   320.66758      11.881381      536.9607      -718.88928     -2809.3112      36.230776     -2773.0804      11496.052      0.55643432     6.4680326      41.573136    
     14400   329.1323       11.813734      532.91973     -400.18821     -2809.9797      35.958117     -2774.0216      11297.562      0.56621044     5.6390362      39.493422    
     14500   337.64117      11.752447      526.78854      2521.0309     -2809.4435      35.544423     -2773.8991      11092.462      0.5766797      9.5073773      41.073531    
     14600   346.23963      11.629982      530.46938     -316.7081      -2808.9663      35.792782     -2773.1735      10901.086      0.58680369     5.2831967      40.503106    
     14700   354.85919      11.601529      514.87713     -440.61681     -2807.4615      34.740714     -2772.7207      10712.74       0.59712063     11.101064      41.084783    
     14800   363.51265      11.556075      502.86957      3890.7365     -2806.3924      33.930518     -2772.4619      10536.178      0.60712697     7.5702572      43.137403    
     14900   372.15207      11.574847      486.34745      3668.2341     -2804.6827      32.815709     -2771.867       10373.106      0.6166714      10.577316      47.575317    
     15000   380.82812      11.525974      548.77454      240.71365     -2807.9315      37.027901     -2770.9036      10210.698      0.62647998     8.0196719      43.873942    
     15100   389.55946      11.453004      471.24638      3780.1751     -2802.985       31.796782     -2771.1882      10032.646      0.63759827     7.6110667      47.366938    
     15200   398.552        11.120326      478.4664       5300.5937     -2803.8809      32.283944     -2771.597       9860.7287      0.64871451     8.2215252      45.131736    
     15300   407.64881      10.992868      501.5943      -1738.3904     -2805.0336      33.844471     -2771.1891      9723.5163      0.65786877     8.2145986      44.228748    
     15400   416.78755      10.942426      511.47714      1847.3071     -2805.0858      34.511304     -2770.5745      9587.2024      0.66722256     7.9552957      44.297952    
     15500   425.8929       10.982551      532.48907      5432.2169     -2806.2026      35.929058     -2770.2736      9436.9019      0.67784934     7.7007724      42.084005    
     15600   435.0786       10.886491      548.88203     -947.6081      -2808.0131      37.035154     -2770.9779      9292.4568      0.68838606     9.2594895      43.666686    
     15700   444.25723      10.894868      541.24179      4075.5266     -2807.2845      36.519638     -2770.7649      9144.5132      0.69952305     10.043659      43.68432     
     15800   453.48085      10.841733      559.09165      3825.6068     -2809.0584      37.724036     -2771.3343      9013.3304      0.70970412     8.7791271      44.115329    
     15900   462.71935      10.824271      473.7723       870.18063     -2804.6478      31.967215     -2772.6806      8892.2709      0.71936605     6.6807524      44.025917    
     16000   472.03822      10.73091       506.07485      1575.8435     -2806.4094      34.146791     -2772.2626      8786.6539      0.72801294     13.138187      50.136597    
     16100   481.44346      10.632375      545.96782      2981.5436     -2808.7066      36.838521     -2771.8681      8680.3819      0.73692585     6.4540851      42.304939    
     16200   490.66522      10.84391       522.43337      3720.8312     -2807.3279      35.250563     -2772.0773      8568.3627      0.74656011     10.923196      48.593323    
     16300   500.04997      10.655582      575.61777      714.18851     -2809.2229      38.839116     -2770.3838      8464.7769      0.75569597     8.5419748      43.332002    
     16400   509.48359      10.600396      538.40462     -1540.4652     -2806.2313      36.328204     -2769.9031      8360.6555      0.76510721     7.1247788      42.094105    
     16500   518.89087      10.630063      539.76888      8464.7267     -2806.3242      36.420255     -2769.9039      8263.342       0.77411752     11.230127      49.13056     
     16600   528.38944      10.527894      509.60982      3790.9997     -2804.9505      34.385309     -2770.5652      8173.2104      0.78265424     6.1348006      44.110299    
     16700   537.89395      10.521326      538.72589      2990.0916     -2807.3027      36.349881     -2770.9528      8101.3948      0.78959215     13.776453      49.34081     
     16800   547.37778      10.544257      506.60613      2759.6673     -2805.3682      34.182638     -2771.1855      8025.9072      0.79701866     13.252989      47.10402     
     16900   556.88289      10.52066       557.44596      5118.5473     -2810.0793      37.612995     -2772.4664      7942.5612      0.80538224     11.98463       45.362802    
     17000   566.40113      10.506144      504.84373      5831.1056     -2808.1772      34.063723     -2774.1134      7862.5365      0.81357941     6.6064997      43.426231    
     17100   575.95345      10.46866       464.77321      4070.7733     -2806.7094      31.360013     -2775.3493      7794.4969      0.82068129     9.6092591      47.117967    
     17200   585.44838      10.531939      538.64601      188.77292     -2812.8475      36.344491     -2776.503       7724.3481      0.82813432     8.8391606      40.442598    
     17300   595.29275      10.158088      523.81748      9700.8198     -2812.1313      35.343954     -2776.7873      7647.9717      0.83640448     9.6168559      45.296178    
     17400   605.15822      10.136365      506.04006      6184.1318     -2811.7926      34.144444     -2777.6482      7578.6757      0.84405218     9.0804359      45.352499    
     17500   614.87173      10.294939      506.12128      1920.9202     -2812.2799      34.149924     -2778.13        7514.3697      0.85127536     12.34537       44.18553     
     17600   624.77011      10.102662      511.53809      3151.2519     -2812.5815      34.515416     -2778.0661      7442.7462      0.85946741     13.805823      42.391575    
     17700   634.77269      9.9974258      475.88097      5899.6291     -2810.3282      32.109496     -2778.2187      7379.6198      0.86681942     17.548392      47.465115    
     17800   644.76536      10.007334      530.00233      5726.2513     -2813.6006      35.761269     -2777.8393      7338.0432      0.87173073     4.9412031      38.797222    
     17900   654.76515      10.000211      542.49644      2156.1178     -2814.5532      36.604294     -2777.9489      7302.177       0.87601243     9.2699688      41.290973    
     18000   664.73812      10.027101      554.85612      3590.1325     -2815.3521      37.438249     -2777.9139      7251.5381      0.88212979     9.9618159      41.540257    
     18100   674.70858      10.029624      538.13724      7906.9794     -2814.7329      36.310162     -2778.4227      7190.6428      0.88960026     9.6845284      43.137684    
     18200   684.72373      9.9848744      512.68351      5967.0884     -2812.8605      34.592702     -2778.2678      7130.8686      0.89705731     5.4534875      40.390742    
     18300   694.7649       9.958995       491.79961      420.29834     -2810.9621      33.183587     -2777.7785      7082.2277      0.90321832     12.569498      44.617701    
     18400   704.81819      9.946998       493.06826      3981.3075     -2810.1971      33.269187     -2776.9279      7025.3875      0.91052598     7.8980585      44.579812    
     18500   714.98946      9.8316157      486.06789      2687.4023     -2809.5472      32.796846     -2776.7503      6963.6215      0.91860217     6.3685019      42.435323    
     18600   725.17788      9.8150585      464.29609      4101.9882     -2807.4124      31.32782      -2776.0846      6907.9586      0.92600407     8.7470539      43.406053    
     18700   735.29672      9.88256        481.99286      5505.7405     -2808.2247      32.521888     -2775.7028      6862.7266      0.93210733     13.312299      45.5738      
     18800   745.43831      9.8603846      527.47707      3327.0676     -2810.7217      35.59088      -2775.1309      6826.4774      0.93705691     9.6711589      43.12357     
     18900   755.62895      9.8129251      511.32404      5394.4207     -2809.6696      34.500974     -2775.1686      6792.8973      0.94168916     9.3871883      43.870608    
     19000   765.81713      9.8152998      531.04503      8361.6009     -2811.6539      35.831624     -2775.8223      6764.4928      0.94564337     7.063567       41.725871    
     19100   776.07554      9.7481021      504.6049       5502.3435     -2810.2344      34.047608     -2776.1868      6734.831       0.94980821     5.9177703      41.909729    
     19200   786.33469      9.7473956      526.33864      7974.7509     -2811.2599      35.514066     -2775.7458      6712.4681      0.95297255     9.236548       42.262049    
     19300   796.64134      9.7024666      535.76668      10585.107     -2812.2875      36.150212     -2776.1373      6697.3506      0.95512362     6.8806622      38.892529    
     19400   806.95154      9.6991365      500.15808      7001.2964     -2809.636       33.747564     -2775.8885      6690.9386      0.95603893     9.0948225      42.111099    
     19500   817.2693       9.6920276      516.7174       7313.0689     -2811.1482      34.864884     -2776.2833      6683.9373      0.95704036     11.431931      43.688156    
     19600   827.54515      9.7315508      510.89756      4688.5895     -2810.5147      34.472197     -2776.0425      6669.2206      0.95915223     6.4881731      43.783063    
     19700   837.84234      9.711393       498.95232      7585.0625     -2809.8408      33.666207     -2776.1746      6650.9228      0.96179101     10.548319      48.398304    
     19800   848.20362      9.6513102      507.06008      16009.29      -2809.5016      34.213268     -2775.2883      6621.0723      0.96612716     15.089898      49.971775    
     19900   858.56204      9.6539813      545.48077      421.4838      -2812.8532      36.805658     -2776.0475      6578.8377      0.97232947     5.5398601      38.950019    
     20000   868.98768      9.5917401      524.43961      7876.4051     -2811.6001      35.385931     -2776.2142      6521.572       0.98086746     8.1657115      44.49661     
     20100   879.4903       9.5214341      535.83976      7706.9497     -2813.0119      36.155143     -2776.8567      6465.2341      0.98941471     7.5421997      43.937118    
     20200   890.27181      9.2751404      505.08363      9377.4685     -2810.4582      34.07991      -2776.3783      6417.2054      0.99681985     12.718005      47.512509    
     20300   901.02972      9.2954856      511.45756      7210.6899     -2811.6163      34.509983     -2777.1063      6384.8446      1.0018721      11.404768      43.068852    
     20400   911.81216      9.2743403      487.52657      5151.9306     -2810.4001      32.895268     -2777.5048      6372.0199      1.0038885      6.7833841      45.416271    
     20500   922.54212      9.3196955      470.35969      8039.7122     -2809.3833      31.736954     -2777.6464      6364.7789      1.0050306      8.2594335      44.896447    
     20600   933.32349      9.2752573      512.58927      7042.6682     -2812.8188      34.586343     -2778.2324      6357.6423      1.0061588      7.8225079      41.153879    
     20700   944.08568      9.291795       501.18901      10953.324     -2812.1924      33.817125     -2778.3753      6358.24        1.0060642      7.9859891      44.941856    
     20800   954.89483      9.2514214      504.97136      8294.3933     -2812.509       34.072334     -2778.4367      6357.3019      1.0062127      6.4293655      42.482067    
     20900   965.66947      9.2810462      496.78946      4992.1672     -2812.8082      33.520271     -2779.2879      6355.2032      1.006545       6.5290423      41.340571    
     21000   976.45006      9.2759351      508.49418      8323.1109     -2812.9155      34.310032     -2778.6055      6349.7485      1.0074096      8.4517657      43.673131    
     21100   987.26612      9.2455119      491.42283      5927.6238     -2811.3493      33.158164     -2778.1911      6339.4793      1.0090415      8.6510376      45.443915    
     21200   998.09371      9.2356622      535.69541      13077.268     -2812.5561      36.145403     -2776.4107      6325.8803      1.0112107      10.612932      46.991762    
     21300   1008.8772      9.2734112      500.08541      10842.411     -2810.2135      33.742661     -2776.4709      6315.4823      1.0128756      10.982784      47.921454    
     21400   1019.7485      9.1985217      522.42733      8264.1343     -2811.1629      35.250155     -2775.9127      6305.0165      1.0145569      10.688179      47.220598    
     21500   1030.5595      9.2499162      547.77488      10591.017     -2810.9351      36.960451     -2773.9747      6293.4294      1.0164248      9.6625623      48.915221    
     21600   1041.3546      9.263431       523.36849      13943.987     -2808.8788      35.313659     -2773.5651      6277.5857      1.0189901      18.748033      49.682357    
     21700   1052.1818      9.2359743      619.58658      9884.0627     -2815.2884      41.805859     -2773.4825      6255.6934      1.0225562      6.8401187      41.041813    
     21800   1063.0336      9.2150748      504.44137      6161.403      -2808.0003      34.036574     -2773.9638      6226.6177      1.0273311      12.939313      49.653878    
     21900   1073.9484      9.1618317      471.21647      12101.145     -2805.8321      31.794764     -2774.0373      6181.6865      1.0347981      11.589579      49.203594    
     22000   1084.8611      9.1636602      493.86341      8707.0587     -2807.4173      33.322839     -2774.0944      6139.0932      1.0419776      8.1334021      44.343946    
     22100   1095.7783      9.1598583      512.2664       14157.359     -2808.0198      34.564559     -2773.4553      6106.1278      1.047603       8.1036372      43.880899    
     22200   1107.5611      8.4869245      500.16418      1723.3125     -2807.5245      33.747976     -2773.7765      6081.7001      1.0518108      7.8258541      43.22735     
     22300   1141.7247      2.9270927      533.29788      17851.358     -2809.3562      35.983632     -2773.3726      6055.6688      1.0563322      9.7271266      50.503933    
     22400   1198.048       1.775466       502.28684      9496.0729     -2808.0345      33.8912       -2774.1433      6044.1745      1.058341       7.9547214      43.194189    
     22500   1257.7517      1.6749386      491.16807      7653.5156     -2805.9393      33.140974     -2772.7983      6040.3503      1.0590111      13.350479      46.57375     
     22600   1317.0367      1.6867664      486.66961      12054.51      -2804.9731      32.837446     -2772.1357      6041.1865      1.0588645      7.2296347      48.450739    
     22700   1376.3133      1.6870069      556.76933      8793.456      -2808.543       37.56734      -2770.9757      6049.7734      1.0573616      8.7387642      45.580605    
     22800   1435.4986      1.689609       527.10324      4002.0079     -2806.2664      35.565656     -2770.7007      6065.7933      1.054569       7.9776982      44.434412    
     22900   1495.3612      1.6704915      532.92147      5333.1326     -2807.5518      35.958234     -2771.5935      6080.5908      1.0520027      10.066687      47.673728    
     23000   1518.1373      4.3905625      555.80859      7117.8126     -2809.1927      37.502515     -2771.6902      6088.2188      1.0506846      8.1780382      44.338612    
     23100   1531.7613      7.3399769      539.60302      19752.816     -2807.647       36.409064     -2771.2379      6091.1366      1.0501813      18.119676      56.90907     
     23200   1546.2974      6.8794316      481.67263      1070.644      -2803.8805      32.500281     -2771.3802      6092.385       1.0499661      11.12932       46.412005    
     23300   1560.5797      7.001679       525.17966      9959.2661     -2806.8484      35.435865     -2771.4125      6086.0458      1.0510598      10.15413       46.751441    
     23400   1574.5287      7.1689816      583.0518       16166.439     -2809.9413      39.340718     -2770.6005      6072.2212      1.0534527      9.7269898      48.105879    
     23500   1588.598       7.1076445      502.56063      6535.6804     -2804.7019      33.909673     -2770.7922      6053.97        1.0566286      22.804248      55.235525    
     23600   1637.533       2.0435309      544.69273      5261.9585     -2808.8743      36.752486     -2772.1219      6026.657       1.0614173      8.1543253      41.984621    
     23700   1696.6463      1.6916659      471.77473      11832.492     -2804.1469      31.832432     -2772.3145      6000.1776      1.0661014      10.112828      48.510991    
     23800   1756.8001      1.6624058      555.61906      10608.365     -2809.5672      37.489727     -2772.0774      5978.9461      1.0698872      9.7473523      45.463025    
     23900   1818.6678      1.6163507      511.62452      4347.2609     -2806.9463      34.521249     -2772.425       5963.2951      1.0726952      5.6659477      41.247212    
     24000   1885.162       1.5038905      481.68393      5776.2635     -2804.4757      32.501043     -2771.9747      5943.3936      1.0762871      9.6568834      44.48896     
     24100   1954.2977      1.4464318      575.06712      14679.501     -2808.8756      38.801961     -2770.0736      5928.3248      1.0790228      7.8671119      46.469436    
     24200   2026.3795      1.3873123      553.81062      4809.362      -2807.3207      37.367705     -2769.953       5918.9663      1.0807289      13.747363      44.22152     
     24300   2098.3308      1.389829       559.30238      9702.3667     -2808.5319      37.738255     -2770.7936      5909.6163      1.0824388      14.141438      47.842343    
     24400   2176.9766      1.2715228      553.35974      12094.71      -2807.7471      37.337282     -2770.4098      5904.15        1.0834409      8.7590459      43.492689    
     24500   2243.7508      1.4975858      500.6618       3324.6318     -2802.9695      33.781552     -2769.188       5902.6103      1.0837236      9.3397472      44.489192    
     24600   2255.2446      8.7003224      476.42174      9749.3041     -2801.4921      32.145983     -2769.3461      5899.8594      1.0842288      9.4405967      42.329511    
     24700   2266.2841      9.0584387      497.41494      11827.883     -2802.9695      33.562474     -2769.407       5907.089       1.0829019      8.9946355      43.118278    
     24800   2277.3952      8.9999888      511.84917      8538.9131     -2803.3042      34.536407     -2768.7678      5923.6292      1.0798781      10.408011      47.488925    
     24900   2288.5233      8.9862142      563.38078      5759.1481     -2807.2318      38.01344      -2769.2184      5936.7954      1.0774833      8.0974485      41.048079    
     25000   2299.5712      9.0515537      589.5898       13079.003     -2807.8618      39.781861     -2768.08        5939.507       1.0769914      16.80375       49.439311    
     25100   2310.6778      9.0035823      536.30646      9490.5656     -2804.7303      36.186632     -2768.5437      5935.5228      1.0777143      8.6558259      44.938022    
     25200   2321.8023      8.9891805      575.85668      16205.821     -2808.7372      38.855236     -2769.882       5927.4032      1.0791906      9.5164998      46.900014    
     25300   2332.9089      9.0036734      557.62888      12443.552     -2807.2311      37.625337     -2769.6057      5913.9538      1.0816449      7.1986049      44.004867    
     25400   2344.0482      8.9772553      542.23808      13043.047     -2805.9934      36.586862     -2769.4065      5889.774       1.0860854      8.7393819      41.837714    
     25500   2355.2377      8.9369342      565.3971       11623.384     -2807.9219      38.149488     -2769.7725      5861.6345      1.0912993      5.9669946      39.018738    
     25600   2366.4612      8.9099109      482.61383      864.25571     -2803.5037      32.563787     -2770.94        5835.2045      1.0962423      6.6384516      37.776338    
     25700   2377.6644      8.9259466      524.4308       9048.4105     -2807.783       35.385336     -2772.3977      5803.6437      1.1022037      8.5963404      40.833385    
     25800   2406.6955      3.4445884      533.32492      13081.853     -2808.737       35.985457     -2772.7515      5776.0601      1.1074673      12.997073      46.382712    
     25900   2471.7186      1.5379142      503.29838      20035.209     -2807.8002      33.959452     -2773.8407      5752.3383      1.1120343      27.11823       59.906276    
     26000   2534.3041      1.5978137      534.5271       15074.362     -2811.3175      36.066573     -2775.2509      5732.8621      1.1158123      6.5057244      41.379165    
     26100   2594.3466      1.6654876      462.02994      5949.5662     -2805.3953      31.174914     -2774.2204      5717.2531      1.1188586      8.3912373      42.562906    
Traceback (most recent call last):
  File "mliap_unified_couple_kokkos.pyx", line 488, in mliap_unified_couple_kokkos.compute_forces_python_kokkos
  File "mliap_unified_couple_kokkos.pyx", line 470, in mliap_unified_couple_kokkos.MLIAPUnifiedInterfaceKokkos.compute_forces
  File "/usr/local/lib/python3.10/dist-packages/mace/calculators/lammps_mliap_mace.py", line 177, in compute_forces
    torch.cuda.synchronize()
  File "/usr/local/lib/python3.10/dist-packages/torch/cuda/__init__.py", line 1083, in synchronize
    return torch._C._cuda_synchronize()
torch.AcceleratorError: CUDA error: unknown error
Search for `cudaErrorUnknown' in https://docs.nvidia.com/cuda/cuda-runtime-api/group__CUDART__TYPES.html for more information.
CUDA kernel errors might be asynchronously reported at some other API call, so the stacktrace below might be incorrect.
For debugging consider passing CUDA_LAUNCH_BLOCKING=1
Compile with `TORCH_USE_CUDA_DSA` to enable device-side assertions.

ERROR: Running mliappy unified compute_forces failure. (src/KOKKOS/mliap_unified_kokkos.cpp:82)
Last input line: run ${nstep_compress}
terminate called after throwing an instance of 'std::runtime_error'
  what():  cudaDeviceSynchronize() error( cudaErrorUnknown): unknown error /opt/my_lammps/lib/kokkos/core/src/Cuda/Kokkos_Cuda_Instance.cpp:154
[d0e5b8f570e2:00001] *** Process received signal ***
[d0e5b8f570e2:00001] Signal: Aborted (6)
[d0e5b8f570e2:00001] Signal code:  (-6)
[d0e5b8f570e2:00001] [ 0] /usr/lib/x86_64-linux-gnu/libc.so.6(+0x42520)[0x71dbe01e0520]
[d0e5b8f570e2:00001] [ 1] /usr/lib/x86_64-linux-gnu/libc.so.6(pthread_kill+0x12c)[0x71dbe02349fc]
[d0e5b8f570e2:00001] [ 2] /usr/lib/x86_64-linux-gnu/libc.so.6(raise+0x16)[0x71dbe01e0476]
[d0e5b8f570e2:00001] [ 3] /usr/lib/x86_64-linux-gnu/libc.so.6(abort+0xd3)[0x71dbe01c67f3]
[d0e5b8f570e2:00001] [ 4] /usr/lib/x86_64-linux-gnu/libstdc++.so.6(+0xa2b9e)[0x71dbe0469b9e]
[d0e5b8f570e2:00001] [ 5] /usr/lib/x86_64-linux-gnu/libstdc++.so.6(+0xae20c)[0x71dbe047520c]
[d0e5b8f570e2:00001] [ 6] /usr/lib/x86_64-linux-gnu/libstdc++.so.6(+0xae277)[0x71dbe0475277]
[d0e5b8f570e2:00001] [ 7] /usr/lib/x86_64-linux-gnu/libstdc++.so.6(+0xae4d8)[0x71dbe04754d8]
[d0e5b8f570e2:00001] [ 8] /opt/lammps_install/lib/liblammps.so.0(_ZN6Kokkos4Impl23throw_runtime_exceptionERKNSt7__cxx1112basic_stringIcSt11char_traitsIcESaIcEEE+0x39)[0x71dbe1e9fd9a]
[d0e5b8f570e2:00001] [ 9] /opt/lammps_install/lib/liblammps.so.0(_ZN6Kokkos4Impl25cuda_internal_error_throwE9cudaErrorPKcS3_i+0xfd)[0x71dbe7a69afd]
[d0e5b8f570e2:00001] [10] /opt/lammps_install/lib/liblammps.so.0(_ZN6Kokkos4Impl23cuda_device_synchronizeERKNSt7__cxx1112basic_stringIcSt11char_traitsIcESaIcEEE+0xf8)[0x71dbe7a69d38]
[d0e5b8f570e2:00001] [11] /opt/lammps_install/lib/liblammps.so.0(_ZN6Kokkos4Impl16ExecSpaceManager12static_fenceERKNSt7__cxx1112basic_stringIcSt11char_traitsIcESaIcEEE+0x2d)[0x71dbe7a4fb4d]
[d0e5b8f570e2:00001] [12] /opt/lammps_install/lib/liblammps.so.0(_ZNK6Kokkos9HostSpace10deallocateEPKcPvmm+0xb7)[0x71dbe7a5a6c7]
[d0e5b8f570e2:00001] [13] /opt/lammps_install/lib/liblammps.so.0(_ZN6Kokkos4Impl14OpenMPInternal17clear_thread_dataEv+0x69)[0x71dbe7a6f899]
[d0e5b8f570e2:00001] [14] /opt/lammps_install/lib/liblammps.so.0(_ZN6Kokkos4Impl16ExecSpaceManager15finalize_spacesEv+0x2a)[0x71dbe7a4fafa]
[d0e5b8f570e2:00001] [15] /opt/lammps_install/lib/liblammps.so.0(_ZN6Kokkos8finalizeEv+0x31)[0x71dbe7a4fff1]
[d0e5b8f570e2:00001] [16] /opt/lammps_install/lib/liblammps.so.0(_ZN9LAMMPS_NS9KokkosLMP8finalizeEv+0x2d)[0x71dbe3519ded]
[d0e5b8f570e2:00001] [17] lmp(+0x6c10)[0x611de2d0ec10]
[d0e5b8f570e2:00001] [18] /usr/lib/x86_64-linux-gnu/libc.so.6(+0x29d90)[0x71dbe01c7d90]
[d0e5b8f570e2:00001] [19] /usr/lib/x86_64-linux-gnu/libc.so.6(__libc_start_main+0x80)[0x71dbe01c7e40]
[d0e5b8f570e2:00001] [20] lmp(+0x6f05)[0x611de2d0ef05]
[d0e5b8f570e2:00001] *** End of error message ***
[d0e5b8f570e2:00001] *** Process received signal ***
[d0e5b8f570e2:00001] Signal: Segmentation fault (11)
[d0e5b8f570e2:00001] Signal code:  (128)
[d0e5b8f570e2:00001] Failing at address: (nil)
[d0e5b8f570e2:00001] [ 0] /usr/lib/x86_64-linux-gnu/libc.so.6(+0x42520)[0x71dbe01e0520]
[d0e5b8f570e2:00001] [ 1] /usr/lib/x86_64-linux-gnu/libc.so.6(abort+0x178)[0x71dbe01c6898]
[d0e5b8f570e2:00001] [ 2] /usr/lib/x86_64-linux-gnu/libstdc++.so.6(+0xa2b9e)[0x71dbe0469b9e]
[d0e5b8f570e2:00001] [ 3] /usr/lib/x86_64-linux-gnu/libstdc++.so.6(+0xae20c)[0x71dbe047520c]
[d0e5b8f570e2:00001] [ 4] /usr/lib/x86_64-linux-gnu/libstdc++.so.6(+0xae277)[0x71dbe0475277]
[d0e5b8f570e2:00001] [ 5] /usr/lib/x86_64-linux-gnu/libstdc++.so.6(+0xae4d8)[0x71dbe04754d8]
[d0e5b8f570e2:00001] [ 6] /opt/lammps_install/lib/liblammps.so.0(_ZN6Kokkos4Impl23throw_runtime_exceptionERKNSt7__cxx1112basic_stringIcSt11char_traitsIcESaIcEEE+0x39)[0x71dbe1e9fd9a]
[d0e5b8f570e2:00001] [ 7] /opt/lammps_install/lib/liblammps.so.0(_ZN6Kokkos4Impl25cuda_internal_error_throwE9cudaErrorPKcS3_i+0xfd)[0x71dbe7a69afd]
[d0e5b8f570e2:00001] [ 8] /opt/lammps_install/lib/liblammps.so.0(_ZN6Kokkos4Impl23cuda_device_synchronizeERKNSt7__cxx1112basic_stringIcSt11char_traitsIcESaIcEEE+0xf8)[0x71dbe7a69d38]
[d0e5b8f570e2:00001] [ 9] /opt/lammps_install/lib/liblammps.so.0(_ZN6Kokkos4Impl16ExecSpaceManager12static_fenceERKNSt7__cxx1112basic_stringIcSt11char_traitsIcESaIcEEE+0x2d)[0x71dbe7a4fb4d]
[d0e5b8f570e2:00001] [10] /opt/lammps_install/lib/liblammps.so.0(_ZNK6Kokkos9HostSpace10deallocateEPKcPvmm+0xb7)[0x71dbe7a5a6c7]
[d0e5b8f570e2:00001] [11] /opt/lammps_install/lib/liblammps.so.0(_ZN6Kokkos4Impl14OpenMPInternal17clear_thread_dataEv+0x69)[0x71dbe7a6f899]
[d0e5b8f570e2:00001] [12] /opt/lammps_install/lib/liblammps.so.0(_ZN6Kokkos4Impl16ExecSpaceManager15finalize_spacesEv+0x2a)[0x71dbe7a4fafa]
[d0e5b8f570e2:00001] [13] /opt/lammps_install/lib/liblammps.so.0(_ZN6Kokkos8finalizeEv+0x31)[0x71dbe7a4fff1]
[d0e5b8f570e2:00001] [14] /opt/lammps_install/lib/liblammps.so.0(_ZN9LAMMPS_NS9KokkosLMP8finalizeEv+0x2d)[0x71dbe3519ded]
[d0e5b8f570e2:00001] [15] lmp(+0x6c10)[0x611de2d0ec10]
[d0e5b8f570e2:00001] [16] /usr/lib/x86_64-linux-gnu/libc.so.6(+0x29d90)[0x71dbe01c7d90]
[d0e5b8f570e2:00001] [17] /usr/lib/x86_64-linux-gnu/libc.so.6(__libc_start_main+0x80)[0x71dbe01c7e40]
[d0e5b8f570e2:00001] [18] lmp(+0x6f05)[0x611de2d0ef05]
[d0e5b8f570e2:00001] *** End of error message ***

 
[SUCCESS] Workflow completed at: 2026/04/11 ÷‹¡˘  1:38:46.20 
Final density should be checked in melt_quench_log.lammps 
