========================================== 
PDMS MACE Automated Workflow Started 
Model: mp / mh-1 
Head:  omat_pbe 
Started at: 2026/04/10 周五 17:14:12.24 
========================================== 
[INFO] silicone_slab.lmpdat not found. Generating from XYZ... 

==========
== CUDA ==
==========

CUDA Version 12.9.0

Container image Copyright (c) 2016-2023, NVIDIA CORPORATION & AFFILIATES. All rights reserved.

This container image and its contents are governed by the NVIDIA Deep Learning Container License.
By pulling and using the container, you accept the terms and conditions of this license:
https://developer.nvidia.com/ngc/nvidia-deep-learning-container-license

A copy of this license is made available in this container at /NGC-DL-CONTAINER-LICENSE for your convenience.

Successfully converted /workspace/silicone_slab.xyz to /workspace/silicone_slab.lmpdat
Cell dimensions: 22.000 x 19.080 x 20.000 A
Elements found: ['C', 'H', 'O', 'Si']
Total atoms: 523
Initial density: 0.762 g/cm^3
Target density: 1.10 g/cm^3 (PDMS rubber)
[INFO] Raw model found at: mace_pretained_models/mace-mh-1.model 
[INFO] Converted MLIAP model found at: mace_pretained_models/mace-mh-1.model_omat_pbe.pt 
[INFO] Starting LAMMPS simulation with model: mace_pretained_models/mace-mh-1.model_omat_pbe.pt 

==========
== CUDA ==
==========

CUDA Version 12.9.0

Container image Copyright (c) 2016-2023, NVIDIA CORPORATION & AFFILIATES. All rights reserved.

This container image and its contents are governed by the NVIDIA Deep Learning Container License.
By pulling and using the container, you accept the terms and conditions of this license:
https://developer.nvidia.com/ngc/nvidia-deep-learning-container-license

A copy of this license is made available in this container at /NGC-DL-CONTAINER-LICENSE for your convenience.

LAMMPS (10 Dec 2025)
Failed to get GPU information from pynvml: Not Supported. Using default values for NVIDIA GeForce RTX 5090.
W0410 09:14:26.903000 1 torch/fx/_symbolic_trace.py:52] is_fx_tracing will return true for both fx.symbolic_trace and torch.export. Please use is_fx_tracing_symbolic_tracing() for specifically fx.symbolic_trace or torch.compiler.is_compiling() for specifically torch.export/compile.
KOKKOS mode with Kokkos version 4.7.1 is enabled
  using double precision
  using view layout = legacy
  will use up to 1 GPU(s) per node
WARNING: When using a single thread, the Kokkos Serial backend (i.e. Makefile.kokkos_mpi_only) gives better performance than the OpenMP backend (src/KOKKOS/kokkos.cpp:266)
  using 1 OpenMP thread(s) per MPI task
Reading data file ...
  orthogonal box = (0 0 0) to (22 19.079963 20)
  1 by 1 by 1 MPI processor grid
  reading atoms ...
  523 atoms
  read_data CPU = 0.014 seconds
Step 1: Quick Minimization

CITE-CITE-CITE-CITE-CITE-CITE-CITE-CITE-CITE-CITE-CITE-CITE-CITE

Your simulation uses code contributions which should be cited:
- KOKKOS package: https://doi.org/10.1145/3731599.3767498
The log file lists these citations in BibTeX format.

CITE-CITE-CITE-CITE-CITE-CITE-CITE-CITE-CITE-CITE-CITE-CITE-CITE

Neighbor list info ...
  update: every = 1 steps, delay = 0 steps, check = yes
  max neighbors/atom: 2000, page size: 100000
  master list distance cutoff = 7
  ghost atom cutoff = 7
  binsize = 7, bins = 4 3 3
  1 neighbor lists, perpetual/occasional/extra = 1 0 0
  (1) pair mliap/kk, perpetual
      attributes: full, newton on, kokkos_device
      pair build: full/bin/kk/device
      stencil: full/bin/3d
      bin: kk/device
Setting up cg/kk style minimization ...
  Unit style    : metal
  Current step  : 0
WARNING: Fix MINIMIZE/kk not compatible with sending data in Kokkos communication (src/KOKKOS/comm_kokkos.cpp:744)
WARNING: Fix with atom-based arrays not compatible with sending data in Kokkos communication, switching to legacy exchange/border communication (src/KOKKOS/comm_kokkos.cpp:751)
WARNING: Fix MINIMIZE/kk not compatible with Kokkos sorting on device (src/KOKKOS/atom_kokkos.cpp:217)
WARNING: Fix with atom-based arrays not compatible with Kokkos sorting on device, switching to legacy host sorting (src/KOKKOS/atom_kokkos.cpp:223)
Per MPI rank memory allocation (min/avg/max) = 118.4 | 118.4 | 118.4 Mbytes
   Step          CPU           S/CPU           Temp          Press          PotEng         KinEng         TotEng         Volume        Density          Fmax          Fnorm     
         0   0              0              0              136469.58     -2358.8385      0             -2358.8385      8395.1837      0.76196043     14.068036      89.154001    
       100   16.802082      5.9516417      0              1876.9386     -2827.6049      0             -2827.6049      8395.1837      0.76196043     0.92502187     5.0799574    
       200   35.740701      5.2802159      0              1641.9536     -2836.3626      0             -2836.3626      8395.1837      0.76196043     0.88344054     2.3653159    
       300   58.56744       4.3808274      0              1233.4124     -2837.6499      0             -2837.6499      8395.1837      0.76196043     0.26975369     0.98945503   
       375   84.490532      2.8931734      0              1339.4323     -2838.1689      0             -2838.1689      8395.1837      0.76196043     0.051021694    0.24448709   
Loop time of 84.4928 on 1 procs for 375 steps with 523 atoms

99.4% CPU use with 1 MPI tasks x 1 OpenMP threads

Minimization stats:
  Stopping criterion = linesearch alpha is zero
  Energy initial, next-to-last, final = 
     -2358.83848166638  -2838.16886198419  -2838.16886198419
  Force two-norm initial, final = 89.154001 0.24448709
  Force max component initial, final = 14.068036 0.051021694
  Final line search alpha, max atom move = 1.1920929e-07 6.0822599e-09
  Iterations, force evaluations = 375 878

MPI task timing breakdown:
Section |  min time  |  avg time  |  max time  |%varavg| %total
---------------------------------------------------------------
Pair    | 84.116     | 84.116     | 84.116     |   0.0 | 99.55
Neigh   | 0.022862   | 0.022862   | 0.022862   |   0.0 |  0.03
Comm    | 0.098522   | 0.098522   | 0.098522   |   0.0 |  0.12
Output  | 0.0043556  | 0.0043556  | 0.0043556  |   0.0 |  0.01
Modify  | 0          | 0          | 0          |   0.0 |  0.00
Other   |            | 0.2512     |            |       |  0.30

Nlocal:            523 ave         523 max         523 min
Histogram: 1 0 0 0 0 0 0 0 0 0
Nghost:           1844 ave        1844 max        1844 min
Histogram: 1 0 0 0 0 0 0 0 0 0
Neighs:              0 ave           0 max           0 min
Histogram: 1 0 0 0 0 0 0 0 0 0
FullNghs:        47342 ave       47342 max       47342 min
Histogram: 1 0 0 0 0 0 0 0 0 0

Total # of neighbors = 47342
Ave neighs/atom = 90.520076
Neighbor list builds = 29
Dangerous builds = 0
Initial density: 0.761960427262085 g/cm^3
Step 2: Heating 300K -> 500K (5000 steps)
Setting up Verlet run ...
  Unit style    : metal
  Current step  : 375
  Time step     : 0.001
Per MPI rank memory allocation (min/avg/max) = 126.4 | 126.4 | 126.4 Mbytes
   Step          CPU           S/CPU           Temp          Press          PotEng         KinEng         TotEng         Volume        Density          Fmax          Fnorm     
       375   0              0              300            3915.1644     -2838.1689      20.242139     -2817.9267      8395.1837      0.76196043     0.063627073    0.25683768   
       400   2.3187929      10.781452      170.12547     -59.692623     -2828.7133      11.479011     -2817.2343      8401.2128      0.76141361     3.2408348      24.912352    
       500   11.590189      10.785861      189.61559      1885.7754     -2827.2875      12.794083     -2814.4934      8480.0016      0.75433922     2.107487       20.631942    
       600   20.829513      10.823302      210.42005      1148.9028     -2824.3198      14.197839     -2810.1219      8671.328       0.73769529     3.3863255      26.477438    
       700   30.002633      10.901417      269.45298      2855.9395     -2823.4623      18.181015     -2805.2813      8976.8396      0.71258907     3.0791954      26.555386    
       800   39.347032      10.701597      308.22754      1847.536      -2821.3675      20.797282     -2800.5702      9377.2668      0.68216016     3.0638402      29.121789    
       900   48.691956      10.700998      321.19843      2354.742      -2818.8312      21.672477     -2797.1587      9735.4511      0.65706229     3.9764008      31.795943    
      1000   57.785866      10.996369      350.00069     -564.12047     -2819.2164      23.615875     -2795.6005      10071.818      0.63511846     4.1835706      29.908074    
      1100   66.778433      11.120296      379.87339      2047.5613     -2821.7856      25.6315       -2796.1541      10411.083      0.61442192     3.6988046      30.780135    
      1200   75.705395      11.202019      340.49983      2088.4619     -2822.3155      22.974816     -2799.3406      10761.453      0.59441767     4.1087878      30.144029    
      1300   84.439921      11.448818      322.3964       1777.7654     -2823.4505      21.753309     -2801.6972      11095.296      0.57653241     3.339857       29.713281    
      1400   92.993644      11.690816      318.86448      1211.5237     -2823.0988      21.514997     -2801.5838      11384.846      0.56186948     3.8609551      29.63379     
      1500   101.59577      11.625027      343.49571      1217.7731     -2822.2723      23.176959     -2799.0953      11679.268      0.54770538     4.1822444      30.707028    
      1600   110.10925      11.746087      373.03203      904.47876     -2821.4014      25.169887     -2796.2315      11941.927      0.53565877     4.7058014      31.615809    
      1700   118.63156      11.733904      369.10047      1010.38       -2821.2048      24.90461      -2796.3001      12186.393      0.52491314     5.7506101      34.109709    
      1800   127.09718      11.812488      360.36924      946.49864     -2821.6499      24.315481     -2797.3344      12507.759      0.51142637     8.2809907      35.083594    
      1900   135.56127      11.814613      341.6308      -1349.2311     -2821.3236      23.051127     -2798.2725      12770.49       0.50090463     3.8918581      31.309484    
      2000   144.01926      11.823148      360.64826      820.56865     -2821.4736      24.334307     -2797.1393      12957.801      0.49366384     6.5182076      32.218518    
      2100   152.60419      11.648316      375.51176     -1176.5098     -2820.4327      25.337204     -2795.0955      13218.521      0.48392691     4.1457279      32.568307    
      2200   161.0684       11.814447      391.74968     -508.36955     -2820.1124      26.432838     -2793.6795      13457.08       0.47534811     4.5767814      33.190014    
      2300   169.45739      11.920384      386.58897      1463.2435     -2819.1952      26.084625     -2793.1106      13654.492      0.4684757      5.2359859      33.646519    
      2400   177.88058      11.871985      400.95777      1197.4688     -2820.8473      27.054143     -2793.7932      13867.265      0.46128762     5.0092078      32.229521    
      2500   186.32085      11.847964      366.89519      1210.5902     -2818.6814      24.755811     -2793.9256      14116.927      0.45312963     7.2492491      36.164566    
      2600   194.69421      11.94264       382.60026      2030.9213     -2818.6487      25.815491     -2792.8332      14459.708      0.44238776     6.6429693      37.342268    
      2700   203.02178      12.008282      419.09189     -787.49982     -2819.0628      28.27772      -2790.7851      14762.219      0.43332224     5.2214478      34.191533    
      2800   211.34089      12.020543      412.34491     -737.50819     -2818.1871      27.822476     -2790.3647      15009.864      0.42617293     8.392031       36.840419    
      2900   219.70909      11.950004      391.50498      2289.2848     -2817.3286      26.416327     -2790.9123      15196.932      0.42092691     6.6808118      37.379318    
      3000   228.02231      12.029028      395.47284     -1059.4681     -2818.5037      26.684054     -2791.8197      15417.755      0.41489813     5.3115367      36.295379    
      3100   236.32855      12.039141      397.14599      1612.743      -2817.508       26.796947     -2790.711       15605.718      0.40990089     5.347368       37.053508    
      3200   244.59839      12.092134      407.10446     -873.79723     -2815.865       27.468883     -2788.3961      15904.379      0.40220356     6.8125674      37.231141    
      3300   252.83796      12.136559      396.85901     -51.567956     -2814.3854      26.777584     -2787.6078      16117.558      0.3968838      7.2137598      40.117347    
      3400   261.04111      12.190435      433.60175     -1673.3385     -2815.958       29.256756     -2786.7013      16309.112      0.39222232     6.5506191      37.55476     
      3500   269.23936      12.197732      456.47679      1065.0591     -2817.2456      30.800222     -2786.4454      16497.432      0.38774505     8.7704281      38.574271    
      3600   277.42324      12.219137      446.27937      1766.2981     -2816.9185      30.112163     -2786.8064      16641.701      0.38438365     7.2683199      39.892167    
      3700   285.65595      12.146666      416.60831     -970.63175     -2813.5128      28.110144     -2785.4026      16773.766      0.38135728     20.863767      49.444847    
      3800   293.79907      12.280313      438.82757      395.96733     -2813.416       29.609362     -2783.8067      16872.075      0.37913522     8.0318731      39.959046    
      3900   301.92418      12.307515      440.42172     -1479.6453     -2813.1327      29.716925     -2783.4158      17053.085      0.37511089     7.1684116      39.103186    
      4000   309.81462      12.673579      442.81442      793.02325     -2813.1888      29.87837      -2783.3104      17189.633      0.37213115     6.2678455      39.461983    
      4100   317.78435      12.547473      443.96225      943.88357     -2813.2767      29.955818     -2783.3208      17369.519      0.3682772      8.655136       42.883274    
      4200   325.62791      12.749316      449.31368      1254.8748     -2814.3772      30.3169       -2784.0603      17505.738      0.36541149     7.2239113      40.303995    
      4300   333.50539      12.694414      491.08457      1352.2668     -2815.9884      33.13534      -2782.8531      17607.711      0.36329524     9.6086522      39.012432    
      4400   341.41438      12.643831      455.57511     -856.00871     -2812.6192      30.739382     -2781.8799      17739.04       0.36060563     9.3850239      41.79133     
      4500   349.2788       12.715496      471.29841      1309.8833     -2811.7085      31.800293     -2779.9082      17867.826      0.3580065      8.3163423      45.395283    
      4600   357.13091      12.73543       470.83667     -1600.2729     -2811.5578      31.769137     -2779.7886      18022.761      0.35492885     8.8019288      43.860654    
      4700   364.94797      12.792532      461.85049     -880.35421     -2811.3147      31.162806     -2780.1519      18200.173      0.35146906     7.2207025      40.229968    
      4800   372.73298      12.845207      441.27684     -1632.0302     -2808.1492      29.774623     -2778.3746      18446.911      0.34676797     7.766532       42.580193    
      4900   380.52308      12.836809      473.99815      693.92692     -2809.1449      31.982454     -2777.1625      18558.853      0.34467636     15.141509      50.026203    
      5000   388.32504      12.81728       512.37685     -1613.3636     -2811.8186      34.572011     -2777.2466      18694.394      0.34217733     6.6534836      40.864522    
      5100   396.13174      12.809512      524.54871      306.10048     -2810.3239      35.393293     -2774.9306      18850.613      0.33934164     8.701807       44.385911    
      5200   403.9974       12.713489      472.8304      -88.373116     -2806.0745      31.903661     -2774.1709      18922.389      0.33805445     7.2543046      41.491249    
      5300   411.75639      12.888275      500.26645      596.15262     -2805.2218      33.754876     -2771.4669      19016.398      0.33638326     14.813164      45.630062    
      5375   417.56181      12.918959      562.6005       21.018776     -2806.9246      37.960791     -2768.9638      19103.29       0.33485319     8.584686       42.318085    
Loop time of 417.562 on 1 procs for 5000 steps with 523 atoms

Performance: 1.035 ns/day, 23.198 hours/ns, 11.974 timesteps/s, 6.263 katom-step/s
98.9% CPU use with 1 MPI tasks x 1 OpenMP threads

MPI task timing breakdown:
Section |  min time  |  avg time  |  max time  |%varavg| %total
---------------------------------------------------------------
Pair    | 410.28     | 410.28     | 410.28     |   0.0 | 98.26
Neigh   | 0.55318    | 0.55318    | 0.55318    |   0.0 |  0.13
Comm    | 0.85431    | 0.85431    | 0.85431    |   0.0 |  0.20
Output  | 0.1154     | 0.1154     | 0.1154     |   0.0 |  0.03
Modify  | 4.8037     | 4.8037     | 4.8037     |   0.0 |  1.15
Other   |            | 0.9578     |            |       |  0.23

Nlocal:            523 ave         523 max         523 min
Histogram: 1 0 0 0 0 0 0 0 0 0
Nghost:            999 ave         999 max         999 min
Histogram: 1 0 0 0 0 0 0 0 0 0
Neighs:              0 ave           0 max           0 min
Histogram: 1 0 0 0 0 0 0 0 0 0
FullNghs:        29926 ave       29926 max       29926 min
Histogram: 1 0 0 0 0 0 0 0 0 0

Total # of neighbors = 29926
Ave neighs/atom = 57.219885
Neighbor list builds = 811
Dangerous builds = 0
Step 3: Compression 1.0 bar -> 15000.0 bar (10000 steps)
Setting up Verlet run ...
  Unit style    : metal
  Current step  : 5375
  Time step     : 0.001
Per MPI rank memory allocation (min/avg/max) = 126.4 | 126.4 | 126.4 Mbytes
   Step          CPU           S/CPU           Temp          Press          PotEng         KinEng         TotEng         Volume        Density          Fmax          Fnorm     
      5375   0              0              562.6005       22.802866     -2806.9246      37.960791     -2768.9638      19103.29       0.33485319     8.7255392      42.411893    
      5400   1.926888       12.974258      523.79937      612.56458     -2803.4312      35.342732     -2768.0885      19099.23       0.33492438     8.3305656      44.227761    
      5500   9.6456724      12.955408      518.65577     -2845.2289     -2804.5985      34.995673     -2769.6029      19060.44       0.33560599     11.065399      41.83698     
      5600   17.413886      12.872973      538.64288      1008.6634     -2805.7097      36.34428      -2769.3655      18895.547      0.33853467     9.9525133      44.438144    
      5700   25.140044      12.943044      539.79389      245.92878     -2805.4669      36.421942     -2769.0449      18716.856      0.34176668     7.9587889      42.482716    
      5800   32.915875      12.860362      514.51562     -135.72162     -2805.5935      34.716322     -2770.8771      18521.212      0.34537684     9.5931996      47.795206    
      5900   40.731046      12.795625      537.39691      455.34465     -2808.4815      36.260209     -2772.2213      18136.04       0.35271193     7.2455535      41.152065    
      6000   48.561128      12.771259      521.95676     -348.32919     -2806.9474      35.218404     -2771.7289      17652.525      0.36237297     8.3875466      40.852231    
      6100   56.661007      12.345862      508.97924     -1482.678      -2805.9513      34.342761     -2771.6085      17086.756      0.37437169     7.1256005      40.692543    
      6200   64.892903      12.14787       527.1423      -87.479672     -2807.4435      35.568292     -2771.8752      16502.009      0.38763752     8.7752989      41.207502    
      6300   73.110389      12.169172      449.14434     -3054.7275     -2802.7698      30.305474     -2772.4643      15968.016      0.40060065     6.4330713      41.6818      
      6400   81.347748      12.139812      568.30297      3025.6858     -2808.5042      38.345559     -2770.1587      15444.132      0.41418953     14.340946      47.428352    
      6500   89.623867      12.082958      548.51163      756.35774     -2807.8562      37.010162     -2770.846       14909.035      0.42905513     7.6467139      45.69915     
      6600   97.953676      12.005077      514.93179     -223.19527     -2805.0379      34.744402     -2770.2935      14361.146      0.44542391     9.8023183      44.996303    
      6700   106.37235      11.878359      527.21029      1676.0113     -2805.4449      35.572879     -2769.872       13840.832      0.4621686      7.1050905      41.609875    
      6800   114.78633      11.884983      523.64635     -1030.6562     -2805.3698      35.332407     -2770.0374      13357.868      0.47887863     7.8228375      42.576414    
      6900   123.23231      11.839945      498.22147      4320.7774     -2802.82        33.616894     -2769.2031      12892.428      0.49616704     9.6101364      48.654534    
      7000   131.72392      11.776328      524.9971      -2818.9601     -2804.4232      35.423547     -2768.9996      12488.03       0.51223432     10.713881      42.88168     
      7100   140.27699      11.691718      495.51857      497.57083     -2802.9285      33.434519     -2769.494       12054.058      0.53067589     8.2411851      42.109629    
      7200   148.83474      11.685302      501.08286      1125.0961     -2802.0371      33.809962     -2768.2272      11673.44       0.54797882     9.6683438      45.439861    
      7300   157.45561      11.599765      506.73751     -2230.6908     -2802.3817      34.191504     -2768.1902      11304.139      0.56588103     19.81523       49.357327    
      7400   166.15329      11.497315      521.97118      841.76562     -2802.1223      35.219377     -2766.9029      10922.198      0.58566946     15.114906      46.495291    
      7500   174.89115      11.444446      512.62414      2036.1584     -2801.7549      34.588697     -2767.1662      10569.467      0.60521478     12.195566      48.707702    
      7600   183.736        11.306013      628.69443      3047.2632     -2808.6521      42.420399     -2766.2317      10230.651      0.62525816     11.497367      44.388943    
      7700   192.63503      11.237184      545.01362      1987.0987     -2804.909       36.774138     -2768.1349      9936.9857      0.64373624     11.771142      48.837501    
      7800   201.75851      10.960728      569.42101     -299.5447      -2809.0511      38.420997     -2770.6301      9627.4203      0.66443529     9.9965172      43.238444    
      7900   210.94664      10.883615      530.55452      1352.3003     -2808.1496      35.798527     -2772.351       9332.6764      0.68541944     8.7422638      45.432113    
      8000   220.17321      10.838256      538.04022      2899.0847     -2809.8039      36.303616     -2773.5003      9061.9613      0.70589551     10.267448      43.182961    
      8100   229.5125       10.707461      503.49904      6.3093109     -2809.8844      33.972991     -2775.9114      8815.6146      0.7256213      10.627826      46.767832    
      8200   238.82344      10.740053      553.75628      797.27197     -2812.5134      37.364038     -2775.1493      8569.2128      0.74648605     9.4505124      40.321917    
      8300   248.22248      10.639377      510.60318     -114.00827     -2809.589       34.452335     -2775.1367      8343.279       0.76670069     8.2754438      41.395137    
      8400   257.65782      10.598461      541.37503      3004.4483     -2811.0474      36.528628     -2774.5188      8129.5001      0.78686238     9.9037448      40.528085    
      8500   267.16521      10.518126      480.33973      2254.2145     -2805.7493      32.410345     -2773.339       7943.1864      0.80531886     8.7418831      44.245406    
      8600   276.74679      10.436695      488.2926       2345.5523     -2806.0523      32.946955     -2773.1054      7738.1273      0.82665967     15.724212      49.986211    
      8700   286.48823      10.265421      513.9601       1786.554      -2807.7811      34.678838     -2773.1022      7567.7678      0.84526877     9.2921544      45.736883    
      8800   296.80923      9.6889843      516.23398      1610.2429     -2807.6494      34.832266     -2772.8171      7390.1268      0.86558701     16.934898      49.086033    
      8900   307.03345      9.7806957      491.24532      4949.8348     -2804.5822      33.146186     -2771.436       7219.1465      0.88608782     11.35148       48.208039    
      9000   317.25906      9.7793699      453.50541      1004.5107     -2799.2278      30.599731     -2768.6281      7081.1656      0.90335379     12.941884      47.062289    
      9100   327.55302      9.7144366      528.56434      3454.6165     -2803.2104      35.664243     -2767.5462      6952.1021      0.92012425     8.0731896      44.566909    
      9200   338.09861      9.482637       524.40785      867.96089     -2800.7803      35.383788     -2765.3965      6830.0959      0.93656046     6.2283271      40.754578    
      9300   348.55143      9.5667933      539.43907      7389.9326     -2802.4699      36.398001     -2766.0719      6729.8845      0.95050633     16.186989      47.147828    
      9400   359.32822      9.2791987      526.0652       9917.8278     -2800.1252      35.495615     -2764.6296      6652.1762      0.9616098      18.547101      58.474308    
      9500   369.881        9.4761775      519.3811       8923.9983     -2800.2159      35.044614     -2765.1713      6605.4943      0.96840561     17.019164      52.867536    
      9600   380.59781      9.3311338      578.74825      1768.39       -2797.7977      39.050341     -2758.7474      6591.0003      0.97053519     9.8268555      43.935094    
      9700   391.59606      9.092361       545.87231      5346.8419     -2801.279       36.832077     -2764.4469      6609.5055      0.96781791     11.305677      43.920217    
      9800   402.95839      8.8010116      537.38189      7790.8426     -2805.0985      36.259196     -2768.8393      6657.6065      0.96082545     9.4570394      44.368439    
      9900   414.32299      8.7992516      510.90528      6239.214      -2806.2616      34.472718     -2771.7888      6683.2359      0.9571408      9.6688027      44.137514    
     10000   425.67763      8.8069735      505.02858      6855.1548     -2809.5216      34.076195     -2775.4454      6667.0027      0.9594713      7.7916748      41.676931    
     10100   437.01207      8.8226617      505.6084       7437.8647     -2808.6944      34.115318     -2774.5791      6618.2365      0.96654113     7.6442648      41.01388     
     10200   448.38732      8.7910163      471.22564      4402.5536     -2805.7129      31.795382     -2773.9175      6534.0236      0.97899827     7.4926011      43.266369    
     10300   459.96588      8.6366592      508.47925      5769.1903     -2805.5441      34.309025     -2771.235       6432.567       0.99443935     10.81725       45.564621    
     10400   471.80433      8.4470482      517.74809      12472.252     -2804.093       34.934429     -2769.1586      6352.1819      1.0070237      16.917159      48.118262    
     10500   483.65272      8.4399631      566.11508      9165.5978     -2808.4911      38.197933     -2770.2932      6311.8853      1.0134528      10.399844      46.725525    
     10600   495.53763      8.4140301      513.60394      8067.8286     -2805.8675      34.654807     -2771.2127      6275.4307      1.01934        9.7911         43.17344     
     10700   507.42916      8.4093493      535.38041      11589.215     -2807.7606      36.124148     -2771.6365      6245.8035      1.0241753      12.94046       47.009199    
     10800   519.35983      8.3817626      533.40164      6566.5843     -2807.5466      35.990633     -2771.556       6222.6492      1.0279862      6.7303494      38.232982    
     10900   530.8525       8.7011953      509.77177      6683.1769     -2806.1432      34.396236     -2771.747       6196.0026      1.0324072      9.6498061      41.801759    
     11000   542.45394      8.6196172      546.66497      8320.9555     -2809.2155      36.88556      -2772.3299      6136.7759      1.0423711      11.556691      44.045672    
     11100   554.76735      8.1212301      510.37863      13982.85      -2806.5916      34.437183     -2772.1544      6072.5803      1.0533904      8.995342       45.859675    
     11200   600.98052      2.1638838      533.85415      14179.896     -2808.2797      36.021166     -2772.2586      6049.1123      1.0574771      9.2459516      42.240899    
     11300   676.05496      1.3320119      530.63786      6423.942      -2807.631       35.804151     -2771.8269      6028.2493      1.0611369      10.31044       44.312573    
     11400   755.00728      1.2665872      539.24317      7545.3156     -2807.71        36.384784     -2771.3253      6005.8031      1.0651028      11.147854      42.999311    
     11500   838.26008      1.2011608      512.31533      7861.5688     -2805.7927      34.56786      -2771.2249      6017.3484      1.0630592      13.447313      46.282507    
     11600   967.17998      0.77567543     561.40921      6320.0825     -2809.0261      37.88041      -2771.1457      6023.7405      1.0619312      12.382714      45.341148    
     11700   1044.1344      1.2994706      555.30498      7948.3201     -2809.097       37.468535     -2771.6284      5992.8321      1.0674081      8.9568546      41.855592    
     11800   1090.7302      2.146118       473.82425      11659.376     -2803.5579      31.970721     -2771.5872      5956.552       1.0739095      19.116232      52.618908    
     11900   1136.8986      2.16598        549.50199      11176.553     -2807.2326      37.076985     -2770.1557      5912.1971      1.0819663      7.7271421      40.577445    
     12000   1182.9319      2.1723435      587.56086      9761.1536     -2807.6001      39.644962     -2767.9552      5889.7292      1.0860937      7.7234592      42.347579    
     12100   1210.536       3.6226472      554.01011      11705.991     -2806.4021      37.381165     -2769.0209      5875.3353      1.0887545      9.261096       46.433146    
     12200   1221.5469      9.081919       544.28578      9181.8459     -2804.1331      36.725028     -2767.408       5872.1623      1.0893428      8.147245       46.136959    
     12300   1232.563       9.077596       508.86926      5337.0751     -2801.7989      34.33534      -2767.4636      5867.3301      1.09024        9.8738476      46.814101    
     12400   1243.4738      9.1652466      538.15839      9240.1565     -2804.1163      36.311589     -2767.8047      5860.8878      1.0914384      7.1985639      43.358302    
     12500   1254.403       9.1497742      540.51642      6352.1162     -2802.717       36.470694     -2766.2463      5845.7762      1.0942598      9.0191518      48.172001    
     12600   1265.6032      8.9284567      525.89037      9405.7316     -2801.0638      35.48382      -2765.58        5805.6623      1.1018205      7.5482276      46.22283     
     12700   1282.267       6.0010273      584.04116      10664.255     -2804.4778      39.407474     -2765.0703      5754.242       1.1116665      11.518448      49.924655    
     12800   1310.5183      3.539648       522.95142      10323.678     -2801.5043      35.285517     -2766.2188      5692.8849      1.1236478      11.898652      49.00209     
     12900   1323.1672      7.9058673      598.06256      11356.315     -2802.7155      40.353551     -2762.362       5651.1332      1.1319496      11.48265       46.982054    
     13000   1344.7352      4.6364845      560.3717       17248.853     -2803.1112      37.810405     -2765.3008      5591.2824      1.1440663      14.370294      47.883959    
     13100   1356.4998      8.5001154      464.58816      6523.5443     -2798.0288      31.347526     -2766.6813      5558.5157      1.1508104      12.010873      48.98435     
     13200   1368.0123      8.6862113      512.11448      11300.432     -2801.0346      34.554308     -2766.4803      5548.9005      1.1528046      7.4847179      43.395245    
     13300   1379.5445      8.6713577      494.43689      11688.692     -2802.1677      33.361533     -2768.8061      5559.574       1.1505913      14.857617      48.65034     
     13400   1391.108       8.6479066      574.30562      6072.0479     -2808.9788      38.75058      -2770.2282      5594.592       1.1433895      7.7572223      43.98101     
     13500   1402.5895      8.709716       523.70288      11698.975     -2806.3565      35.336221     -2771.0203      5588.4066      1.144655       8.9562352      45.271921    
     13600   1414.0824      8.7009796      453.75153      14470.493     -2801.6457      30.616338     -2771.0293      5570.3899      1.1483573      8.8357664      45.773912    
     13700   1425.5806      8.6969969      516.18734      19310.795     -2806.8651      34.829119     -2772.036       5541.56        1.1543316      11.496265      48.212287    
     13800   1437.6084      8.3140929      476.3116       12346.759     -2803.706       32.138552     -2771.5674      5536.7474      1.1553349      11.158141      46.964227    
     13900   1449.1189      8.6877557      562.71266      14261.482     -2807.9329      37.968359     -2769.9645      5539.5594      1.1547485      11.050326      45.517497    
     14000   1462.6116      7.4113856      513.41391      13246.001     -2803.6891      34.641985     -2769.0471      5524.0441      1.1579918      8.5874717      44.816763    
     14100   1478.1579      6.4323968      486.53646      11840.251     -2804.3335      32.828461     -2771.5051      5499.9093      1.1630733      8.7771028      46.860509    
     14200   1490.5545      8.0667213      490.44508      14769.386     -2803.5205      33.092191     -2770.4283      5467.6938      1.1699261      10.207822      49.479987    
     14300   1503.2765      7.860402       559.24358      14675.661     -2805.8225      37.734287     -2768.0882      5451.4176      1.1734192      12.321002      51.594706    
     14400   1516.1631      7.7600405      533.87641      15837.499     -2804.2662      36.022668     -2768.2436      5432.9617      1.1774053      8.613863       49.237673    
     14500   1530.4591      6.994945       503.5191       12314.922     -2801.5827      33.974345     -2767.6084      5425.0837      1.179115       18.188825      51.162293    
     14600   1547.0017      6.0449861      472.78848      11819.826     -2798.4183      31.900834     -2766.5174      5437.7035      1.1763786      9.8684046      42.549146    
     14700   1558.7809      8.4895154      477.05409      10301.267     -2797.8577      32.18865      -2765.6691      5456.6663      1.1722905      8.7567704      44.271996    
     14800   1570.5554      8.4929529      504.67603      10600.299     -2797.9854      34.052407     -2763.933       5484.0421      1.1664385      8.5788019      45.073528    
     14900   1582.2623      8.5419918      565.79298      21076.036     -2800.9839      38.1762       -2762.8077      5492.752       1.1645889      11.545627      52.013187    
     15000   1594.046       8.4862995      599.32992      13303.993     -2804.5611      40.439064     -2764.122       5489.6285      1.1652515      8.9111502      43.823443    
     15100   1605.7176      8.5677938      525.00077      15790.712     -2797.8884      35.423795     -2762.4646      5451.7577      1.1733459      8.0168112      48.245593    
     15200   1631.2144      3.9220581      522.57846      12953.526     -2798.8541      35.260352     -2763.5937      5410.2855      1.1823402      8.7012533      46.763956    
     15300   1662.7078      3.1752763      541.53918      12505.14      -2799.5127      36.539704     -2762.973       5395.1626      1.1856543      11.419339      50.30807     
     15375   1697.4955      2.1559341      534.51151      17210.749     -2797.9944      36.06552      -2761.9289      5382.9071      1.1883537      8.3858701      45.224245    
Loop time of 1697.5 on 1 procs for 10000 steps with 523 atoms

Performance: 0.509 ns/day, 47.153 hours/ns, 5.891 timesteps/s, 3.081 katom-step/s
100.3% CPU use with 1 MPI tasks x 1 OpenMP threads

MPI task timing breakdown:
Section |  min time  |  avg time  |  max time  |%varavg| %total
---------------------------------------------------------------
Pair    | 1680.4     | 1680.4     | 1680.4     |   0.0 | 98.99
Neigh   | 2.226      | 2.226      | 2.226      |   0.0 |  0.13
Comm    | 2.8861     | 2.8861     | 2.8861     |   0.0 |  0.17
Output  | 0.23698    | 0.23698    | 0.23698    |   0.0 |  0.01
Modify  | 9.5827     | 9.5827     | 9.5827     |   0.0 |  0.56
Other   |            | 2.141      |            |       |  0.13

Nlocal:            523 ave         523 max         523 min
Histogram: 1 0 0 0 0 0 0 0 0 0
Nghost:           2515 ave        2515 max        2515 min
Histogram: 1 0 0 0 0 0 0 0 0 0
Neighs:              0 ave           0 max           0 min
Histogram: 1 0 0 0 0 0 0 0 0 0
FullNghs:        72430 ave       72430 max       72430 min
Histogram: 1 0 0 0 0 0 0 0 0 0

Total # of neighbors = 72430
Ave neighs/atom = 138.48948
Neighbor list builds = 2631
Dangerous builds = 0
===========================================
Density after compression (15000 bar): 1.18835372780566 g/cm^3
===========================================
Step 4a: Hold at 15000 bar - high temp (2000 steps)
Setting up Verlet run ...
  Unit style    : metal
  Current step  : 15375
  Time step     : 0.001
Per MPI rank memory allocation (min/avg/max) = 143.2 | 143.2 | 143.2 Mbytes
   Step          CPU           S/CPU           Temp          Press          PotEng         KinEng         TotEng         Volume        Density          Fmax          Fnorm     
     15375   0              0              534.51151      17301.462     -2797.9944      36.06552      -2761.9289      5382.9071      1.1883537      8.3877593      45.009234    
     15400   3.0519265      8.1915355      532.66513      11275.81      -2795.9173      35.940938     -2759.9763      5384.5077      1.1880005      12.478974      52.881021    
     15500   14.86468       8.4654261      559.9244       21196.487     -2796.8189      37.780224     -2759.0387      5372.321       1.1906954      18.819591      59.163365    
     15600   26.535946      8.5680506      580.90072      9986.1665     -2796.8106      39.195577     -2757.6151      5352.3746      1.1951327      6.9072281      44.25085     
     15700   38.218069      8.560088       575.62461      12070.662     -2792.467       38.839577     -2753.6274      5343.2205      1.1971802      15.254529      53.557158    
     15800   49.960818      8.5158939      577.85537      13529.153     -2794.2269      38.990095     -2755.2368      5337.3006      1.1985081      10.437874      47.264098    
     15900   61.733602      8.4941678      535.35537      8980.1663     -2793.0234      36.122459     -2756.9009      5334.3056      1.199181       7.4355602      41.18603     
     16000   73.476886      8.5155056      548.60475      16998.848     -2792.2127      37.016445     -2755.1963      5333.2927      1.1994087      10.368556      48.055461    
     16100   85.235506      8.5043983      492.05012      9427.1224     -2790.5159      33.200489     -2757.3154      5335.7418      1.1988582      9.6015586      47.249792    
     16200   96.964619      8.5257946      502.39358      15822.108     -2791.8348      33.898402     -2757.9364      5334.3238      1.1991769      12.408633      48.693971    
     16300   108.68986      8.52861        504.03759      13444.252     -2793.7733      34.009329     -2759.764       5349.9505      1.1956742      15.079974      46.273789    
     16400   120.45868      8.4970261      503.60997      10026.161     -2792.5773      33.980476     -2758.5969      5355.4708      1.1944417      8.4330436      45.872056    
     16500   132.16759      8.540505       475.23475      15097.44      -2789.2371      32.065893     -2757.1712      5330.5283      1.2000307      11.453777      49.219834    
     16600   144.19663      8.3132177      521.45319      14758.342     -2791.7101      35.184426     -2756.5256      5296.3096      1.2077839      18.109362      50.655182    
     16700   156.84747      7.9046101      503.60383      12302.469     -2789.5043      33.980062     -2755.5243      5267.6369      1.2143581      17.692211      50.813223    
     16800   169.14496      8.1317447      510.52451      24395.999     -2785.9642      34.447026     -2751.5172      5257.476       1.2167051      13.406189      53.485768    
     16900   180.97603      8.4523188      566.46707      14206.82      -2788.7017      38.221683     -2750.48        5282.4216      1.2109593      10.330242      50.113953    
     17000   197.88734      5.9132032      540.19663      9475.2306     -2791.1832      36.449117     -2754.734       5333.7685      1.1993017      8.6446442      43.035166    
     17100   228.20069      3.2988768      548.31296      16735.149     -2793.1337      36.996757     -2756.137       5385.6328      1.1877523      9.2982161      46.387321    
     17200   263.52547      2.830874       528.7735       13831.189     -2792.3768      35.678355     -2756.6985      5417.8677      1.1806855      7.5028818      43.587126    
     17300   298.79017      2.8356969      509.34366      15666.301     -2791.9684      34.36735      -2757.6011      5429.8689      1.1780759      15.782187      54.777115    
     17375   325.28282      2.8309737      509.46489      20110.413     -2792.6707      34.37553      -2758.2952      5419.9603      1.1802296      8.1721437      48.105135    
Loop time of 325.283 on 1 procs for 2000 steps with 523 atoms

Performance: 0.531 ns/day, 45.178 hours/ns, 6.148 timesteps/s, 3.216 katom-step/s
101.6% CPU use with 1 MPI tasks x 1 OpenMP threads

MPI task timing breakdown:
Section |  min time  |  avg time  |  max time  |%varavg| %total
---------------------------------------------------------------
Pair    | 321.79     | 321.79     | 321.79     |   0.0 | 98.93
Neigh   | 0.51105    | 0.51105    | 0.51105    |   0.0 |  0.16
Comm    | 0.64493    | 0.64493    | 0.64493    |   0.0 |  0.20
Output  | 0.051272   | 0.051272   | 0.051272   |   0.0 |  0.02
Modify  | 1.8532     | 1.8532     | 1.8532     |   0.0 |  0.57
Other   |            | 0.4307     |            |       |  0.13

Nlocal:            523 ave         523 max         523 min
Histogram: 1 0 0 0 0 0 0 0 0 0
Nghost:           2498 ave        2498 max        2498 min
Histogram: 1 0 0 0 0 0 0 0 0 0
Neighs:              0 ave           0 max           0 min
Histogram: 1 0 0 0 0 0 0 0 0 0
FullNghs:        72270 ave       72270 max       72270 min
Histogram: 1 0 0 0 0 0 0 0 0 0

Total # of neighbors = 72270
Ave neighs/atom = 138.18356
Neighbor list builds = 576
Dangerous builds = 0
Step 4b: Cool to 300K under 15000 bar pressure (5000 steps)
Setting up Verlet run ...
  Unit style    : metal
  Current step  : 17375
  Time step     : 0.001
Per MPI rank memory allocation (min/avg/max) = 145.4 | 145.4 | 145.4 Mbytes
   Step          CPU           S/CPU           Temp          Press          PotEng         KinEng         TotEng         Volume        Density          Fmax          Fnorm     
     17375   0              0              509.46489      20065.933     -2792.6707      34.37553      -2758.2952      5419.9603      1.1802296      8.3183315      48.233987    
     17400   8.8065865      2.8387827      512.35614      10522.692     -2791.7937      34.570614     -2757.223       5418.5596      1.1805347      10.878236      49.867876    
     17500   44.033351      2.8387506      510.07106      20302.08      -2789.0624      34.416431     -2754.6459      5386.3614      1.1875916      11.426664      49.370092    
     17600   76.317207      3.0975235      546.32307      15814.938     -2792.8532      36.862491     -2755.9907      5370.4811      1.1911033      11.477714      48.477009    
     17700   108.43934      3.1131178      512.17855      10129.972     -2788.5204      34.558631     -2753.9618      5369.1215      1.1914049      7.9256615      44.54225     
     17800   137.31639      3.4629585      502.69219      11294.893     -2788.6529      33.91855      -2754.7344      5373.562       1.1904204      7.064037       41.737436    
     17900   170.95477      2.9727943      520.05008      14143.522     -2790.0608      35.089753     -2754.9711      5378.5428      1.189318       7.7808674      40.669355    
     18000   206.22917      2.8349174      477.71957      18486.914     -2788.1447      32.233553     -2755.9111      5384.0892      1.1880928      11.457736      45.195598    
     18100   241.54591      2.8315181      486.37434      12870.06      -2790.2362      32.817523     -2757.4187      5379.1314      1.1891879      9.9993233      42.999887    
     18200   273.02946      3.1762619      488.07841      18243.614     -2791.7355      32.932503     -2758.803       5343.9909      1.1970076      6.971387       40.04189     
     18300   301.22313      3.5468953      457.28049      23978.308     -2791.4632      30.85445      -2760.6087      5346.3774      1.1964733      18.893712      56.573904    
     18400   330.91941      3.3674259      502.22416      14054.987     -2798.2818      33.88697      -2764.3948      5367.1111      1.1918512      8.0850049      42.582801    
     18500   363.30722      3.0875813      518.12976      18196.254     -2801.1058      34.960182     -2766.1457      5382.3294      1.1884813      8.7368382      43.176527    
     18600   394.5442       3.2013334      484.6928       11919.717     -2799.7845      32.704063     -2767.0805      5395.5516      1.1855688      10.912994      45.632257    
     18700   429.48077      2.8623308      442.53352      13607.011     -2798.3297      29.859416     -2768.4703      5396.5586      1.1853476      18.603646      49.974866    
     18800   463.24572      2.9616506      417.72257      15707.515     -2796.3623      28.185328     -2768.177       5369.2496      1.1913765      15.265422      56.617292    
     18900   490.93559      3.6114293      491.54966      17730.353     -2802.9873      33.166721     -2769.8206      5313.745       1.203821       11.293441      43.807443    
     19000   502.9549       8.319942       459.08459      11485.091     -2799.9035      30.97618      -2768.9273      5265.6968      1.2148056      9.931105       42.635183    
     19100   515.35348      8.0654422      457.27749      9188.4749     -2800.877       30.854248     -2770.0228      5247.2565      1.2190747      10.028174      41.735406    
     19200   527.21434      8.4310955      408.99636      16356.622     -2798.9396      27.596537     -2771.343       5273.2147      1.2130736      9.577544       44.858464    
     19300   548.06714      4.7955178      449.67091      12625.047     -2804.5188      30.341003     -2774.1778      5329.9391      1.2001634      8.9785258      41.907971    
     19400   582.41858      2.9110865      455.7954       14587.108     -2805.7393      30.754246     -2774.9851      5351.2517      1.1953835      13.562632      45.814166    
     19500   617.63868      2.8392875      473.58968      15873.312     -2806.334       31.954893     -2774.3791      5339.4824      1.1980183      9.1278987      41.90615     
     19600   646.03793      3.5212194      453.98669      5609.5876     -2804.1419      30.632205     -2773.5097      5280.9874      1.2112882      6.1734432      38.433694    
     19700   664.70891      5.355905       471.85768      19796.565     -2802.915       31.838029     -2771.0769      5207.0895      1.2284785      9.6347531      45.837436    
     19800   705.05948      2.478278       458.93123      15790.603     -2799.0689      30.965832     -2768.1031      5165.937       1.2382648      18.253463      53.383116    
     19900   716.97278      8.3940016      511.29394      20518.179     -2801.1206      34.498943     -2766.6217      5175.9383      1.2358721      19.489001      50.968144    
     20000   728.81468      8.4445939      427.00746      14344.396     -2794.7258      28.811814     -2765.914       5217.9702      1.2259169      17.000003      49.01769     
     20100   740.60901      8.4786478      561.02508      13995.442     -2796.4658      37.854491     -2758.6113      5281.3418      1.2112069      9.9630041      45.406289    
     20200   752.31961      8.5392724      505.66412      12985.766     -2798.3323      34.119077     -2764.2132      5325.0098      1.2012744      8.488146       43.013581    
     20300   764.04061      8.5316976      445.34873      14786.326     -2797.8287      30.049369     -2767.7793      5336.4335      1.1987028      14.193895      49.053819    
     20400   775.73014      8.5546607      408.46516      7313.0832     -2797.8842      27.560695     -2770.3235      5336.1569      1.1987649      10.882207      41.75369     
     20500   787.44         8.5398105      420.32158      10810.089     -2802.5252      28.360692     -2774.1645      5312.5454      1.2040928      12.067214      41.758097    
     20600   799.17968      8.5181196      369.55157      9090.1627     -2801.2163      24.935047     -2776.2813      5278.3922      1.2118838      8.6573979      36.86097     
     20700   810.95413      8.4929715      376.74131      15503.769     -2803.0444      25.420166     -2777.6242      5232.8184      1.2224383      10.160288      40.095044    
     20800   822.75863      8.4713411      332.76131      13095.475     -2801.898       22.452669     -2779.4453      5196.1439      1.2310663      12.340555      45.049608    
     20900   834.65625      8.4050426      399.52033      12425.309     -2805.9475      26.957153     -2778.9903      5195.0078      1.2313356      11.764149      42.954361    
     21000   846.44243      8.4845153      376.6335       18468.575     -2803.7047      25.412892     -2778.2918      5208.5736      1.2281285      10.958723      40.133797    
     21100   858.20728      8.4998939      394.96226      18601.985     -2803.498       26.649603     -2776.8484      5248.5386      1.2187769      13.709456      45.863148    
     21200   869.9506       8.5154804      381.51909      14928.614     -2806.3837      25.742541     -2780.6411      5279.1313      1.2117141      14.194311      47.592966    
     21300   881.64281      8.5527043      392.92224      15680.506     -2806.3794      26.511955     -2779.8674      5293.5799      1.2084068      11.995287      40.635905    
     21400   893.42086      8.4903702      403.52938      16384.729     -2809.7968      27.227659     -2782.5692      5282.1551      1.2110204      7.210652       37.28087     
     21500   905.16098      8.5178026      374.27725      16199.153     -2808.8073      25.253907     -2783.5534      5255.9707      1.2170535      12.974399      43.495737    
     21600   916.95099      8.4817541      336.75336      9205.8697     -2804.8877      22.722027     -2782.1656      5218.8725      1.2257049      5.3000961      33.839685    
     21700   928.72506      8.4932371      378.08854      16295.257     -2806.8397      25.511069     -2781.3286      5190.2139      1.2324729      8.019537       38.286175    
     21800   940.51635      8.4808381      345.68753      11619.412     -2804.7457      23.32485      -2781.4208      5186.6925      1.2333096      6.9134273      34.76532     
     21900   952.43621      8.3893586      365.90438      15010.613     -2807.2595      24.688957     -2782.5705      5207.9292      1.2282805      14.006199      40.549851    
     22000   964.24463      8.468533       360.01866      15800.963     -2806.1974      24.291826     -2781.9056      5230.3472      1.2230159      8.4563668      37.95234     
     22100   976.00817      8.5008414      312.70379      12940.458     -2801.9213      21.099312     -2780.822       5248.7354      1.2187312      15.021892      42.892544    
     22200   987.7591       8.5099673      351.94343      17152.819     -2804.4464      23.746959     -2780.6994      5246.3285      1.2192904      10.487326      38.566798    
     22300   999.55543      8.4772139      362.7508       15175.787     -2803.7745      24.476174     -2779.2983      5230.6149      1.2229533      16.670324      46.582741    
     22375   1008.4522      8.4300098      336.45225      9281.2284     -2802.3684      22.701711     -2779.6667      5203.9799      1.2292126      14.493033      39.353177    
Loop time of 1008.45 on 1 procs for 5000 steps with 523 atoms

Performance: 0.428 ns/day, 56.025 hours/ns, 4.958 timesteps/s, 2.593 katom-step/s
101.7% CPU use with 1 MPI tasks x 1 OpenMP threads

MPI task timing breakdown:
Section |  min time  |  avg time  |  max time  |%varavg| %total
---------------------------------------------------------------
Pair    | 999.81     | 999.81     | 999.81     |   0.0 | 99.14
Neigh   | 1.2382     | 1.2382     | 1.2382     |   0.0 |  0.12
Comm    | 1.5765     | 1.5765     | 1.5765     |   0.0 |  0.16
Output  | 0.13912    | 0.13912    | 0.13912    |   0.0 |  0.01
Modify  | 4.6314     | 4.6314     | 4.6314     |   0.0 |  0.46
Other   |            | 1.062      |            |       |  0.11

Nlocal:            523 ave         523 max         523 min
Histogram: 1 0 0 0 0 0 0 0 0 0
Nghost:           2576 ave        2576 max        2576 min
Histogram: 1 0 0 0 0 0 0 0 0 0
Neighs:              0 ave           0 max           0 min
Histogram: 1 0 0 0 0 0 0 0 0 0
FullNghs:        75256 ave       75256 max       75256 min
Histogram: 1 0 0 0 0 0 0 0 0 0

Total # of neighbors = 75256
Ave neighs/atom = 143.89293
Neighbor list builds = 1396
Dangerous builds = 0
Step 4c: Hold at 300K under 15000 bar - LOCK STRUCTURE (2000 steps)
Setting up Verlet run ...
  Unit style    : metal
  Current step  : 22375
  Time step     : 0.001
Per MPI rank memory allocation (min/avg/max) = 147.4 | 147.4 | 147.4 Mbytes
   Step          CPU           S/CPU           Temp          Press          PotEng         KinEng         TotEng         Volume        Density          Fmax          Fnorm     
     22375   0              0              336.45225      9279.0732     -2802.3684      22.701711     -2779.6667      5203.9799      1.2292126      14.494854      39.35739     
     22400   2.9458908      8.4863851      356.64065      9916.7995     -2802.8911      24.063898     -2778.8272      5200.6365      1.2300029      5.4141684      31.096716    
     22500   14.731047      8.4852499      349.39307      12850.259     -2801.1984      23.574877     -2777.6235      5196.8231      1.2309054      10.092104      42.196401    
     22600   26.493751      8.5014466      370.08047      15420.056     -2804.2222      24.970734     -2779.2515      5203.1662      1.2294049      6.9108538      36.225378    
     22700   38.252773      8.5041088      360.56685      15620.126     -2803.6506      24.328814     -2779.3217      5215.7397      1.2264411      8.0941853      34.227885    
     22800   50.018922      8.4989571      333.69323      15424.067     -2803.7667      22.515549     -2781.2511      5227.1444      1.2237653      12.075233      41.40669     
     22900   61.826034      8.4694715      362.39378      14070.198     -2807.4101      24.452084     -2782.958       5260.7906      1.2159385      12.764704      38.694854    
     23000   73.539406      8.5372518      304.88687      13844.005     -2804.4258      20.571875     -2783.8539      5302.9308      1.2062759      8.8238734      40.235008    
     23100   85.27561       8.5206426      314.4307       14516.969     -2803.5791      21.215833     -2782.3633      5291.7245      1.2088305      12.495897      40.181895    
     23200   97.008089      8.5233474      382.3031       14390.358     -2810.8218      25.795442     -2785.0264      5272.0285      1.2133466      12.769601      39.601411    
     23300   108.68127      8.566648       336.5715       14596.522     -2809.935       22.709757     -2787.2253      5242.2036      1.2202498      11.753848      39.712169    
     23400   120.45134      8.496127       285.51683      12444.843     -2808.5545      19.264904     -2789.2896      5199.2214      1.2303376      9.9756941      36.916526    
     23500   132.23623      8.4854409      332.91833      14181.72      -2812.3898      22.463263     -2789.9265      5188.7805      1.2328133      7.3370538      36.820458    
     23600   144.03031      8.4788253      312.1784       14154.503     -2811.1984      21.063861     -2790.1346      5194.0393      1.2315651      7.1140499      36.240076    
     23700   155.79713      8.4984744      323.13826      12514.104     -2811.374       21.803365     -2789.5706      5208.5888      1.2281249      22.613202      46.96636     
     23800   167.51233      8.5359235      342.97713      18001.377     -2813.2108      23.141969     -2790.0688      5208.5639      1.2281308      17.074156      42.079822    
     23900   179.29312      8.4883929      351.65106      18006.428     -2810.699       23.727232     -2786.9718      5186.9995      1.2332366      16.209715      51.587592    
     24000   191.15102      8.433197       370.29862      22617.527     -2811.1358      24.985454     -2786.1503      5142.6426      1.2438737      10.557856      39.55676     
     24100   203.06349      8.3945658      322.88212      20362.288     -2805.5452      21.786082     -2783.7591      5132.8817      1.2462391      29.631594      57.045812    
     24200   214.91096      8.4406173      287.35063      17147.534     -2805.1654      19.388638     -2785.7768      5155.8207      1.2406944      12.753047      41.196572    
     24300   226.69022      8.4894996      330.56408      15371.91      -2808.2323      22.304413     -2785.9279      5202.3679      1.2295935      9.3856252      36.124836    
     24375   235.56831      8.4477653      307.88664      10870.034     -2808.3887      20.77428      -2787.6144      5223.3306      1.2246588      8.6628716      39.909367    
Loop time of 235.569 on 1 procs for 2000 steps with 523 atoms

Performance: 0.734 ns/day, 32.718 hours/ns, 8.490 timesteps/s, 4.440 katom-step/s
100.9% CPU use with 1 MPI tasks x 1 OpenMP threads

MPI task timing breakdown:
Section |  min time  |  avg time  |  max time  |%varavg| %total
---------------------------------------------------------------
Pair    | 232.12     | 232.12     | 232.12     |   0.0 | 98.54
Neigh   | 0.50081    | 0.50081    | 0.50081    |   0.0 |  0.21
Comm    | 0.63116    | 0.63116    | 0.63116    |   0.0 |  0.27
Output  | 0.05007    | 0.05007    | 0.05007    |   0.0 |  0.02
Modify  | 1.8487     | 1.8487     | 1.8487     |   0.0 |  0.78
Other   |            | 0.42       |            |       |  0.18

Nlocal:            523 ave         523 max         523 min
Histogram: 1 0 0 0 0 0 0 0 0 0
Nghost:           2564 ave        2564 max        2564 min
Histogram: 1 0 0 0 0 0 0 0 0 0
Neighs:              0 ave           0 max           0 min
Histogram: 1 0 0 0 0 0 0 0 0 0
FullNghs:        74788 ave       74788 max       74788 min
Histogram: 1 0 0 0 0 0 0 0 0 0

Total # of neighbors = 74788
Ave neighs/atom = 142.99809
Neighbor list builds = 566
Dangerous builds = 0
Density after cooling at 15000 bar: 1.22465879365108 g/cm^3
Step 5: Slow pressure release 15000 bar -> 1.0 bar at 300K (10000 steps)
Setting up Verlet run ...
  Unit style    : metal
  Current step  : 24375
  Time step     : 0.001
Per MPI rank memory allocation (min/avg/max) = 148 | 148 | 148 Mbytes
   Step          CPU           S/CPU           Temp          Press          PotEng         KinEng         TotEng         Volume        Density          Fmax          Fnorm     
     24375   0              0              307.88664      10853.357     -2808.3887      20.77428      -2787.6144      5223.3306      1.2246588      8.6639481      39.915867    
     24400   2.9774821      8.3963446      311.45676      10684.206     -2808.3097      21.01517      -2787.2945      5220.6135      1.2252962      7.635808       38.024462    
     24500   14.796187      8.4611634      326.52218      13482.504     -2807.1517      22.031691     -2785.12        5204.2251      1.2291547      10.686548      39.556547    
     24600   26.619508      8.4578608      298.60664      19420.225     -2802.2017      20.148124     -2782.0536      5190.5313      1.2323975      16.695501      53.834424    
     24700   38.450752      8.4521967      291.68639      11908.216     -2803.2719      19.681188     -2783.5907      5196.6842      1.2309383      10.527986      37.511947    
     24800   50.256338      8.470566       337.68388      12720.734     -2807.4179      22.784813     -2784.6331      5205.7475      1.2287952      6.2307335      33.722765    
     24900   62.080414      8.4573207      283.15217      14056.413     -2801.4102      19.105351     -2782.3048      5243.5626      1.2199335      5.392459       31.102235    
     25000   73.876639      8.4772882      259.56796      13373.805     -2798.6116      17.514035     -2781.0976      5302.9463      1.2062724      17.42688       41.568468    
     25100   85.552417      8.5647402      290.13338      13744.608     -2799.472       19.5764       -2779.8956      5353.665       1.1948446      7.6254327      39.284146    
     25200   97.237068      8.5582356      345.20698      11648.829     -2801.7718      23.292425     -2778.4794      5380.715       1.1888379      6.6782756      37.826912    
     25300   108.70989      8.7162529      325.68788      19468.263     -2799.0329      21.975398     -2777.0576      5363.8936      1.1925661      19.621107      52.172301    
     25400   120.25705      8.6601333      369.50399      9015.0262     -2801.2458      24.931837     -2776.314       5349.2525      1.1958302      7.021979       36.393993    
     25500   132.01714      8.5032767      449.92596      15058.253     -2805.9649      30.358213     -2775.6067      5295.9296      1.2078706      5.7518867      33.186137    
     25600   143.73257      8.5358162      417.78024      20908.563     -2805.2141      28.189218     -2777.0249      5283.4788      1.210717       14.366185      42.6061      
     25700   155.42873      8.5498137      341.82869      12426.357     -2803.1434      23.064479     -2780.0789      5368.3613      1.1915736      16.97871       40.638772    
     25800   167.08687      8.5776936      299.52953      6294.9126     -2802.9615      20.210394     -2782.7511      5428.4487      1.1783841      5.5133868      33.326002    
     25900   178.68128      8.6248495      300.07765      11226.578     -2805.6145      20.247378     -2785.3672      5439.4416      1.1760027      10.466342      37.337691    
     26000   190.31731      8.5939931      326.27862      17157.069     -2806.5056      22.015257     -2784.4903      5408.0572      1.1828273      9.847855       37.979884    
     26100   201.96065      8.5886067      365.67768      8687.0486     -2806.7875      24.673661     -2782.1138      5352.6094      1.1950803      14.834213      40.447528    
     26200   213.58966      8.5991844      289.32056      4926.356      -2803.8683      19.521556     -2784.3468      5312.0586      1.2042032      6.3563706      32.415514    
     26300   225.24154      8.5823011      281.3269       11606.661     -2802.105       18.982194     -2783.1228      5311.4632      1.2043382      6.3543293      35.459106    
     26400   236.94504      8.5444557      318.98598      11038.433     -2806.3994      21.523195     -2784.8762      5359.6801      1.1935036      7.1039313      34.742577    
     26500   248.63774      8.5523423      291.7806       12843.419     -2801.2964      19.687545     -2781.6088      5383.5454      1.1882128      7.0701657      34.073774    
     26600   260.29528      8.5781369      342.99687      8531.949      -2804.0322      23.143301     -2780.8889      5403.9218      1.1837325      6.3776912      34.988377    
     26700   271.93608      8.5904787      348.4485       18513.553     -2807.514       23.511143     -2784.0029      5419.6496      1.1802973      11.077364      38.006478    
     26800   283.54265      8.6157967      306.35628      13891.923     -2807.1457      20.671021     -2786.4747      5431.5169      1.1777185      10.236717      34.390147    
     26900   295.16899      8.6011717      289.20682      15280.928     -2806.5063      19.513882     -2786.9925      5436.9979      1.1765312      17.543029      45.199471    
     27000   306.8021       8.5961514      303.91569      9472.7638     -2807.3846      20.506345     -2786.8782      5463.7516      1.1707702      10.460769      38.35837     
     27100   318.39474      8.6261624      334.14585      11974.406     -2810.3198      22.546089     -2787.7737      5471.8371      1.1690402      6.3231654      31.976324    
     27200   329.98832      8.6254656      297.64154      6092.9247     -2806.483       20.083004     -2786.4         5476.5168      1.1680413      10.654758      40.89154     
     27300   341.56226      8.6400971      317.42555      4662.7485     -2806.5109      21.417907     -2785.093       5461.0359      1.1713524      12.686239      36.741258    
     27400   353.12904      8.6454554      301.83644      9714.5336     -2805.6931      20.36605      -2785.3271      5424.5289      1.1792356      5.8736274      32.355685    
     27500   364.89713      8.4975495      291.54435      14202.995     -2802.4702      19.671604     -2782.7986      5416.0566      1.1810803      9.043882       36.152571    
     27600   376.54584      8.5846413      304.16908      10400.897     -2804.3106      20.523442     -2783.7871      5454.3426      1.1727899      9.7849634      37.401779    
     27700   388.08486      8.6662495      291.41074      4912.4845     -2804.3377      19.662589     -2784.6751      5499.9998      1.1630542      15.548132      36.777423    
     27800   399.62746      8.6635575      348.3023       8041.0489     -2807.5781      23.501278     -2784.0768      5556.0059      1.1513303      10.52509       37.937446    
     27900   411.08285      8.7295164      309.49033      6741.6301     -2804.6474      20.882487     -2783.7649      5584.685       1.1454178      8.6073439      35.54613     
     28000   422.54875      8.7215138      292.60236      6481.9777     -2802.2206      19.742992     -2782.4777      5570.9846      1.1482347      8.4542578      37.718643    
     28100   434.08995      8.6646151      403.03344      13631.519     -2807.7903      27.194196     -2780.5961      5528.9068      1.1569733      9.3862829      39.178409    
     28200   445.60741      8.6824697      308.91325      13585.412     -2799.0056      20.84355      -2778.162       5521.4137      1.1585435      12.541078      42.455754    
     28300   457.12186      8.684738       384.61129      8895.2271     -2801.1889      25.951184     -2775.2377      5569.868       1.1484649      7.5557629      35.42719     
     28400   468.44422      8.8320827      340.6301       10039.17      -2796.4726      22.983606     -2773.489       5639.1349      1.134358       14.539606      45.834918    
     28500   479.58291      8.9777156      346.31075      5457.0682     -2797.8986      23.366901     -2774.5317      5692.2599      1.1237712      5.7452687      32.863248    
     28600   490.77368      8.935934       335.1233       6328.6339     -2792.8672      22.612041     -2770.2551      5701.6933      1.1219119      19.676431      43.647496    
     28700   501.95939      8.9399747      359.48978      8783.7138     -2792.8932      24.25614      -2768.637       5674.9769      1.1271936      16.611692      42.6385      
     28800   513.22711      8.8749099      402.2445       11695.783     -2796.4119      27.140963     -2769.2709      5659.2338      1.1303293      12.673117      47.5603      
     28900   524.42568      8.9297159      418.6151       4730.7367     -2795.7665      28.24555      -2767.521       5658.6916      1.1304376      9.7308212      36.190838    
     29000   535.57634      8.968074       485.29142      4609.234      -2803.6463      32.744454     -2770.9019      5668.9362      1.1283947      8.1277271      34.732894    
     29100   546.7707       8.9330705      384.04977      7182.4247     -2800.5358      25.913296     -2774.6225      5697.9677      1.1226455      6.8156186      39.165948    
     29200   557.90781      8.9789916      329.31081      7659.3418     -2801.154       22.21985      -2778.9341      5734.5284      1.115488       5.5573129      33.966806    
     29300   569.00981      9.0073899      361.60421      8838.0926     -2798.9671      24.398809     -2774.5683      5786.5285      1.1054638      5.591483       31.638235    
     29400   580.08485      9.0293113      364.10237      7962.8794     -2803.243       24.567369     -2778.6757      5868.8931      1.0899496      11.971181      37.84635     
     29500   591.06138      9.1103449      335.0758       5395.8604     -2804.2073      22.608836     -2781.5984      5943.3781      1.0762899      7.7624211      33.595192    
     29600   601.94532      9.1878485      357.09793      9678.1928     -2807.9182      24.094753     -2783.8235      5982.5505      1.0692426      10.855015      37.425791    
     29700   612.92057      9.1114077      330.6611       5461.5372     -2806.021       22.310959     -2783.7101      5954.3446      1.0743076      9.4777808      34.728343    
     29800   623.87537      9.1284253      311.42601      6728.0735     -2805.2162      21.013095     -2784.2031      5899.9347      1.084215       12.198896      39.475145    
     29900   634.89601      9.0738813      336.28052      14401.081     -2805.4706      22.690123     -2782.7805      5868.311       1.0900577      9.696222       37.613672    
     30000   645.90317      9.0849958      290.79052      7558.9913     -2801.2788      19.62074      -2781.6581      5861.0952      1.0913997      8.8296575      37.956341    
     30100   656.94517      9.0563318      300.86991      3547.2154     -2804.1029      20.300835     -2783.8021      5861.9857      1.0912339      7.8894976      32.669204    
     30200   667.98893      9.0548863      298.42631      9167.138      -2804.2533      20.135956     -2784.1173      5872.6124      1.0892593      6.0799787      34.05236     
     30300   679.01317      9.0709136      294.93585      4140.648      -2802.1696      19.900441     -2782.2692      5923.6454      1.0798752      18.600039      48.650344    
     30400   690.01035      9.0932404      313.34287      8487.2097     -2804.1945      21.142433     -2783.0521      5968.6801      1.0717274      9.0389995      36.485058    
     30500   700.97684      9.1186902      292.78142      10820.282     -2801.2617      19.755074     -2781.5067      6021.8733      1.0622604      22.854744      49.272938    
     30600   711.87733      9.1738987      335.60029      1975.0299     -2804.7999      22.644226     -2782.1556      6073.3326      1.0532599      7.5290865      31.185282    
     30700   722.7536       9.1943325      344.94784      3829.9204     -2807.1802      23.27494      -2783.9053      6049.7976      1.0573573      7.4357219      32.410494    
     30800   733.70082      9.1347353      326.9885       3800.6642     -2805.8574      22.063155     -2783.7942      6027.9816      1.061184       15.097647      39.013857    
     30900   744.60706      9.1690682      307.83286      3343.7586     -2802.4636      20.770651     -2781.6929      5989.8239      1.0679442      10.161222      34.76924     
     31000   755.61699      9.0827057      314.34575      4760.0705     -2801.857       21.210101     -2780.6469      5932.9265      1.0781859      8.859065       37.720543    
     31100   766.61431      9.0931256      380.80564      6214.967      -2807.4645      25.694402     -2781.7701      5907.3807      1.0828484      7.6688054      33.63314     
     31200   777.61114      9.0935272      294.28373      6151.7649     -2802.9448      19.85644      -2783.0884      5927.0153      1.0792612      12.757379      39.818638    
     31300   788.59629      9.1031969      291.1533       2699.746      -2803.486       19.645218     -2783.8408      5996.7858      1.0667044      18.137975      45.293448    
     31400   799.45234      9.2114594      343.4745       4066.7072     -2806.2122      23.175528     -2783.0367      6083.8909      1.051432       9.0199092      34.752409    
     31500   810.21373      9.292477       297.08934      797.23192     -2801.6487      20.045746     -2781.6029      6155.12        1.0392645      9.7005633      34.119321    
     31600   820.98997      9.2796781      303.2125       2059.1181     -2799.2821      20.458898     -2778.8232      6211.7212      1.0297947      9.5925551      39.98479     
     31700   831.73614      9.3056381      289.99792      4243.5523     -2800.6119      19.56726      -2781.0446      6231.0951      1.0265929      9.7112654      34.417876    
     31800   842.46423      9.321326       292.22074      5713.8313     -2798.9438      19.717243     -2779.2266      6267.3329      1.0206571      10.733194      37.712967    
     31900   853.18695      9.3259879      308.53704      4606.6395     -2800.0024      20.818165     -2779.1843      6275.1057      1.0193928      15.311412      43.735471    
     32000   863.94201      9.2979514      275.51007      2918.1406     -2797.5096      18.58971      -2778.9199      6297.4812      1.0157708      16.07484       42.194585    
     32100   874.68212      9.3108873      351.00206      2356.1983     -2802.5509      23.683441     -2778.8675      6348.9113      1.0075425      10.307596      36.650012    
     32200   885.3534       9.370954       370.08758      1402.805      -2799.5168      24.971214     -2774.5456      6383.4164      1.0020963      14.342498      42.182008    
     32300   895.99332      9.3985612      323.07124      2518.8995     -2797.762       21.798843     -2775.9631      6437.3565      0.99369948     23.187074      52.137315    
     32400   906.58789      9.4388031      384.69834      7362.4072     -2801.7496      25.957057     -2775.7925      6485.2743      0.98635731     19.685359      52.399029    
     32500   916.9782       9.6243522      377.27672      4716.1725     -2801.9906      25.456292     -2776.5343      6566.9159      0.97409467     11.74739       39.018856    
     32600   927.26162      9.7243917      303.80909     -629.72496     -2799.7969      20.499153     -2779.2978      6661.51        0.96026243     8.1005229      35.391422    
     32700   937.52454      9.7438121      340.32872      604.14825     -2803.4161      22.963271     -2780.4529      6727.5102      0.95084178     7.9351869      36.139405    
     32800   947.77404      9.7565738      331.85866      1322.7804     -2800.589       22.391764     -2778.1972      6787.9469      0.94237594     8.9374454      36.614301    
     32900   957.99192      9.7867637      354.2426       1970.4178     -2803.6827      23.902093     -2779.7806      6781.5657      0.94326267     8.1354044      35.294358    
     33000   968.23581      9.7619175      315.92575      7545.783      -2799.862       21.31671      -2778.5453      6761.4286      0.94607192     15.723429      51.981485    
     33100   978.51894      9.7246646      268.36215     -824.82545     -2798.8142      18.107413     -2780.7068      6728.9074      0.95064435     7.295895       35.923833    
     33200   988.75981      9.7648016      350.05761     -421.32467     -2805.6089      23.619716     -2781.9891      6684.0662      0.95702191     5.97804        32.588957    
     33300   999.03806      9.7292824      282.87911      1112.8457     -2801.4421      19.086927     -2782.3551      6665.7031      0.95965836     7.7543268      35.867074    
     33400   1009.2984      9.7462344      290.00452      2169.4651     -2801.1011      19.567705     -2781.5334      6713.3156      0.95285224     13.405522      45.47365     
     33500   1019.5179      9.7852092      372.20678      3697.6408     -2806.715       25.114204     -2781.6008      6821.5586      0.93773259     9.3953176      39.083579    
     33600   1029.6609      9.8590564      351.94141      2298.833      -2804.6772      23.746823     -2780.9304      6982.1256      0.91616768     9.7768761      42.106497    
     33700   1039.6156      10.045493      370.0448       6330.5249     -2807.5809      24.968327     -2782.6126      7135.4407      0.89648251     10.781205      40.489243    
     33800   1049.4576      10.160545      335.79026      1011.292      -2807.4886      22.657043     -2784.8316      7259.7932      0.88112673     7.5806857      38.891912    
     33900   1059.2902      10.170293      306.09553     -2965.0776     -2805.83        20.653428     -2785.1765      7368.2163      0.86816097     10.679186      36.390578    
     34000   1069.0496      10.246465      308.33841      1115.4724     -2807.3984      20.804763     -2786.5937      7447.3849      0.85893207     6.1103464      34.3216      
     34100   1078.8499      10.203834      339.44509     -1181.1204     -2803.1097      22.903648     -2780.206       7518.2262      0.85083869     8.6049406      36.417906    
     34200   1088.5698      10.288097      294.68925     -1039.6239     -2799.4404      19.883802     -2779.5566      7565.5264      0.84551919     9.153586       42.439656    
     34300   1098.3285      10.247289      286.7889      -582.44015     -2799.742       19.350736     -2780.3913      7582.4034      0.84363722     11.291424      42.008704    
     34375   1105.561       10.369884      394.69232      3312.3378     -2806.5275      26.631389     -2779.8961      7613.1496      0.84023014     7.5424343      35.262783    
Loop time of 1105.56 on 1 procs for 10000 steps with 523 atoms

Performance: 0.782 ns/day, 30.710 hours/ns, 9.045 timesteps/s, 4.731 katom-step/s
100.6% CPU use with 1 MPI tasks x 1 OpenMP threads

MPI task timing breakdown:
Section |  min time  |  avg time  |  max time  |%varavg| %total
---------------------------------------------------------------
Pair    | 1088.6     | 1088.6     | 1088.6     |   0.0 | 98.46
Neigh   | 2.3827     | 2.3827     | 2.3827     |   0.0 |  0.22
Comm    | 2.9854     | 2.9854     | 2.9854     |   0.0 |  0.27
Output  | 0.27246    | 0.27246    | 0.27246    |   0.0 |  0.02
Modify  | 9.2604     | 9.2604     | 9.2604     |   0.0 |  0.84
Other   |            | 2.103      |            |       |  0.19

Nlocal:            523 ave         523 max         523 min
Histogram: 1 0 0 0 0 0 0 0 0 0
Nghost:           2067 ave        2067 max        2067 min
Histogram: 1 0 0 0 0 0 0 0 0 0
Neighs:              0 ave           0 max           0 min
Histogram: 1 0 0 0 0 0 0 0 0 0
FullNghs:        51334 ave       51334 max       51334 min
Histogram: 1 0 0 0 0 0 0 0 0 0

Total # of neighbors = 51334
Ave neighs/atom = 98.152964
Neighbor list builds = 2738
Dangerous builds = 0
Density at 1.0 bar: 0.840230139344 g/cm^3
Step 6: Final NPT equilibration at 300K (5000 steps)
Setting up Verlet run ...
  Unit style    : metal
  Current step  : 34375
  Time step     : 0.001
Per MPI rank memory allocation (min/avg/max) = 145.7 | 145.7 | 145.7 Mbytes
   Step          CPU           S/CPU           Temp          Press          PotEng         KinEng         TotEng         Volume        Density          Fmax          Fnorm     
     34375   0              0              394.69232      3313.4008     -2806.5275      26.631389     -2779.8961      7613.1496      0.84023014     7.5426103      35.395553    
     34400   2.3906718      10.457294      322.61164      1471.5642     -2802.3717      21.767832     -2780.6039      7615.2438      0.83999908     14.399654      39.565164    
     34500   11.828943      10.59516       306.87377      1785.2317     -2798.0516      20.705938     -2777.3457      7659.9449      0.8350971      11.05016       44.316795    
     34600   21.262453      10.600508      357.66922      2306.944      -2798.6899      24.1333       -2774.5566      7804.6537      0.81961328     15.419688      45.936856    
     34700   30.591209      10.719543      365.22859      638.46149     -2800.3481      24.643359     -2775.7047      7959.5514      0.8036631      7.6592336      35.175109    
     34800   39.906826      10.734663      332.21533     -4155.9543     -2796.4354      22.41583      -2774.0195      8100.7726      0.7896528      10.969448      40.767471    
     34900   49.141913      10.828268      358.26749      2775.1937     -2801.9616      24.173667     -2777.7879      8159.0635      0.78401127     8.7469582      42.194161    
     35000   58.419271      10.778922      920.11751      5477.079      -2793.4086      62.083821     -2731.3248      8163.0386      0.78362949     18.900687      51.969365    
     35100   67.71177       10.761376      579.06129      1496.1016     -2796.9942      39.071463     -2757.9227      8292.5473      0.77139117     6.4552508      36.855913    
     35200   76.898552      10.885205      390.58187     -3248.3593     -2796.2219      26.354041     -2769.8678      8406.5497      0.76093022     5.7806245      36.002452    
     35300   86.038311      10.941208      370.06312      311.63486     -2802.5151      24.969563     -2777.5455      8461.0441      0.75602936     9.2095411      38.195353    
     35400   95.158228      10.96501       316.77884     -465.56085     -2804.2045      21.374271     -2782.8302      8420.6956      0.75965195     8.9123364      37.500893    
     35500   104.3049       10.932938      297.05544     -1673.3696     -2806.934       20.043458     -2786.8906      8366.146       0.76460509     7.8992705      36.800712    
     35600   113.52136      10.850148      322.45208      1417.2149     -2810.3821      21.757066     -2788.625       8335.0821      0.76745468     16.613941      44.69583     
     35700   122.68485      10.912881      307.48394      2449.4984     -2809.0578      20.747108     -2788.3106      8283.0225      0.77227821     19.632424      41.591175    
     35800   131.87996      10.875344      340.30418     -2653.0602     -2809.5007      22.961615     -2786.5391      8242.5285      0.77607226     5.8917229      31.815487    
     35900   141.06755      10.884244      273.22844      110.57542     -2802.3902      18.43576      -2783.9545      8177.9533      0.78220033     12.934371      40.423046    
     36000   150.27672      10.858748      336.45622     -764.18976     -2808.0478      22.701978     -2785.3458      8100.5569      0.78967382     12.85807       38.842899    
     36100   159.58703      10.740774      249.97295      1805.7731     -2803.6931      16.866624     -2786.8265      8055.1604      0.7941242      21.197852      46.9169      
     36200   168.81236      10.839719      297.7116       3343.2919     -2807.1957      20.087732     -2787.108       8034.5045      0.79616581     18.819226      41.484491    
     36300   178.08248      10.787347      280.31579     -913.82898     -2808.2816      18.91397      -2789.3676      8023.2691      0.79728073     8.3671192      36.692768    
     36400   187.34955      10.790906      330.92614     -1071.6038     -2812.8335      22.328842     -2790.5047      7984.5152      0.80115043     10.453292      34.263768    
     36500   196.628        10.777658      268.21345     -2024.6163     -2808.2236      18.097379     -2790.1262      7926.1373      0.80705109     10.820413      35.405469    
     36600   205.92436      10.756815      319.81329      2098.0727     -2809.3108      21.579017     -2787.7317      7864.3658      0.81339016     11.148642      40.543634    
     36700   215.25583      10.716503      303.8294       120.3565      -2808.5106      20.500523     -2788.0101      7804.7906      0.8195989      8.8786193      35.194964    
     36800   224.6225       10.676154      284.69227     -360.97665     -2807.2607      19.209268     -2788.0515      7777.0876      0.82251841     20.894706      45.388096    
     36900   234.016        10.645658      298.08342      3467.1681     -2808.2008      20.11282      -2788.088       7768.7921      0.8233967      7.3625418      37.963605    
     37000   243.38932      10.668586      296.33316      2669.3649     -2808.8529      19.994723     -2788.8581      7802.595       0.81982952     7.8954876      32.736086    
     37100   252.7691       10.661224      291.69266     -1064.0487     -2808.0317      19.681611     -2788.3501      7832.6067      0.81668824     7.2879527      34.207086    
     37200   262.08832      10.73052       291.08843      1099.693      -2806.3957      19.640841     -2786.7548      7843.1296      0.81559251     10.320103      40.064207    
     37300   271.37154      10.772122      308.74546      108.65627     -2804.3612      20.832228     -2783.5289      7881.6701      0.81160436     12.514819      38.631599    
     37400   280.71264      10.705372      307.60296     -2573.4511     -2801.9386      20.755139     -2781.1835      7928.8978      0.80677011     7.1006335      35.472083    
     37500   290.00298      10.763869      392.69369      3019.774      -2805.8561      26.496534     -2779.3596      7961.0753      0.80350927     6.4868176      34.064032    
     37600   299.34865      10.700145      295.81969      374.44952     -2798.6382      19.960077     -2778.6781      7977.8864      0.8018161      5.9721557      33.551587    
     37700   308.6692       10.728978      338.37336     -2893.3131     -2802.647       22.831335     -2779.8157      8009.5424      0.79864709     6.1051796      34.217821    
     37800   317.98075      10.739353      289.51733      1439.6117     -2800.5473      19.534833     -2781.0125      8036.2674      0.79599116     9.4444583      40.554546    
     37900   327.26915      10.766112      281.86379     -5011.8417     -2797.1511      19.01842      -2778.1326      8043.1965      0.79530542     7.9998647      37.809937    
     38000   336.55198      10.772586      307.79256     -694.06296     -2797.3372      20.767933     -2776.5692      8003.2426      0.79927575     10.209645      41.976957    
     38100   345.86741      10.734878      315.22891      411.66769     -2798.249       21.269691     -2776.9793      7936.9226      0.80595441     13.886335      42.166697    
     38200   355.20959      10.70413       368.33508     -1919.2053     -2804.7083      24.852966     -2779.8553      7865.4916      0.81327374     9.8626063      36.415638    
     38300   364.57963      10.672321      362.31277      2111.9798     -2802.8693      24.446618     -2778.4226      7795.4404      0.82058196     11.821422      40.601705    
     38400   373.94875      10.673358      343.40833      246.59446     -2803.6542      23.171063     -2780.4831      7744.2231      0.82600897     7.3262019      35.426486    
     38500   383.30983      10.682533      301.97205     -215.21929     -2802.2821      20.375201     -2781.9069      7753.3393      0.82503777     7.666705       39.412231    
     38600   392.66547      10.688733      272.48399      1280.849      -2803.6209      18.385529     -2785.2354      7830.335       0.81692518     7.5921078      38.678432    
     38700   402.0032       10.709237      272.32055     -282.09248     -2803.6561      18.374501     -2785.2816      7923.4006      0.80732984     10.751627      40.063624    
     38800   411.2701       10.791105      300.99483      1625.7381     -2805.1986      20.309264     -2784.8893      7998.6106      0.79973862     14.936853      41.370448    
     38900   420.59069      10.728927      301.68932      528.70049     -2803.9384      20.356123     -2783.5823      8033.4914      0.79626622     18.265872      42.451877    
     39000   429.86635      10.780909      307.81097      3251.1484     -2803.4303      20.769175     -2782.6611      8068.4693      0.79281429     7.0702737      36.013138    
     39100   439.13895      10.784463      355.62819     -4928.7112     -2806.0498      23.995584     -2782.0542      8085.4095      0.79115322     6.7614571      33.097706    
     39200   448.42277      10.771426      318.58161     -3422.5049     -2805.8177      21.495911     -2784.3218      8019.4517      0.79766024     9.9779007      33.97749     
     39300   457.76052      10.709215      314.68106     -965.10151     -2806.3844      21.232726     -2785.1516      7952.7857      0.80434681     10.690718      35.350274    
     39375   464.75915      10.716392      296.35033     -1475.2125     -2807.5658      19.995882     -2787.57        7968.2072      0.80279009     6.5249022      33.118448    
Loop time of 464.759 on 1 procs for 5000 steps with 523 atoms

Performance: 0.930 ns/day, 25.820 hours/ns, 10.758 timesteps/s, 5.627 katom-step/s
99.9% CPU use with 1 MPI tasks x 1 OpenMP threads

MPI task timing breakdown:
Section |  min time  |  avg time  |  max time  |%varavg| %total
---------------------------------------------------------------
Pair    | 456.56     | 456.56     | 456.56     |   0.0 | 98.24
Neigh   | 1.0211     | 1.0211     | 1.0211     |   0.0 |  0.22
Comm    | 1.3537     | 1.3537     | 1.3537     |   0.0 |  0.29
Output  | 0.13515    | 0.13515    | 0.13515    |   0.0 |  0.03
Modify  | 4.634      | 4.634      | 4.634      |   0.0 |  1.00
Other   |            | 1.051      |            |       |  0.23

Nlocal:            523 ave         523 max         523 min
Histogram: 1 0 0 0 0 0 0 0 0 0
Nghost:           1953 ave        1953 max        1953 min
Histogram: 1 0 0 0 0 0 0 0 0 0
Neighs:              0 ave           0 max           0 min
Histogram: 1 0 0 0 0 0 0 0 0 0
FullNghs:        49584 ave       49584 max       49584 min
Histogram: 1 0 0 0 0 0 0 0 0 0

Total # of neighbors = 49584
Ave neighs/atom = 94.806883
Neighbor list builds = 1364
Dangerous builds = 32
Step 7: Final NVT relaxation to stabilize structure (2000 steps)
Setting up Verlet run ...
  Unit style    : metal
  Current step  : 39375
  Time step     : 0.001
Per MPI rank memory allocation (min/avg/max) = 145.4 | 145.4 | 145.4 Mbytes
   Step          CPU           S/CPU           Temp          Press          PotEng         KinEng         TotEng         Volume        Density          Fmax          Fnorm     
     39375   0              0              296.35033     -1474.0087     -2807.5658      19.995882     -2787.57        7968.2072      0.80279009     6.5249162      33.108589    
     39400   2.3295585      10.731629      290.26123     -841.61908     -2806.2663      19.585027     -2786.6813      7968.2072      0.80279009     11.261717      41.096283    
     39500   11.583424      10.806294      326.63408     -1984.5409     -2808.9087      22.039241     -2786.8695      7968.2072      0.80279009     10.882324      34.617726    
     39600   20.863189      10.776135      328.90377     -2552.8427     -2809.2822      22.192386     -2787.0898      7968.2072      0.80279009     6.263908       34.450268    
     39700   30.101484      10.824509      306.63545      6574.7165     -2806.9955      20.689858     -2786.3056      7968.2072      0.80279009     14.744698      43.944405    
     39800   39.339139      10.825258      291.40244      1675.2082     -2807.1865      19.662029     -2787.5245      7968.2072      0.80279009     10.201484      35.623496    
     39900   48.571989      10.830892      334.39185     -2233.3385     -2810.9951      22.562688     -2788.4325      7968.2072      0.80279009     10.799127      34.308336    
     40000   57.895533      10.725535      282.08238     -3226.6473     -2807.9334      19.033169     -2788.9002      7968.2072      0.80279009     8.260879       32.827275    
     40100   67.211848      10.733858      334.66296      614.7771      -2810.495       22.58098      -2787.914       7968.2072      0.80279009     8.1408749      38.257083    
     40200   76.561886      10.695143      300.73188      1261.298      -2807.9615      20.291522     -2787.67        7968.2072      0.80279009     6.7907289      33.919577    
     40300   85.861464      10.753176      319.4995      -421.05192     -2808.7102      21.557844     -2787.1524      7968.2072      0.80279009     8.7522001      36.938991    
     40400   95.150133      10.765805      316.34569     -1701.101      -2808.5025      21.345045     -2787.1574      7968.2072      0.80279009     6.5850272      35.102008    
     40500   104.44995      10.752895      286.12074      874.94856     -2804.2472      19.305652     -2784.9416      7968.2072      0.80279009     8.8293316      39.531168    
     40600   113.75646      10.745167      318.76064     -4455.8419     -2805.0131      21.50799      -2783.5051      7968.2072      0.80279009     6.3665407      35.415597    
     40700   123.03655      10.775762      337.76836      2683.2262     -2804.8837      22.790514     -2782.0932      7968.2072      0.80279009     6.7821093      37.761368    
     40800   132.3334       10.75633       357.66329      2000.5045     -2804.7972      24.1329       -2780.6643      7968.2072      0.80279009     10.281958      41.907745    
     40900   141.65675      10.725764      306.08479     -2784.9673     -2799.4986      20.652703     -2778.8459      7968.2072      0.80279009     9.9203615      37.005417    
     41000   150.91212      10.804539      360.62774      6017.8049     -2803.9627      24.332923     -2779.6298      7968.2072      0.80279009     7.749061       37.655606    
     41100   160.18971      10.77866       378.59497      2298.7691     -2805.9673      25.54524      -2780.4221      7968.2072      0.80279009     8.573597       39.107055    
     41200   169.47321      10.771799      350.50586      2481.17       -2805.5568      23.649961     -2781.9069      7968.2072      0.80279009     4.902201       33.06664     
     41300   178.78864      10.734877      325.4738       3260.5299     -2804.0609      21.960953     -2782.1         7968.2072      0.80279009     10.191028      43.067581    
     41375   185.76209      10.755082      344.43847     -3532.6668     -2804.2982      23.240571     -2781.0576      7968.2072      0.80279009     5.5423445      34.089909    
Loop time of 185.762 on 1 procs for 2000 steps with 523 atoms

Performance: 0.930 ns/day, 25.800 hours/ns, 10.766 timesteps/s, 5.631 katom-step/s
100.0% CPU use with 1 MPI tasks x 1 OpenMP threads

MPI task timing breakdown:
Section |  min time  |  avg time  |  max time  |%varavg| %total
---------------------------------------------------------------
Pair    | 183.57     | 183.57     | 183.57     |   0.0 | 98.82
Neigh   | 0.37828    | 0.37828    | 0.37828    |   0.0 |  0.20
Comm    | 0.54578    | 0.54578    | 0.54578    |   0.0 |  0.29
Output  | 0.05092    | 0.05092    | 0.05092    |   0.0 |  0.03
Modify  | 0.84399    | 0.84399    | 0.84399    |   0.0 |  0.45
Other   |            | 0.3773     |            |       |  0.20

Nlocal:            523 ave         523 max         523 min
Histogram: 1 0 0 0 0 0 0 0 0 0
Nghost:           1944 ave        1944 max        1944 min
Histogram: 1 0 0 0 0 0 0 0 0 0
Neighs:              0 ave           0 max           0 min
Histogram: 1 0 0 0 0 0 0 0 0 0
FullNghs:        49462 ave       49462 max       49462 min
Histogram: 1 0 0 0 0 0 0 0 0 0

Total # of neighbors = 49462
Ave neighs/atom = 94.573614
Neighbor list builds = 511
Dangerous builds = 0
System init for write_data ...
WARNING: No fixes with time integration, atoms won't move
For more information see https://docs.lammps.org/err0028 (src/verlet.cpp:60)
Setting up Verlet run ...
  Unit style    : metal
  Current step  : 41375
  Time step     : 0.001
Per MPI rank memory allocation (min/avg/max) = 140.6 | 140.6 | 140.6 Mbytes
   Step          CPU           S/CPU           Temp          Press          PotEng         KinEng         TotEng         Volume        Density          Fmax          Fnorm     
     41375   0              0              344.43847     -3542.3829     -2804.2982      23.240571     -2781.0576      7968.2072      0.80279009     5.5419515      34.082843    
GPU information: NVIDIA RTX A6000, 8, 6, 45, 84, 300, 2100
Loop time of 0.000163676 on 1 procs for 0 steps with 523 atoms

106.3% CPU use with 1 MPI tasks x 1 OpenMP threads

MPI task timing breakdown:
Section |  min time  |  avg time  |  max time  |%varavg| %total
---------------------------------------------------------------
Pair    | 0          | 0          | 0          |   0.0 |  0.00
Neigh   | 0          | 0          | 0          |   0.0 |  0.00
Comm    | 0          | 0          | 0          |   0.0 |  0.00
Output  | 0          | 0          | 0          |   0.0 |  0.00
Modify  | 0          | 0          | 0          |   0.0 |  0.00
Other   |            | 0.0001637  |            |       |100.00

Nlocal:            523 ave         523 max         523 min
Histogram: 1 0 0 0 0 0 0 0 0 0
Nghost:           1944 ave        1944 max        1944 min
Histogram: 1 0 0 0 0 0 0 0 0 0
Neighs:              0 ave           0 max           0 min
Histogram: 1 0 0 0 0 0 0 0 0 0
FullNghs:        49462 ave       49462 max       49462 min
Histogram: 1 0 0 0 0 0 0 0 0 0

Total # of neighbors = 49462
Ave neighs/atom = 94.573614
Neighbor list builds = 0
Dangerous builds = 0
System init for write_restart ...
===========================================
REVISED NPT Melt-Quench Complete!
===========================================
Density Summary (Target: 1.10 g/cm^3):
  Initial density:     0.761960427262085 g/cm^3
  After compression:   1.18835372780566 g/cm^3
  After cooling (15kbar): 1.22465879365108 g/cm^3
  After release (1bar):  0.840230139344 g/cm^3
  Final density:       0.802790085130604 g/cm^3
  Target:              1.1 g/cm^3
  Relative error:      27.0190831699451%%
===========================================
Output files:
  - densified_pdms.lmpdat     (LAMMPS data format)
  - densified_pdms.xyz        (XYZ format)
  - densified_pdms.restart    (restart file)
  - full_trajectory.xyz       (complete XYZ trajectory)
  - full_trajectory.lammpstrj (complete LAMMPS trajectory)
  - trajectory.xyz            (MD XYZ trajectory)
  - trajectory.lammpstrj      (MD LAMMPS trajectory)
  - trajectory.dcd            (MD DCD trajectory)
  - melt_quench_log.lammps    (LAMMPS log file)
===========================================
Total: ~40,000 steps
Strategy: 500K Peak, 1.5 GPa (15,000 bar) Compression, Multi-stage Release
===========================================
Total wall time: 1:32:33
 
[SUCCESS] Workflow completed at: 2026/04/10 周五 18:50:50.61 
Final density should be checked in melt_quench_log.lammps 
