527
Lattice="22.0 0.0 0.0 0.0 19.07996254642244 0.0 0.0 0.0 20.0" Properties=species:S:1:pos:R:3:tags:I:1 pbc="T T T"
Si       4.07770880      -3.51331461       3.07770880        0
O        4.07770880      -5.14331461       3.07770880        0
C        5.84076171      -2.88998127       3.07770880        0
H        5.84076171      -2.88998127       4.16770880        0
H        6.15541761      -3.77996255       2.53270880        0
H        5.52610582      -2.00000000       2.53270880        0
C        2.31465590      -2.88998127       3.07770880        0
H        2.31465590      -2.88998127       1.98770880        0
H        2.00000000      -3.77996255       3.62270880        0
H        2.62931179      -2.00000000       3.62270880        0
Si       4.07770880      -6.77331461       3.07770880        0
O        4.07770880      -8.40331461       3.07770880        0
C        5.32437547      -6.14998127       4.32437547        0
H        4.55362908      -6.14998127       5.09512186        0
H        5.93224399      -7.03996255       4.16149759        0
H        5.48725335      -5.26000000       3.71650696        0
C        2.83104214      -6.14998127       1.83104214        0
H        3.60178853      -6.14998127       1.06029575        0
H        2.22317362      -7.03996255       1.99392002        0
H        2.66816426      -5.26000000       2.43891065        0
Si       4.07770880     -10.03331461       3.07770880        0
O        4.07770880     -11.66331461       3.07770880        0
C        4.07770880      -9.40998127       4.84076171        0
H        2.98770880      -9.40998127       4.84076171        0
H        4.62270880     -10.29996255       5.15541761        0
H        4.62270880      -8.52000000       4.52610582        0
C        4.07770880      -9.40998127       1.31465590        0
H        5.16770880      -9.40998127       1.31465590        0
H        3.53270880     -10.29996255       1.00000000        0
H        3.53270880      -8.52000000       1.62931179        0
Si       4.07770880     -13.29331461       3.07770880        0
O        4.07770880     -14.92331461       3.07770880        0
C        2.83104214     -12.66998127       4.32437547        0
H        2.06029575     -12.66998127       3.55362908        0
H        2.99392002     -13.55996255       4.93224399        0
H        3.43891065     -11.78000000       4.48725335        0
C        5.32437547     -12.66998127       1.83104214        0
H        6.09512186     -12.66998127       2.60178853        0
H        5.16149759     -13.55996255       1.22317362        0
H        4.71650696     -11.78000000       1.66816426        0
Si       4.07770880     -16.55331461       3.07770880        0
O        4.07770880     -18.18331461       3.07770880        0
C        2.31465590     -15.92998127       3.07770880        0
H        2.31465590     -15.92998127       1.98770880        0
H        2.00000000     -16.81996255       3.62270880        0
H        2.62931179     -15.04000000       3.62270880        0
C        5.84076171     -15.92998127       3.07770880        0
H        5.84076171     -15.92998127       4.16770880        0
H        6.15541761     -16.81996255       2.53270880        0
H        5.52610582     -15.04000000       2.53270880        0
Si       4.07770880     -19.81331461       3.07770880        0
C        2.83104214     -19.18998127       1.83104214        0
H        3.60178853     -19.18998127       1.06029575        0
H        2.22317362     -20.07996255       1.99392002        0
H        2.66816426     -18.30000000       2.43891065        0
C        5.32437547     -19.18998127       4.32437547        0
H        4.55362908     -19.18998127       5.09512186        0
H        5.93224399     -20.07996255       4.16149759        0
H        5.48725335     -18.30000000       3.71650696        0
Si       9.57770880      -3.51331461       3.07770880        1
O        9.57770880      -5.14331461       3.07770880        1
C       11.34076171      -2.88998127       3.07770880        1
H       11.34076171      -2.88998127       4.16770880        1
H       11.65541761      -3.77996255       2.53270880        1
H       11.02610582      -2.00000000       2.53270880        1
C        7.81465590      -2.88998127       3.07770880        1
H        7.81465590      -2.88998127       1.98770880        1
H        7.50000000      -3.77996255       3.62270880        1
H        8.12931179      -2.00000000       3.62270880        1
Si       9.57770880      -6.77331461       3.07770880        1
O        9.57770880      -8.40331461       3.07770880        1
C       10.82437547      -6.14998127       4.32437547        1
H       10.05362908      -6.14998127       5.09512186        1
H       11.43224399      -7.03996255       4.16149759        1
H       10.98725335      -5.26000000       3.71650696        1
C        8.33104214      -6.14998127       1.83104214        1
H        9.10178853      -6.14998127       1.06029575        1
H        7.72317362      -7.03996255       1.99392002        1
H        8.16816426      -5.26000000       2.43891065        1
Si       9.57770880     -10.03331461       3.07770880        1
O        9.57770880     -11.66331461       3.07770880        1
C        9.57770880      -9.40998127       4.84076171        1
H        8.48770880      -9.40998127       4.84076171        1
H       10.12270880     -10.29996255       5.15541761        1
H       10.12270880      -8.52000000       4.52610582        1
C        9.57770880      -9.40998127       1.31465590        1
H       10.66770880      -9.40998127       1.31465590        1
H        9.03270880     -10.29996255       1.00000000        1
H        9.03270880      -8.52000000       1.62931179        1
Si       9.57770880     -13.29331461       3.07770880        1
O        9.57770880     -14.92331461       3.07770880        1
C        8.33104214     -12.66998127       4.32437547        1
H        7.56029575     -12.66998127       3.55362908        1
H        8.49392002     -13.55996255       4.93224399        1
H        8.93891065     -11.78000000       4.48725335        1
C       10.82437547     -12.66998127       1.83104214        1
H       11.59512186     -12.66998127       2.60178853        1
H       10.66149759     -13.55996255       1.22317362        1
H       10.21650696     -11.78000000       1.66816426        1
Si       9.57770880     -16.55331461       3.07770880        1
O        9.57770880     -18.18331461       3.07770880        1
C        7.81465590     -15.92998127       3.07770880        1
H        7.81465590     -15.92998127       1.98770880        1
H        7.50000000     -16.81996255       3.62270880        1
H        8.12931179     -15.04000000       3.62270880        1
C       11.34076171     -15.92998127       3.07770880        1
H       11.34076171     -15.92998127       4.16770880        1
H       11.65541761     -16.81996255       2.53270880        1
H       11.02610582     -15.04000000       2.53270880        1
Si       9.57770880     -19.81331461       3.07770880        1
C        8.33104214     -19.18998127       1.83104214        1
H        9.10178853     -19.18998127       1.06029575        1
H        7.72317362     -20.07996255       1.99392002        1
H        8.16816426     -18.30000000       2.43891065        1
C       10.82437547     -19.18998127       4.32437547        1
H       10.05362908     -19.18998127       5.09512186        1
H       11.43224399     -20.07996255       4.16149759        1
H       10.98725335     -18.30000000       3.71650696        1
Si      15.07770880      -3.51331461       3.07770880        2
O       15.07770880      -5.14331461       3.07770880        2
C       16.84076171      -2.88998127       3.07770880        2
H       16.84076171      -2.88998127       4.16770880        2
H       17.15541761      -3.77996255       2.53270880        2
H       16.52610582      -2.00000000       2.53270880        2
C       13.31465590      -2.88998127       3.07770880        2
H       13.31465590      -2.88998127       1.98770880        2
H       13.00000000      -3.77996255       3.62270880        2
H       13.62931179      -2.00000000       3.62270880        2
Si      15.07770880      -6.77331461       3.07770880        2
O       15.07770880      -8.40331461       3.07770880        2
C       16.32437547      -6.14998127       4.32437547        2
H       15.55362908      -6.14998127       5.09512186        2
H       16.93224399      -7.03996255       4.16149759        2
H       16.48725335      -5.26000000       3.71650696        2
C       13.83104214      -6.14998127       1.83104214        2
H       14.60178853      -6.14998127       1.06029575        2
H       13.22317362      -7.03996255       1.99392002        2
H       13.66816426      -5.26000000       2.43891065        2
Si      15.07770880     -10.03331461       3.07770880        2
O       15.07770880     -11.66331461       3.07770880        2
C       15.07770880      -9.40998127       4.84076171        2
H       13.98770880      -9.40998127       4.84076171        2
H       15.62270880     -10.29996255       5.15541761        2
H       15.62270880      -8.52000000       4.52610582        2
C       15.07770880      -9.40998127       1.31465590        2
H       16.16770880      -9.40998127       1.31465590        2
H       14.53270880     -10.29996255       1.00000000        2
H       14.53270880      -8.52000000       1.62931179        2
Si      15.07770880     -13.29331461       3.07770880        2
O       15.07770880     -14.92331461       3.07770880        2
C       13.83104214     -12.66998127       4.32437547        2
H       13.06029575     -12.66998127       3.55362908        2
H       13.99392002     -13.55996255       4.93224399        2
H       14.43891065     -11.78000000       4.48725335        2
C       16.32437547     -12.66998127       1.83104214        2
H       17.09512186     -12.66998127       2.60178853        2
H       16.16149759     -13.55996255       1.22317362        2
H       15.71650696     -11.78000000       1.66816426        2
Si      15.07770880     -16.55331461       3.07770880        2
O       15.07770880     -18.18331461       3.07770880        2
C       13.31465590     -15.92998127       3.07770880        2
H       13.31465590     -15.92998127       1.98770880        2
H       13.00000000     -16.81996255       3.62270880        2
H       13.62931179     -15.04000000       3.62270880        2
C       16.84076171     -15.92998127       3.07770880        2
H       16.84076171     -15.92998127       4.16770880        2
H       17.15541761     -16.81996255       2.53270880        2
H       16.52610582     -15.04000000       2.53270880        2
Si      15.07770880     -19.81331461       3.07770880        2
C       13.83104214     -19.18998127       1.83104214        2
H       14.60178853     -19.18998127       1.06029575        2
H       13.22317362     -20.07996255       1.99392002        2
H       13.66816426     -18.30000000       2.43891065        2
C       16.32437547     -19.18998127       4.32437547        2
H       15.55362908     -19.18998127       5.09512186        2
H       16.93224399     -20.07996255       4.16149759        2
H       16.48725335     -18.30000000       3.71650696        2
Si       6.82770880      -3.51331461       7.84084853        3
O        6.82770880      -5.14331461       7.84084853        3
C        8.59076171      -2.88998127       7.84084853        3
H        8.59076171      -2.88998127       8.93084853        3
H        8.90541761      -3.77996255       7.29584853        3
H        8.27610582      -2.00000000       7.29584853        3
C        5.06465590      -2.88998127       7.84084853        3
H        5.06465590      -2.88998127       6.75084853        3
H        4.75000000      -3.77996255       8.38584853        3
H        5.37931179      -2.00000000       8.38584853        3
Si       6.82770880      -6.77331461       7.84084853        3
O        6.82770880      -8.40331461       7.84084853        3
C        8.07437547      -6.14998127       9.08751519        3
H        7.30362908      -6.14998127       9.85826158        3
H        8.68224399      -7.03996255       8.92463731        3
H        8.23725335      -5.26000000       8.47964668        3
C        5.58104214      -6.14998127       6.59418186        3
H        6.35178853      -6.14998127       5.82343547        3
H        4.97317362      -7.03996255       6.75705974        3
H        5.41816426      -5.26000000       7.20205037        3
Si       6.82770880     -10.03331461       7.84084853        3
O        6.82770880     -11.66331461       7.84084853        3
C        6.82770880      -9.40998127       9.60390143        3
H        5.73770880      -9.40998127       9.60390143        3
H        7.37270880     -10.29996255       9.91855733        3
H        7.37270880      -8.52000000       9.28924554        3
C        6.82770880      -9.40998127       6.07779562        3
H        7.91770880      -9.40998127       6.07779562        3
H        6.28270880     -10.29996255       5.76313972        3
H        6.28270880      -8.52000000       6.39245151        3
Si       6.82770880     -13.29331461       7.84084853        3
O        6.82770880     -14.92331461       7.84084853        3
C        5.58104214     -12.66998127       9.08751519        3
H        4.81029575     -12.66998127       8.31676880        3
H        5.74392002     -13.55996255       9.69538371        3
H        6.18891065     -11.78000000       9.25039307        3
C        8.07437547     -12.66998127       6.59418186        3
H        8.84512186     -12.66998127       7.36492825        3
H        7.91149759     -13.55996255       5.98631334        3
H        7.46650696     -11.78000000       6.43130398        3
Si       6.82770880     -16.55331461       7.84084853        3
O        6.82770880     -18.18331461       7.84084853        3
C        5.06465590     -15.92998127       7.84084853        3
H        5.06465590     -15.92998127       6.75084853        3
H        4.75000000     -16.81996255       8.38584853        3
H        5.37931179     -15.04000000       8.38584853        3
C        8.59076171     -15.92998127       7.84084853        3
H        8.59076171     -15.92998127       8.93084853        3
H        8.90541761     -16.81996255       7.29584853        3
H        8.27610582     -15.04000000       7.29584853        3
Si       6.82770880     -19.81331461       7.84084853        3
C        5.58104214     -19.18998127       6.59418186        3
H        6.35178853     -19.18998127       5.82343547        3
H        4.97317362     -20.07996255       6.75705974        3
H        5.41816426     -18.30000000       7.20205037        3
C        8.98499517     -19.18998127       8.33236714        3
H        9.59286369     -20.07996255       8.16948927        3
H        9.14787305     -18.30000000       7.72449863        3
Si      12.32770880      -3.51331461       7.84084853        4
O       12.32770880      -5.14331461       7.84084853        4
C       14.09076171      -2.88998127       7.84084853        4
H       14.09076171      -2.88998127       8.93084853        4
H       14.40541761      -3.77996255       7.29584853        4
H       13.77610582      -2.00000000       7.29584853        4
C       10.56465590      -2.88998127       7.84084853        4
H       10.56465590      -2.88998127       6.75084853        4
H       10.25000000      -3.77996255       8.38584853        4
H       10.87931179      -2.00000000       8.38584853        4
Si      12.32770880      -6.77331461       7.84084853        4
O       12.32770880      -8.40331461       7.84084853        4
C       13.57437547      -6.14998127       9.08751519        4
H       12.80362908      -6.14998127       9.85826158        4
H       14.18224399      -7.03996255       8.92463731        4
H       13.73725335      -5.26000000       8.47964668        4
C       11.08104214      -6.14998127       6.59418186        4
H       11.85178853      -6.14998127       5.82343547        4
H       10.47317362      -7.03996255       6.75705974        4
H       10.91816426      -5.26000000       7.20205037        4
Si      12.32770880     -10.03331461       7.84084853        4
O       12.32770880     -11.66331461       7.84084853        4
C       12.32770880      -9.40998127       9.60390143        4
H       11.23770880      -9.40998127       9.60390143        4
H       12.87270880     -10.29996255       9.91855733        4
H       12.87270880      -8.52000000       9.28924554        4
C       12.32770880      -9.40998127       6.07779562        4
H       13.41770880      -9.40998127       6.07779562        4
H       11.78270880     -10.29996255       5.76313972        4
H       11.78270880      -8.52000000       6.39245151        4
Si      12.32770880     -13.29331461       7.84084853        4
O       12.32770880     -14.92331461       7.84084853        4
C       11.08104214     -12.66998127       9.08751519        4
H       10.31029575     -12.66998127       8.31676880        4
H       11.24392002     -13.55996255       9.69538371        4
H       11.68891065     -11.78000000       9.25039307        4
C       14.48499517     -12.66998127       7.34932991        4
H       14.32211730     -13.55996255       6.74146139        4
H       13.87712666     -11.78000000       7.18645203        4
Si      12.32770880     -16.55331461       7.84084853        4
O       12.32770880     -18.18331461       7.84084853        4
C       10.56465590     -15.92998127       7.84084853        4
H       10.56465590     -15.92998127       6.75084853        4
H       10.25000000     -16.81996255       8.38584853        4
H       10.87931179     -15.04000000       8.38584853        4
C       14.09076171     -15.92998127       7.84084853        4
H       14.09076171     -15.92998127       8.93084853        4
H       14.40541761     -16.81996255       7.29584853        4
H       13.77610582     -15.04000000       7.29584853        4
Si      12.32770880     -19.81331461       7.84084853        4
C       10.17042243     -19.18998127       7.34932991        4
H        9.56255392     -20.07996255       7.51220778        4
H       10.00754456     -18.30000000       7.95719842        4
C       13.57437547     -19.18998127       9.08751519        4
H       12.80362908     -19.18998127       9.85826158        4
H       14.18224399     -20.07996255       8.92463731        4
H       13.73725335     -18.30000000       8.47964668        4
Si      17.82770880      -3.51331461       7.84084853        5
O       17.82770880      -5.14331461       7.84084853        5
C       19.59076171      -2.88998127       7.84084853        5
H       19.59076171      -2.88998127       8.93084853        5
H       19.90541761      -3.77996255       7.29584853        5
H       19.27610582      -2.00000000       7.29584853        5
C       16.06465590      -2.88998127       7.84084853        5
H       16.06465590      -2.88998127       6.75084853        5
H       15.75000000      -3.77996255       8.38584853        5
H       16.37931179      -2.00000000       8.38584853        5
Si      17.82770880      -6.77331461       7.84084853        5
O       17.82770880      -8.40331461       7.84084853        5
C       19.07437547      -6.14998127       9.08751519        5
H       18.30362908      -6.14998127       9.85826158        5
H       19.68224399      -7.03996255       8.92463731        5
H       19.23725335      -5.26000000       8.47964668        5
C       16.58104214      -6.14998127       6.59418186        5
H       17.35178853      -6.14998127       5.82343547        5
H       15.97317362      -7.03996255       6.75705974        5
H       16.41816426      -5.26000000       7.20205037        5
Si      17.82770880     -10.03331461       7.84084853        5
O       17.82770880     -11.66331461       7.84084853        5
C       17.82770880      -9.40998127       9.60390143        5
H       16.73770880      -9.40998127       9.60390143        5
H       18.37270880     -10.29996255       9.91855733        5
H       18.37270880      -8.52000000       9.28924554        5
C       17.82770880      -9.40998127       6.07779562        5
H       18.91770880      -9.40998127       6.07779562        5
H       17.28270880     -10.29996255       5.76313972        5
H       17.28270880      -8.52000000       6.39245151        5
Si      17.82770880     -13.29331461       7.84084853        5
O       17.82770880     -14.92331461       7.84084853        5
C       15.67042243     -12.66998127       8.33236714        5
H       15.83330031     -13.55996255       8.94023566        5
H       16.27829095     -11.78000000       8.49524502        5
C       19.07437547     -12.66998127       6.59418186        5
H       19.84512186     -12.66998127       7.36492825        5
H       18.91149759     -13.55996255       5.98631334        5
H       18.46650696     -11.78000000       6.43130398        5
Si      17.82770880     -16.55331461       7.84084853        5
O       17.82770880     -18.18331461       7.84084853        5
C       16.06465590     -15.92998127       7.84084853        5
H       16.06465590     -15.92998127       6.75084853        5
H       15.75000000     -16.81996255       8.38584853        5
H       16.37931179     -15.04000000       8.38584853        5
C       19.59076171     -15.92998127       7.84084853        5
H       19.59076171     -15.92998127       8.93084853        5
H       19.90541761     -16.81996255       7.29584853        5
H       19.27610582     -15.04000000       7.29584853        5
Si      17.82770880     -19.81331461       7.84084853        5
C       16.58104214     -19.18998127       6.59418186        5
H       17.35178853     -19.18998127       5.82343547        5
H       15.97317362     -20.07996255       6.75705974        5
H       16.41816426     -18.30000000       7.20205037        5
C       19.07437547     -19.18998127       9.08751519        5
H       18.30362908     -19.18998127       9.85826158        5
H       19.68224399     -20.07996255       8.92463731        5
H       19.23725335     -18.30000000       8.47964668        5
Si       4.07770880      -3.51331461      12.60398825        6
O        4.07770880      -5.14331461      12.60398825        6
C        5.84076171      -2.88998127      12.60398825        6
H        5.84076171      -2.88998127      13.69398825        6
H        6.15541761      -3.77996255      12.05898825        6
H        5.52610582      -2.00000000      12.05898825        6
C        2.31465590      -2.88998127      12.60398825        6
H        2.31465590      -2.88998127      11.51398825        6
H        2.00000000      -3.77996255      13.14898825        6
H        2.62931179      -2.00000000      13.14898825        6
Si       4.07770880      -6.77331461      12.60398825        6
O        4.07770880      -8.40331461      12.60398825        6
C        5.32437547      -6.14998127      13.85065491        6
H        4.55362908      -6.14998127      14.62140130        6
H        5.93224399      -7.03996255      13.68777704        6
H        5.48725335      -5.26000000      13.24278640        6
C        2.83104214      -6.14998127      11.35732158        6
H        3.60178853      -6.14998127      10.58657519        6
H        2.22317362      -7.03996255      11.52019946        6
H        2.66816426      -5.26000000      11.96519009        6
Si       4.07770880     -10.03331461      12.60398825        6
O        4.07770880     -11.66331461      12.60398825        6
C        4.07770880      -9.40998127      14.36704115        6
H        2.98770880      -9.40998127      14.36704115        6
H        4.62270880     -10.29996255      14.68169705        6
H        4.62270880      -8.52000000      14.05238526        6
C        4.07770880      -9.40998127      10.84093534        6
H        5.16770880      -9.40998127      10.84093534        6
H        3.53270880     -10.29996255      10.52627944        6
H        3.53270880      -8.52000000      11.15559124        6
Si       4.07770880     -13.29331461      12.60398825        6
O        4.07770880     -14.92331461      12.60398825        6
C        2.83104214     -12.66998127      13.85065491        6
H        2.06029575     -12.66998127      13.07990852        6
H        2.99392002     -13.55996255      14.45852343        6
H        3.43891065     -11.78000000      14.01353279        6
C        5.32437547     -12.66998127      11.35732158        6
H        6.09512186     -12.66998127      12.12806797        6
H        5.16149759     -13.55996255      10.74945307        6
H        4.71650696     -11.78000000      11.19444370        6
Si       4.07770880     -16.55331461      12.60398825        6
O        4.07770880     -18.18331461      12.60398825        6
C        2.31465590     -15.92998127      12.60398825        6
H        2.31465590     -15.92998127      11.51398825        6
H        2.00000000     -16.81996255      13.14898825        6
H        2.62931179     -15.04000000      13.14898825        6
C        5.84076171     -15.92998127      12.60398825        6
H        5.84076171     -15.92998127      13.69398825        6
H        6.15541761     -16.81996255      12.05898825        6
H        5.52610582     -15.04000000      12.05898825        6
Si       4.07770880     -19.81331461      12.60398825        6
C        2.83104214     -19.18998127      11.35732158        6
H        3.60178853     -19.18998127      10.58657519        6
H        2.22317362     -20.07996255      11.52019946        6
H        2.66816426     -18.30000000      11.96519009        6
C        5.32437547     -19.18998127      13.85065491        6
H        4.55362908     -19.18998127      14.62140130        6
H        5.93224399     -20.07996255      13.68777704        6
H        5.48725335     -18.30000000      13.24278640        6
Si       9.57770880      -3.51331461      12.60398825        7
O        9.57770880      -5.14331461      12.60398825        7
C       11.34076171      -2.88998127      12.60398825        7
H       11.34076171      -2.88998127      13.69398825        7
H       11.65541761      -3.77996255      12.05898825        7
H       11.02610582      -2.00000000      12.05898825        7
C        7.81465590      -2.88998127      12.60398825        7
H        7.81465590      -2.88998127      11.51398825        7
H        7.50000000      -3.77996255      13.14898825        7
H        8.12931179      -2.00000000      13.14898825        7
Si       9.57770880      -6.77331461      12.60398825        7
O        9.57770880      -8.40331461      12.60398825        7
C       10.82437547      -6.14998127      13.85065491        7
H       10.05362908      -6.14998127      14.62140130        7
H       11.43224399      -7.03996255      13.68777704        7
H       10.98725335      -5.26000000      13.24278640        7
C        8.33104214      -6.14998127      11.35732158        7
H        9.10178853      -6.14998127      10.58657519        7
H        7.72317362      -7.03996255      11.52019946        7
H        8.16816426      -5.26000000      11.96519009        7
Si       9.57770880     -10.03331461      12.60398825        7
O        9.57770880     -11.66331461      12.60398825        7
C        9.57770880      -9.40998127      14.36704115        7
H        8.48770880      -9.40998127      14.36704115        7
H       10.12270880     -10.29996255      14.68169705        7
H       10.12270880      -8.52000000      14.05238526        7
C        9.57770880      -9.40998127      10.84093534        7
H       10.66770880      -9.40998127      10.84093534        7
H        9.03270880     -10.29996255      10.52627944        7
H        9.03270880      -8.52000000      11.15559124        7
Si       9.57770880     -13.29331461      12.60398825        7
O        9.57770880     -14.92331461      12.60398825        7
C        8.33104214     -12.66998127      13.85065491        7
H        7.56029575     -12.66998127      13.07990852        7
H        8.49392002     -13.55996255      14.45852343        7
H        8.93891065     -11.78000000      14.01353279        7
C       10.82437547     -12.66998127      11.35732158        7
H       11.59512186     -12.66998127      12.12806797        7
H       10.66149759     -13.55996255      10.74945307        7
H       10.21650696     -11.78000000      11.19444370        7
Si       9.57770880     -16.55331461      12.60398825        7
O        9.57770880     -18.18331461      12.60398825        7
C        7.81465590     -15.92998127      12.60398825        7
H        7.81465590     -15.92998127      11.51398825        7
H        7.50000000     -16.81996255      13.14898825        7
H        8.12931179     -15.04000000      13.14898825        7
C       11.34076171     -15.92998127      12.60398825        7
H       11.34076171     -15.92998127      13.69398825        7
H       11.65541761     -16.81996255      12.05898825        7
H       11.02610582     -15.04000000      12.05898825        7
Si       9.57770880     -19.81331461      12.60398825        7
C        8.33104214     -19.18998127      11.35732158        7
H        9.10178853     -19.18998127      10.58657519        7
H        7.72317362     -20.07996255      11.52019946        7
H        8.16816426     -18.30000000      11.96519009        7
C       10.82437547     -19.18998127      13.85065491        7
H       10.05362908     -19.18998127      14.62140130        7
H       11.43224399     -20.07996255      13.68777704        7
H       10.98725335     -18.30000000      13.24278640        7
Si      15.07770880      -3.51331461      12.60398825        8
O       15.07770880      -5.14331461      12.60398825        8
C       16.84076171      -2.88998127      12.60398825        8
H       16.84076171      -2.88998127      13.69398825        8
H       17.15541761      -3.77996255      12.05898825        8
H       16.52610582      -2.00000000      12.05898825        8
C       13.31465590      -2.88998127      12.60398825        8
H       13.31465590      -2.88998127      11.51398825        8
H       13.00000000      -3.77996255      13.14898825        8
H       13.62931179      -2.00000000      13.14898825        8
Si      15.07770880      -6.77331461      12.60398825        8
O       15.07770880      -8.40331461      12.60398825        8
C       16.32437547      -6.14998127      13.85065491        8
H       15.55362908      -6.14998127      14.62140130        8
H       16.93224399      -7.03996255      13.68777704        8
H       16.48725335      -5.26000000      13.24278640        8
C       13.83104214      -6.14998127      11.35732158        8
H       14.60178853      -6.14998127      10.58657519        8
H       13.22317362      -7.03996255      11.52019946        8
H       13.66816426      -5.26000000      11.96519009        8
Si      15.07770880     -10.03331461      12.60398825        8
O       15.07770880     -11.66331461      12.60398825        8
C       15.07770880      -9.40998127      14.36704115        8
H       13.98770880      -9.40998127      14.36704115        8
H       15.62270880     -10.29996255      14.68169705        8
H       15.62270880      -8.52000000      14.05238526        8
C       15.07770880      -9.40998127      10.84093534        8
H       16.16770880      -9.40998127      10.84093534        8
H       14.53270880     -10.29996255      10.52627944        8
H       14.53270880      -8.52000000      11.15559124        8
Si      15.07770880     -13.29331461      12.60398825        8
O       15.07770880     -14.92331461      12.60398825        8
C       13.83104214     -12.66998127      13.85065491        8
H       13.06029575     -12.66998127      13.07990852        8
H       13.99392002     -13.55996255      14.45852343        8
H       14.43891065     -11.78000000      14.01353279        8
C       16.32437547     -12.66998127      11.35732158        8
H       17.09512186     -12.66998127      12.12806797        8
H       16.16149759     -13.55996255      10.74945307        8
H       15.71650696     -11.78000000      11.19444370        8
Si      15.07770880     -16.55331461      12.60398825        8
O       15.07770880     -18.18331461      12.60398825        8
C       13.31465590     -15.92998127      12.60398825        8
H       13.31465590     -15.92998127      11.51398825        8
H       13.00000000     -16.81996255      13.14898825        8
H       13.62931179     -15.04000000      13.14898825        8
C       16.84076171     -15.92998127      12.60398825        8
H       16.84076171     -15.92998127      13.69398825        8
H       17.15541761     -16.81996255      12.05898825        8
H       16.52610582     -15.04000000      12.05898825        8
Si      15.07770880     -19.81331461      12.60398825        8
C       13.83104214     -19.18998127      11.35732158        8
H       14.60178853     -19.18998127      10.58657519        8
H       13.22317362     -20.07996255      11.52019946        8
H       13.66816426     -18.30000000      11.96519009        8
C       16.32437547     -19.18998127      13.85065491        8
H       15.55362908     -19.18998127      14.62140130        8
H       16.93224399     -20.07996255      13.68777704        8
H       16.48725335     -18.30000000      13.24278640        8
