523
 Atoms. Timestep: 100289
Si -0.438584 4.15278 4.26667
O 1.88318 6.22512 9.09301
C 19.0216 13.6406 14.2006
H 1.74184 13.7973 10.1884
H 19.2603 14.482 14.8395
H 17.7243 4.52651 2.3349
C 3.70078 4.75515 4.80663
H 3.56066 17.7882 12.316
H 6.7551 6.73386 18.2295
H 14.7016 13.2112 14.3885
Si 3.00118 5.4065 6.37075
O 19.6482 4.82786 5.06854
C 14.8953 4.46008 6.58353
H 18.8698 12.7482 14.8429
H 18.8352 15.8238 8.28443
H 12.1443 17.1941 18.8934
C 5.72563 6.14353 12.2845
H 2.44437 8.02378 8.67901
H 0.0327349 9.97977 -0.343781
H 5.83935 6.92496 13.046
Si -0.0736112 6.62075 6.32543
O 2.74755 4.12983 7.57772
C 2.41591 7.0905 8.0959
H 9.06609 16.5443 14.4921
H 22.3258 10.8215 10.0693
H 16.2673 19.0245 8.34255
C 6.46835 7.34142 19.1453
H 14.9367 5.27321 9.83655
H 7.87256 3.07356 6.35589
H 19.7894 0.840725 7.21911
Si 1.86838 4.62246 8.88146
O 0.252893 4.30639 8.48209
C 1.63996 6.94751 6.81475
H 13.2722 15.7794 12.6238
H 7.90161 1.74476 1.97345
H 2.6516 3.96583 14.7712
C 2.40944 4.49746 4.84581
H 10.7502 16.3905 5.05598
H 13.6326 16.3253 8.51858
H 5.67636 0.621646 17.8107
Si -0.463689 3.52612 7.22691
O 0.516668 2.35226 6.66534
C 11.2124 2.29798 9.6495
H 1.60112 14.7628 12.6772
H 6.56422 15.7846 19.1381
H 20.5578 4.43054 7.95559
C 1.3591 3.62126 4.27723
H 21.3425 14.6462 2.5234
H 5.72272 4.10542 4.50045
H 2.41421 15.0366 9.11399
Si 1.41224 2.02261 5.27349
C 9.49859 4.9666 17.2348
H 16.7272 0.491481 13.6656
H 1.43539 8.17937 14.0324
H 9.13113 3.92852 17.4719
C 20.8765 3.43761 7.28413
H 7.50325 2.12024 4.84349
H 5.82159 3.90478 18.6127
H 10.2408 19.2099 -0.269466
Si -0.252229 19.0151 4.96747
O 1.84798 18.8849 2.30361
C 1.18956 16.853 6.18708
H 6.61011 6.13659 11.6355
H 4.23933 0.86219 16.7176
H 5.74864 0.11927 16.0537
C 5.3473 0.846562 16.7776
H 6.5052 9.24621 0.480141
H 9.9411 15.3609 6.32333
H 18.6458 18.5103 18.045
Si 1.16357 0.282316 2.51963
O 0.181454 16.9549 2.43495
C 4.62327 17.5453 12.2885
H 12.9923 13.1512 19.8434
H 4.76558 16.6 11.7726
H 5.17768 18.3395 11.7481
C 1.00312 0.420324 4.41098
H 4.82487 11.8412 5.40147
H 1.88347 -0.184733 4.69024
H 7.63377 0.604528 9.7987
Si -0.482475 16.2191 3.79315
O 22.2887 11.5568 3.54594
C 22.2318 14.4963 3.03689
H 6.77846 10.9578 15.8987
H 5.48238 13.2323 12.9159
H -0.0667678 14.3465 2.32833
C 5.03849 15.6012 -0.434999
H 15.8604 13.2169 1.7756
H 10.8983 6.48407 13.4298
H 11.0207 19.2877 16.4069
Si 20.9169 11.4226 4.42833
O 19.8247 10.3225 4.62191
C 18.6923 0.744835 3.49911
H 16.8236 3.64826 19.241
H 9.5778 6.42145 12.2344
H 9.75248 5.39173 5.80121
C 6.64618 16.1814 1.23829
H 5.29352 16.9158 18.9206
H 7.2169 16.4168 2.13433
Si 18.8712 8.93984 3.95772
O 21.0812 12.8908 5.12606
C 7.26919 2.17543 5.89726
H 1.34474 4.98657 14.0653
H 10.9649 4.48667 3.91933
H 6.19743 2.39581 6.0559
C 18.8107 7.92948 12.8119
H 19.6381 7.36904 13.2673
H 18.7275 7.60201 11.7663
H 0.0127066 2.4824 19.7885
Si 22.5611 13.138 4.16279
C 16.5231 12.3716 1.95112
H 15.7768 16.2652 13.6064
H 2.10358 6.90231 18.6387
H 8.12142 10.151 0.152718
C 12.3669 1.93791 10.6148
H 6.70337 10.0616 10.2895
H 12.8499 0.973435 10.3987
H 13.1706 2.67895 10.4927
Si 11.3076 11.2781 19.8397
O 6.29898 11.4779 15.2379
C 1.79193 4.55453 15.0564
H 2.11278 5.40155 15.7267
H 0.573683 11.7816 10.2779
H 1.18097 8.70964 13.5619
C 1.83745 1.53161 1.21128
H 2.09552 2.60487 1.41507
H 16.9567 12.5638 6.04644
H 12.0439 1.93903 11.6651
Si 9.6521 10.8135 17.6039
O -0.307245 4.94974 5.91192
C 2.71653 0.927762 0.0996698
H 3.63951 1.33111 0.29587
H 2.15782 1.04699 20.2236
H 7.20206 9.4396 4.01607
C 12.1564 10.1098 18.5472
H 18.6472 9.71285 2.67043
H 1.82231 14.0553 18.5541
H 16.9044 12.3699 11.7757
Si 6.61757 13.8846 3.13018
O 21.6658 3.02091 4.69033
C 5.10124 14.443 2.02081
H 19.0712 0.375366 11.0151
H 6.01203 11.879 0.320938
H 4.69665 13.5337 1.49293
C 8.0301 13.1603 2.16571
H 8.83223 12.9302 2.88373
H 20.4793 2.58949 7.86975
H 4.34584 6.12658 8.47493
Si 3.36155 15.154 20.1478
O 9.95544 11.7306 18.9608
C 5.58167 15.4258 0.902282
H 20.9475 14.1067 -0.390044
H 11.7418 0.762965 16.9111
C 1.4784 17.2017 -0.121237
H 17.6249 9.16527 4.78029
H 0.746025 16.3601 -0.166879
H 15.7958 11.727 17.4329
Si 4.50007 11.0246 19.8542
O 6.98198 15.2674 4.10689
C 7.89415 0.696118 1.64114
H 8.49784 0.599124 0.719543
H 8.37377 0.0822057 2.3877
H 10.5191 1.4555 9.48613
C 7.03116 9.94709 -0.282666
H 19.2544 6.18792 19.0792
H 9.12309 6.63351 15.9072
H 20.3319 14.6277 -0.499637
Si 7.42468 9.01674 19.2674
C 5.27541 6.32576 0.131007
H 6.14191 6.01147 0.702897
H 19.7947 5.70906 19.3469
H 4.27792 6.26829 0.535989
C 5.73435 9.73104 9.89511
H 13.5019 16.4568 15.9667
H 5.63905 10.1261 8.87981
H 5.69535 8.63558 9.89388
Si 1.40616 14.1423 5.21467
O 0.702969 18.0513 6.17275
C 8.45578 9.47881 17.9315
H 11.599 8.73451 12.4103
H 17.8368 17.2969 1.58816
H 13.2687 1.7371 7.89756
C 1.04319 16.0187 5.02746
H 4.9267 10.1193 10.5231
H 0.160545 10.0955 0.353731
H 9.5494 16.4654 13.9214
Si 1.60598 17.2555 1.74351
O 2.82298 16.3537 2.40827
C 2.52355 16.7913 19.8417
H 3.24801 17.5168 19.784
H 21.8619 0.759026 9.8339
H 1.89487 16.7842 18.8507
C 14.4697 7.48536 1.83024
H 15.3931 8.00625 2.10901
H -0.532832 3.33843 12.9418
H 19.7322 15.2815 4.32596
Si 3.70832 15.1623 3.17126
O 4.52352 16.0253 4.38291
C 3.87584 6.67608 7.63519
H 14.6307 5.55503 17.6215
H 15.6063 6.38921 18.8738
H 13.6386 7.95657 2.34442
C 0.426434 0.868212 0.974836
H -0.100248 8.5351 10.2961
H 16.9205 6.19284 13.8347
H 19.6713 2.99407 13.1434
Si 5.80254 15.5895 5.27824
O 5.70034 14.1236 6.06403
C 6.2858 17.0591 6.37901
H 10.0371 12.9477 8.06472
H 6.20383 17.9678 5.77011
H 5.58436 17.0577 7.22268
C 17.8139 18.7388 18.6917
H 18.0751 19.57 19.3459
H 11.8042 7.37586 11.3081
H 16.9542 19.0086 18.0948
Si 5.98784 12.7402 5.13712
O 9.76431 10.6278 5.82221
C -0.168448 18.1156 17.3664
H 0.797988 18.5843 17.2384
H 7.57971 5.83301 16.4925
H 19.524 0.601478 2.80748
C 12.0959 12.739 9.99295
H 11.8609 13.7163 10.4427
H 5.02037 17.4846 13.3148
H 13.1879 12.6006 10.0061
Si 8.12251 10.5238 6.09482
C 7.53571 9.12712 5.01702
H 8.36485 8.414 4.89589
H 6.695 8.5666 5.45077
H 20.5027 4.70389 0.81584
C 17.8914 2.08693 3.20588
H 5.4221 5.78408 4.25175
H 13.2585 2.63461 20.2201
Si 3.68994 12.7742 17.5692
O 3.3503 11.9304 -0.322929
C 19.7161 15.2058 8.4992
H 19.9131 15.3936 9.56788
H 19.464 14.1411 8.41268
H 0.644075 14.6373 14.1706
C 2.83613 13.7102 18.9612
H 11.7396 4.11025 0.656807
H 14.9123 0.478587 0.511904
H 9.49609 5.5206 18.145
Si 20.6269 16.275 5.01909
O 1.46795 13.6833 6.83777
C 12.2643 12.729 20.5001
H 12.8745 12.4609 0.379402
H 18.105 13.8609 13.6063
H 11.5447 13.5245 -0.229405
C 7.66589 2.03417 13.1212
H 20.5638 18.2668 9.90141
H 2.99642 11.3388 15.7495
H 17.9225 9.63967 -0.482531
Si 0.461175 13.8301 8.10303
O 21.7749 -0.442499 6.01916
C 10.2411 7.09464 12.7926
H 2.89631 10.8657 12.7202
H 7.65451 12.2101 1.75934
H 8.64546 5.08151 15.1934
C -0.499799 12.3237 8.55371
H -0.0990165 11.578 7.85706
H 6.50973 4.17605 18.4563
H 21.5838 12.5212 8.12164
Si 20.2223 3.32923 5.51615
O 22.5221 15.0128 7.67723
C 21.0625 11.7107 18.6066
H 6.96498 11.9633 19.8396
H 18.245 16.8782 2.04884
H 21.0841 11.4251 19.6792
C 2.59486 13.0053 20.3822
H 1.55155 12.6058 20.5132
H 16.868 1.80683 2.91804
H 7.30496 16.951 6.75912
Si 21.1098 15.7753 7.38862
O 21.24 17.5022 7.64792
C 20.4512 3.68934 12.7927
H 2.404 -0.205159 14.7626
H 19.6042 0.906667 0.339825
H 20.6043 3.55559 11.7172
C 15.6862 0.163621 13.64
H 15.4851 19.5427 14.4503
H 2.9348 -0.261031 0.709273
H 14.9569 0.984088 13.6439
Si 20.5674 18.8006 6.81394
C 2.56822 12.2652 16.1711
H 1.61996 11.891 16.6023
H 2.31445 13.0253 15.419
C -0.437472 11.8301 9.97716
H 22.1794 12.4407 10.663
H 14.3801 7.51766 0.742584
H 16.1796 3.55984 18.8949
Si 20.2192 5.93052 4.02663
O 12.1832 4.22627 7.55412
C 21.7457 3.49857 13.4999
H 3.3485 6.18806 17.6897
H 9.62097 2.88312 13.1917
H 13.1887 10.425 18.5329
C 1.47632 14.5671 9.44876
H 9.12676 11.6718 16.574
H 8.14739 13.7739 14.5654
H 10.8246 9.31235 15.2501
Si 18.6639 3.32726 2.08365
O 4.24041 11.4291 18.3233
C 18.0852 -0.116182 7.90436
H 20.5356 -0.477304 -0.376703
H 2.46094 8.86166 4.28368
H 18.116 2.7166 0.779749
C 15.157 6.43496 17.875
H 14.4011 7.33109 17.8736
H 17.8358 -0.0230238 3.49587
H 2.56281 10.732 12.0588
Si 18.5072 1.75092 4.99176
O 2.10789 3.79582 10.2605
C 8.63603 5.66553 16.1762
H 9.60098 7.7028 13.4506
H 19.9875 4.68146 12.7833
H 7.03316 1.26621 13.5668
C 6.22159 11.2577 20.5031
H 11.1137 0.43031 3.66003
H -0.275845 7.31133 4.62563
H -0.496926 18.1977 18.4271
Si 21.9943 1.73915 0.730472
O 0.121353 3.37431 17.2557
C 21.1035 2.90662 19.1831
H 7.72015 1.34293 9.89671
H 7.53686 1.23098 6.38247
H 19.9526 2.7483 19.2455
C 22.088 2.43215 20.0521
H 15.9512 6.66068 17.1517
H 10.9058 18.9904 0.00327199
H 0.831225 15.3646 9.85109
Si 21.6101 3.29289 17.4518
O 10.7443 10.0564 -0.127595
C 1.86322 0.679655 14.8026
H 20.1026 12.0991 18.2993
H 10.7184 9.35276 10.179
H 6.60504 3.46536 -0.0633342
C 16.2585 3.85037 10.4966
H 7.20199 2.71473 12.4116
H 17.3286 12.3696 1.20458
H 21.9599 5.85532 2.35536
Si 20.3159 -0.253653 9.70201
C 19.5651 7.421 3.88255
H 17.1349 11.8473 6.00962
H 17.2668 12.7421 11.137
H 16.9567 12.4504 2.95633
C 19.564 -0.00729098 7.87422
H 4.82081 6.3549 11.7031
H 4.06963 13.2064 13.9728
H 8.22507 8.6947 17.1271
Si 11.9191 2.68237 7.90076
O 11.7789 -0.0577656 4.16208
C 8.93966 2.09162 13.5024
H 3.43885 7.91785 17.9208
H 10.2267 6.73988 3.82421
H 13.0326 17.0187 15.8394
C 5.79694 6.85888 20.1307
H 11.6301 11.9944 10.6593
H 1.26183 16.2291 13.6653
H 3.37851 10.3758 4.01112
Si 11.9146 0.248359 5.79145
O 11.5281 18.9464 6.63965
C 14.4154 2.45763 16.447
H 13.7839 2.45849 15.5519
H 14.4616 1.44072 16.8562
H 15.4303 2.77871 16.1865
C 11.179 1.78975 6.41659
H 10.0935 1.68552 6.64277
H 10.5737 3.12912 9.98663
H 11.173 2.5511 5.61114
Si 12.4843 18.3426 7.88622
O 13.9648 19.1871 7.72477
C 4.99495 4.79364 4.04563
H 4.93537 4.63181 2.96074
H 14.0051 3.13132 17.2141
H 9.84963 14.9264 17.6474
C 12.6849 16.4452 7.97814
H 15.9663 11.435 1.87625
H 12.3133 14.0569 2.77315
H 11.8915 16.1299 8.71088
Si 14.0488 0.460123 6.74433
O 15.6103 0.707545 6.41901
C 1.25669 1.71007 15.2422
H 11.6227 17.2778 19.3702
H -0.0717782 17.045 17.0824
H 21.6511 8.11842 7.89694
C 21.656 7.13147 7.38201
H 21.4228 6.54516 8.27051
H 10.7878 14.6272 4.96222
H 20.8035 7.12957 6.66158
Si 17.1645 1.22737 6.90469
O 16.9915 2.66381 7.76015
C 17.3341 18.9456 8.49714
H 16.3982 12.0709 17.6759
H 17.787 17.9891 8.87974
H 10.6513 4.27285 20.3351
C 20.5271 0.373101 0.669784
H 20.2194 -0.385734 1.95082
H 13.1276 6.16116 4.47995
H 15.5653 16.8022 13.1213
Si 15.9683 4.01496 7.81698
C 21.9404 3.38535 14.8582
H 0.717264 0.241167 0.106959
H 6.54255 2.79228 0.315176
H 0.960176 18.026 -0.490021
C 12.5373 3.37458 19.8258
H 12.1705 2.99723 18.8789
H 13.1061 4.29294 19.6226
Si 21.001 3.78942 1.89585
O 12.0043 8.78514 19.0438
C 11.5055 9.20444 16.0487
H 9.33764 1.40507 14.2503
H 11.2058 8.18361 16.4775
H 12.5589 9.20962 15.709
C 21.7663 5.16745 3.06517
H 0.373734 7.98848 10.5669
H 15.1216 4.12817 5.56565
H 16.1864 4.05387 11.5053
Si 11.1398 8.47688 20.5183
O 11.5882 11.0627 7.74705
C 10.8112 15.4784 5.66136
H 11.8087 18.2074 12.9607
H 14.5513 9.05208 5.14588
H 6.42979 17.0893 20.2359
C 11.3726 10.2517 17.209
H 2.11145 7.34817 16.9359
H 2.7801 1.67945 5.73036
H 11.7244 11.2407 16.7962
Si 12.4325 15.2073 6.59812
O 7.30919 11.915 5.67019
C 14.8067 0.0017743 1.51244
H 15.1747 19.049 1.44551
H 15.4878 0.549311 2.22126
H 13.7741 0.0376279 1.87001
C 19.6027 17.8059 5.44541
H 18.5951 17.648 5.87406
H 19.8532 13.4582 13.5062
H 19.4454 18.5061 4.59985
Si 11.2415 10.1537 6.40058
O 12.2952 13.7301 7.33591
C 10.9103 0.0632633 17.0748
H 9.94799 0.572473 16.8581
H 10.9219 -0.275772 18.1092
H 1.7927 16.4944 4.36586
C 12.6844 10.2609 5.22857
H 12.4155 9.97712 4.20002
H 13.1522 11.2488 5.14669
Si 11.4646 12.6011 8.27369
O 11.2118 8.51165 6.68734
C 18.0053 9.16668 19.7607
H 17.0659 8.5632 19.3367
H 18.913 9.32308 19.0466
H 22.2481 18.6267 16.698
C 2.8567 9.54637 3.52024
H 7.90984 10.3051 7.55785
H 3.54065 9.01464 2.84948
H 2.01033 9.94088 2.94316
Si 10.7808 5.71739 4.7659
C 11.3863 3.63375 -0.258184
H 10.8824 2.67832 0.0436792
H 6.86313 0.376157 1.51591
C 12.5151 6.15632 5.39137
H 10.5797 14.6506 17.7981
H 14.8395 17.9531 10.7525
H 19.8239 3.38349 15.7871
Si 17.1866 7.66714 13.7385
O 7.54552 13.9586 15.3059
C 15.7383 8.54426 12.909
H 15.7771 9.62895 13.0657
H 15.7093 8.33051 11.8329
H 14.7708 8.2144 13.3193
C 2.76945 13.8683 4.01248
H 5.63899 5.16771 12.7722
H 2.83199 12.8659 3.57732
H 12.2804 18.6449 13.383
Si 6.06342 13.1104 15.2971
O 1.62785 2.08735 11.9413
C 5.08735 13.6524 13.848
H 5.03472 14.7332 13.7855
H 16.9459 3.09452 10.3584
H 12.9677 15.7122 11.9422
C 5.24727 13.6711 16.9756
H 14.9037 13.5964 13.7616
H 4.91831 14.7123 16.7623
H 6.04326 13.7152 17.7232
Si 2.89577 2.89916 11.3892
O 4.25206 3.16384 11.9823
C 15.6863 4.53298 9.54986
H 12.6642 14.1148 3.33182
H 5.72537 1.84451 16.5036
H 8.33414 13.8053 1.33532
C 5.85838 16.3764 19.6705
H 1.73663 16.6397 7.10406
H 13.6705 15.2825 5.76584
H 17.5814 17.8627 19.3195
Si 12.6699 7.72723 6.43379
O 13.2149 6.7845 7.75421
C 13.7159 9.24308 5.85484
H 14.1884 9.70488 6.82378
H 15.5809 -0.379906 12.7162
C 2.76859 7.09351 17.7846
H 21.3244 10.8193 18.103
H 10.4941 4.8832 16.9116
H 4.02633 9.55128 19.9377
Si 13.3058 5.31918 6.85132
O 2.66142 14.1621 0.276751
C 20.8954 3.37255 15.8953
H 19.1026 8.99018 12.819
H 14.3033 17.6022 11.1386
H 1.72215 1.6245 12.7591
C 0.862184 15.2706 13.3034
H -0.0632284 15.4683 12.756
H 9.36418 9.2718 11.327
H 1.71074 3.31092 3.28522
Si 0.49373 3.31926 15.6661
C 11.0425 7.97859 11.8373
H 4.50117 7.54 7.37538
H 2.08598 7.7483 6.20472
H 17.3356 8.17908 15.1418
C 10.1394 8.67675 10.8166
H 9.62493 7.95364 10.1678
H 14.5912 6.44695 2.15026
H 21.762 12.4793 18.4559
