========================================== 
PDMS MACE Automated Workflow Started 
Model: mp / mh-1 
Head:  omat_pbe 
Started at: 2026/04/07 周二 22:35:08.34 
========================================== 
[INFO] silicone_slab.lmpdat not found. Generating from XYZ... 
 Network lammps_melting-quenching_cuequ-newimage_default  Creating
 Network lammps_melting-quenching_cuequ-newimage_default  Created

==========
== CUDA ==
==========

CUDA Version 12.9.0

Container image Copyright (c) 2016-2023, NVIDIA CORPORATION & AFFILIATES. All rights reserved.

This container image and its contents are governed by the NVIDIA Deep Learning Container License.
By pulling and using the container, you accept the terms and conditions of this license:
https://developer.nvidia.com/ngc/nvidia-deep-learning-container-license

A copy of this license is made available in this container at /NGC-DL-CONTAINER-LICENSE for your convenience.

Successfully converted /workspace/silicone_slab.xyz to /workspace/silicone_slab.lmpdat
Cell dimensions: 22.000 x 19.080 x 20.000 A
Elements found: ['C', 'H', 'O', 'Si']
Total atoms: 523
Initial density: 0.762 g/cm^3
Target density: 1.10 g/cm^3 (PDMS rubber)
[INFO] Raw model found at: mace_pretained_models/mace-mh-1.model 
[INFO] MLIAP PT model not found. Triggering conversion... 

==========
== CUDA ==
==========

CUDA Version 12.9.0

Container image Copyright (c) 2016-2023, NVIDIA CORPORATION & AFFILIATES. All rights reserved.

This container image and its contents are governed by the NVIDIA Deep Learning Container License.
By pulling and using the container, you accept the terms and conditions of this license:
https://developer.nvidia.com/ngc/nvidia-deep-learning-container-license

A copy of this license is made available in this container at /NGC-DL-CONTAINER-LICENSE for your convenience.

Failed to get GPU information from pynvml: Not Supported. Using default values for NVIDIA GeForce RTX 5090.
/workspace/convert_mace_to_mliap.py:59: UserWarning: Environment variable TORCH_FORCE_NO_WEIGHTS_ONLY_LOAD detected, since the`weights_only` argument was not explicitly passed to `torch.load`, forcing weights_only=False.
  model = torch.load(
/usr/local/lib/python3.10/dist-packages/mace/modules/models.py:85: UserWarning: To copy construct from a tensor, it is recommended to use sourceTensor.detach().clone() or sourceTensor.detach().clone().requires_grad_(True), rather than torch.tensor(sourceTensor).
  "atomic_numbers", torch.tensor(atomic_numbers, dtype=torch.int64)
/usr/local/lib/python3.10/dist-packages/torch/jit/_check.py:178: UserWarning: The TorchScript type system doesn't support instance-level annotations on empty non-base types in `__init__`. Instead, either 1) use a type annotation in the class body, or 2) wrap the type in `torch.jit.Attribute`.
  warnings.warn(
/usr/local/lib/python3.10/dist-packages/torch/jit/_check.py:178: UserWarning: The TorchScript type system doesn't support instance-level annotations on empty non-base types in `__init__`. Instead, either 1) use a type annotation in the class body, or 2) wrap the type in `torch.jit.Attribute`.
  warnings.warn(
/usr/local/lib/python3.10/dist-packages/torch/jit/_check.py:178: UserWarning: The TorchScript type system doesn't support instance-level annotations on empty non-base types in `__init__`. Instead, either 1) use a type annotation in the class body, or 2) wrap the type in `torch.jit.Attribute`.
  warnings.warn(
/usr/local/lib/python3.10/dist-packages/torch/jit/_check.py:178: UserWarning: The TorchScript type system doesn't support instance-level annotations on empty non-base types in `__init__`. Instead, either 1) use a type annotation in the class body, or 2) wrap the type in `torch.jit.Attribute`.
  warnings.warn(
GPU information: NVIDIA RTX A6000, 8, 6, 45, 84, 300, 2100
cuEquivariance conversion is available - GPU acceleration will be enabled!
Loading model from: /workspace/mace_pretained_models/mace-mh-1.model
Converting model to cuEquivariance format for GPU acceleration...
cuEquivariance conversion successful!
Model loaded and converted to float64
Using uniquely specified head: omat_pbe
Model saved to: /workspace/mace_pretained_models/mace-mh-1.model_omat_pbe.pt
Conversion successful!
[INFO] Starting LAMMPS simulation with model: mace_pretained_models/mace-mh-1.model_omat_pbe.pt 

==========
== CUDA ==
==========

CUDA Version 12.9.0

Container image Copyright (c) 2016-2023, NVIDIA CORPORATION & AFFILIATES. All rights reserved.

This container image and its contents are governed by the NVIDIA Deep Learning Container License.
By pulling and using the container, you accept the terms and conditions of this license:
https://developer.nvidia.com/ngc/nvidia-deep-learning-container-license

A copy of this license is made available in this container at /NGC-DL-CONTAINER-LICENSE for your convenience.

LAMMPS (10 Dec 2025)
Failed to get GPU information from pynvml: Not Supported. Using default values for NVIDIA GeForce RTX 5090.
W0407 14:35:34.836000 1 torch/fx/_symbolic_trace.py:52] is_fx_tracing will return true for both fx.symbolic_trace and torch.export. Please use is_fx_tracing_symbolic_tracing() for specifically fx.symbolic_trace or torch.compiler.is_compiling() for specifically torch.export/compile.
KOKKOS mode with Kokkos version 4.7.1 is enabled
  using double precision
  using view layout = legacy
  will use up to 1 GPU(s) per node
WARNING: When using a single thread, the Kokkos Serial backend (i.e. Makefile.kokkos_mpi_only) gives better performance than the OpenMP backend (src/KOKKOS/kokkos.cpp:266)
  using 1 OpenMP thread(s) per MPI task
Reading data file ...
  orthogonal box = (0 0 0) to (22 19.079963 20)
  1 by 1 by 1 MPI processor grid
  reading atoms ...
  523 atoms
  read_data CPU = 0.016 seconds
Step 1: Quick Minimization

CITE-CITE-CITE-CITE-CITE-CITE-CITE-CITE-CITE-CITE-CITE-CITE-CITE

Your simulation uses code contributions which should be cited:
- KOKKOS package: https://doi.org/10.1145/3731599.3767498
The log file lists these citations in BibTeX format.

CITE-CITE-CITE-CITE-CITE-CITE-CITE-CITE-CITE-CITE-CITE-CITE-CITE

Neighbor list info ...
  update: every = 1 steps, delay = 0 steps, check = yes
  max neighbors/atom: 2000, page size: 100000
  master list distance cutoff = 7
  ghost atom cutoff = 7
  binsize = 7, bins = 4 3 3
  1 neighbor lists, perpetual/occasional/extra = 1 0 0
  (1) pair mliap/kk, perpetual
      attributes: full, newton on, kokkos_device
      pair build: full/bin/kk/device
      stencil: full/bin/3d
      bin: kk/device
Setting up cg/kk style minimization ...
  Unit style    : metal
  Current step  : 0
WARNING: Fix MINIMIZE/kk not compatible with sending data in Kokkos communication (src/KOKKOS/comm_kokkos.cpp:744)
WARNING: Fix with atom-based arrays not compatible with sending data in Kokkos communication, switching to legacy exchange/border communication (src/KOKKOS/comm_kokkos.cpp:751)
WARNING: Fix MINIMIZE/kk not compatible with Kokkos sorting on device (src/KOKKOS/atom_kokkos.cpp:217)
WARNING: Fix with atom-based arrays not compatible with Kokkos sorting on device, switching to legacy host sorting (src/KOKKOS/atom_kokkos.cpp:223)
Per MPI rank memory allocation (min/avg/max) = 118.4 | 118.4 | 118.4 Mbytes
   Step          CPU           S/CPU           Temp          Press          PotEng         KinEng         TotEng         Volume        Density          Fmax          Fnorm     
         0   0              0              0              136469.74     -2358.8385      0             -2358.8385      8395.1837      0.76196043     14.060695      89.158462    
       100   17.863321      5.5980616      0              1858.5503     -2827.4984      0             -2827.4984      8395.1837      0.76196043     0.80164582     4.4044306    
       200   37.234469      5.1623167      0              1728.1608     -2836.3434      0             -2836.3434      8395.1837      0.76196043     0.17518801     0.93260244   
       289   77.841545      2.1917363      0              1502.9213     -2837.5959      0             -2837.5959      8395.1837      0.76196043     0.042356424    0.21499323   
Loop time of 77.8442 on 1 procs for 289 steps with 523 atoms

95.7% CPU use with 1 MPI tasks x 1 OpenMP threads

Minimization stats:
  Stopping criterion = linesearch alpha is zero
  Energy initial, next-to-last, final = 
     -2358.83848166638   -2837.5959029328   -2837.5959029328
  Force two-norm initial, final = 89.158462 0.21499323
  Force max component initial, final = 14.060695 0.042356424
  Final line search alpha, max atom move = 2.3841858e-07 1.0098558e-08
  Iterations, force evaluations = 289 770

MPI task timing breakdown:
Section |  min time  |  avg time  |  max time  |%varavg| %total
---------------------------------------------------------------
Pair    | 77.508     | 77.508     | 77.508     |   0.0 | 99.57
Neigh   | 0.022041   | 0.022041   | 0.022041   |   0.0 |  0.03
Comm    | 0.093628   | 0.093628   | 0.093628   |   0.0 |  0.12
Output  | 0.0030008  | 0.0030008  | 0.0030008  |   0.0 |  0.00
Modify  | 0          | 0          | 0          |   0.0 |  0.00
Other   |            | 0.2173     |            |       |  0.28

Nlocal:            523 ave         523 max         523 min
Histogram: 1 0 0 0 0 0 0 0 0 0
Nghost:           1822 ave        1822 max        1822 min
Histogram: 1 0 0 0 0 0 0 0 0 0
Neighs:              0 ave           0 max           0 min
Histogram: 1 0 0 0 0 0 0 0 0 0
FullNghs:        47642 ave       47642 max       47642 min
Histogram: 1 0 0 0 0 0 0 0 0 0

Total # of neighbors = 47642
Ave neighs/atom = 91.09369
Neighbor list builds = 26
Dangerous builds = 0
Initial density: 0.761960427262085 g/cm^3
Phase 1: Heating to 1000K to fluidize polymer (10,000 steps)
Setting up Verlet run ...
  Unit style    : metal
  Current step  : 289
  Time step     : 0.001
Per MPI rank memory allocation (min/avg/max) = 126.5 | 126.5 | 126.5 Mbytes
   Step          CPU           S/CPU           Temp          Press          PotEng         KinEng         TotEng         Volume        Density          Fmax          Fnorm     
       289   0              0              300            4098.2806     -2837.5959      20.242139     -2817.3538      8395.1837      0.76196043     0.32731947     0.55662593   
       300   1.098763       10.011217      199.50346      4194.0888     -2830.7511      13.461255     -2817.2898      8395.5638      0.76192593     2.3644745      16.171428    
       400   10.712663      10.401606      173.72368      4435.7185     -2826.1303      11.721796     -2814.4085      8417.9196      0.75990246     2.4028889      23.976173    
       500   20.233155      10.503659      197.46922      2909.7789     -2823.6821      13.323998     -2810.3581      8479.3491      0.75439727     3.3048367      25.575926    
       600   29.748804      10.509005      249.11906      4323.5048     -2822.2869      16.809009     -2805.4779      8581.6405      0.745405       3.3297723      27.704468    
       700   39.3725        10.391018      307.05855      1509.7759     -2821.214       20.718406     -2800.4956      8741.2116      0.73179761     3.4056614      29.030126    
       800   48.824954      10.579264      339.19422      535.48102     -2818.9693      22.886721     -2796.0826      8941.7215      0.71538772     3.612291       29.750656    
       900   58.266744      10.591212      359.62819      999.99935     -2817.6374      24.265479     -2793.3719      9147.0935      0.69932572     3.1659378      30.501339    
      1000   67.775921      10.516156      355.11771      939.48434     -2816.5152      23.96114      -2792.5541      9354.583       0.68381432     4.8905753      31.550405    
      1100   77.182626      10.630717      364.69989      3487.2198     -2817.6186      24.607686     -2793.0109      9554.443       0.66951027     3.995482       31.312279    
      1200   86.556403      10.668058      350.25436      320.56433     -2817.223       23.632991     -2793.59        9745.6734      0.65637309     3.6643139      32.781907    
      1300   95.897003      10.705951      367.94491      2177.5252     -2817.2736      24.82664      -2792.4469      9918.878       0.64491143     3.4508054      30.960062    
      1400   105.29418      10.641496      381.98488     -335.92034     -2816.8473      25.77397      -2791.0734      10086.476      0.63419552     4.3980648      31.718342    
      1500   114.61839      10.724769      373.26184     -1030.0395     -2814.439       25.185393     -2789.2536      10261.184      0.62339765     6.4644651      35.095102    
      1600   123.9391       10.728795      396.19878      2213.479      -2814.4326      26.733035     -2787.6995      10460.256      0.61153359     4.6288306      34.204194    
      1700   133.06946      10.952464      405.7712      -634.85825     -2814.7269      27.378923     -2787.3479      10689.199      0.59843565     4.1555738      35.474724    
      1800   142.04868      11.136835      433.11728      1860.2358     -2815.5436      29.224067     -2786.3195      10904.187      0.58663684     4.2664979      34.072676    
      1900   150.95341      11.229984      429.7908       2131.5028     -2815.4767      28.999617     -2786.4771      11113.483      0.57558893     5.1035088      34.594539    
      2000   159.84061      11.25213       385.21222      2762.7455     -2812.678       25.991731     -2786.6862      11308.276      0.56567398     4.2603776      36.048537    
      2100   168.68886      11.301674      396.72007      843.20048     -2812.6591      26.768209     -2785.8909      11477.784      0.55731992     4.9761576      35.552266    
      2200   177.42457      11.447275      452.84159      527.19115     -2813.3501      30.554941     -2782.7952      11651.28       0.54902103     4.8919128      34.930485    
      2300   186.18871      11.410128      446.36548      1.8623735     -2811.0822      30.117973     -2780.9642      11798.78       0.54215758     4.4667666      36.640958    
      2400   194.94694      11.417834      437.67956     -2655.2847     -2811.2433      29.531901     -2781.7114      11912.842      0.53696654     4.3099173      36.744451    
      2500   203.69494      11.43118       430.33354      299.82654     -2811.9917      29.036237     -2782.9555      12007.493      0.53273384     3.7550226      37.537194    
      2600   212.46916      11.39702       443.86963     -430.23756     -2812.5943      29.949569     -2782.6447      12138.721      0.52697462     4.5982744      37.655633    
      2700   221.23753      11.404634      463.34982     -1200.4859     -2811.7448      31.263971     -2780.4808      12293.272      0.52034948     6.8969486      38.398649    
      2800   230.20213      11.15499       465.10081      631.93888     -2809.2517      31.382117     -2777.8696      12418.733      0.51509262     5.2774139      38.574459    
      2900   238.93099      11.45624       496.04977     -479.1559      -2810.3169      33.470361     -2776.8466      12538.548      0.51017053     4.9699921      37.889377    
      3000   247.70695      11.394773      515.31024      1321.292      -2811.0932      34.769938     -2776.3233      12665.592      0.5050532      5.3828344      38.278094    
      3100   256.41005      11.490162      471.53155      1475.0439     -2809.949       31.816023     -2778.133       12785.618      0.50031196     6.6820106      39.736162    
      3200   265.02422      11.608768      434.78728      960.86032     -2808.2471      29.336748     -2778.9103      12905.081      0.49568055     5.2597993      39.577781    
      3300   273.64578      11.598842      511.74588      1534.9601     -2809.0018      34.529437     -2774.4724      13022.449      0.49121313     4.7569975      40.008968    
      3400   282.26869      11.597012      513.88887     -875.60327     -2807.2421      34.674032     -2772.568       13151.935      0.48637693     6.6318228      43.062954    
      3500   290.85147      11.65123       533.10911     -1898.0492     -2806.7437      35.970895     -2770.7728      13249.942      0.4827793      4.9594686      40.373821    
      3600   299.43301      11.652918      527.73741      749.34797     -2806.0772      35.608446     -2770.4688      13363.077      0.47869197     6.984889       42.286136    
      3700   307.98378      11.694859      521.89906      992.97635     -2806.661       35.21451      -2771.4465      13476.129      0.47467621     6.2457001      41.141236    
      3800   316.63542      11.558496      510.99117      250.38973     -2806.3104      34.478514     -2771.8319      13579.139      0.47107537     8.9128146      44.136674    
      3900   325.14084      11.757215      544.2068       189.69183     -2805.1584      36.719698     -2768.4387      13675.121      0.46776901     5.1991157      40.945533    
      4000   333.68107      11.70928       583.8661      -1582.5898     -2803.902       39.395662     -2764.5063      13758.042      0.46494972     5.5787375      40.883009    
      4100   342.22945      11.698128      584.08113      2261.9464     -2803.5123      39.410171     -2764.1021      13847.086      0.46195984     6.9010623      42.900386    
      4200   350.81133      11.65246       549.67512      1248.0957     -2802.5761      37.088667     -2765.4874      13941.703      0.45882472     6.2360761      42.855994    
      4300   359.44674      11.580219      562.07307      2483.6406     -2804.0383      37.925204     -2766.1131      14050.824      0.4552614      5.8917367      42.9346      
      4400   368.06826      11.598882      575.6578       329.78276     -2805.0481      38.841817     -2766.2062      14196.131      0.4506015      6.7141965      42.664854    
      4500   376.58907      11.735984      575.47323      1109.845      -2805.5779      38.829363     -2766.7485      14308.6        0.44705966     7.4927815      43.325835    
      4600   385.03781      11.836076      559.64842     -87.577433     -2800.531       37.761603     -2762.7694      14439.763      0.44299882     6.8612622      44.964513    
      4700   393.52451      11.783141      645.05632      1304.1191     -2802.8202      43.524398     -2759.2958      14552.928      0.439554       9.1314884      47.547337    
      4800   401.8155       12.061298      640.74208     -2422.7182     -2801.3082      43.2333       -2758.0749      14670.078      0.43604387     8.8802456      47.641798    
      4900   409.97134      12.26115       588.21993      1171.741      -2799.8681      39.689431     -2760.1787      14756.258      0.43349728     11.416677      48.290747    
      5000   418.1668       12.201874      585.14063     -2287.525      -2799.6563      39.481659     -2760.1746      14812.861      0.43184079     8.0190439      48.130344    
      5100   426.55512      11.921331      642.53389      1316.2526     -2800.0097      43.3542       -2756.6555      14851.18       0.43072656     12.967858      52.061975    
      5200   434.99727      11.845324      654.93699      114.1481      -2798.6136      44.191085     -2754.4225      14923.585      0.42863679     22.438467      56.77569     
      5300   443.43518      11.851271      689.19873     -47.453132     -2799.2466      46.502854     -2752.7438      15028.524      0.42564377     5.2776783      44.32733     
      5400   451.59539      12.254603      700.5947      -26.142652     -2797.1149      47.271784     -2749.8431      15143.911      0.42240063     8.0389966      47.691463    
      5500   459.80577      12.1797        668.47615     -40.627491     -2792.8207      45.104623     -2747.7161      15260.724      0.41916738     12.730176      53.912534    
      5600   467.96046      12.262884      686.72443      711.48809     -2791.9417      46.335904     -2745.6058      15376.743      0.41600473     9.1690723      49.600516    
      5700   476.0736       12.325689      641.8437      -1403.0018     -2788.8201      43.307631     -2745.5125      15505.126      0.41256019     13.601299      53.858604    
      5800   484.22184      12.272578      717.14761     -1438.808      -2791.5091      48.388671     -2743.1204      15599.399      0.41006693     9.3337626      47.688637    
      5900   492.36375      12.282142      649.03843     -1050.7503     -2785.4027      43.793087     -2741.6096      15700.971      0.40741414     8.5532586      47.54715     
      6000   500.4598       12.351696      682.78538      503.63609     -2784.9752      46.070121     -2738.9051      15762.884      0.40581391     9.6055278      47.871868    
      6100   508.57233      12.326606      750.02777     -2060.2971     -2783.0644      50.60722      -2732.4572      15853.944      0.40348307     12.638335      54.810411    
      6200   516.73861      12.245484      801.62996     -354.15162     -2785.4951      54.089016     -2731.4061      15934.285      0.40144869     10.401337      54.942388    
      6300   524.83398      12.352736      781.10462     -543.77557     -2788.3008      52.704094     -2735.5967      15992.411      0.39998958     9.9700011      48.370611    
      6400   532.96064      12.305176      784.48531      897.12605     -2791.189       52.932201     -2738.2568      16064.725      0.39818906     8.214022       51.533482    
      6500   541.06381      12.340854      706.29063     -3387.5672     -2787.5171      47.65611      -2739.861       16135.483      0.39644291     6.9646604      48.65955     
      6600   549.2534       12.210618      782.43352      3012.6181     -2794.0199      52.793759     -2741.2262      16215.368      0.39448983     10.260259      51.871384    
      6700   557.29703      12.432202      753.48651      1106.6464     -2792.6384      50.840595     -2741.7978      16282.71       0.3928583      6.7493645      48.159536    
      6800   565.34108      12.431558      699.07735     -2187.28       -2788.1127      47.169403     -2740.9433      16360.556      0.39098902     8.9267686      47.96393     
      6900   573.39479      12.416622      744.4724      -215.90263     -2787.7502      50.232379     -2737.5179      16413.348      0.38973144     9.340493       53.075803    
      7000   581.37716      12.527618      783.06508      758.21701     -2783.2948      52.836373     -2730.4584      16475.922      0.38825128     14.489087      54.516605    
      7100   589.3582       12.529689      764.27511     -1601.8078     -2780.1929      51.568543     -2728.6244      16511.43       0.38741635     6.0993316      48.646455    
      7200   597.34171      12.525825      784.80639     -3066.4789     -2781.0146      52.953866     -2728.0608      16528.751      0.38701035     7.5331847      49.536772    
      7300   605.41927      12.379971      794.91946      385.95474     -2781.7696      53.636233     -2728.1334      16505.865      0.38754697     8.0417352      51.055838    
      7400   613.52716      12.333672      817.68636      682.70116     -2784.1806      55.172402     -2729.0082      16492.764      0.38785481     6.9733363      54.463694    
      7500   621.56276      12.444627      809.18728      1653.8494     -2781.7335      54.598937     -2727.1345      16512.891      0.38738205     11.225693      57.102894    
      7600   629.58586      12.464006      784.08643      606.16439     -2778.0609      52.905287     -2725.1556      16501.978      0.38763823     9.4426175      53.739545    
      7700   637.50122      12.633663      775.87229     -2332.6127     -2777.8197      52.351049     -2725.4687      16496.242      0.38777302     12.71727       51.399122    
      7800   645.49954      12.502629      825.36381      2364.3804     -2782.5002      55.690429     -2726.8098      16506.513      0.38753175     11.259137      55.390275    
      7900   653.50888      12.485413      825.85922      1894.9106     -2782.8517      55.723856     -2727.1279      16511.543      0.38741369     8.8130837      53.757134    
      8000   661.59411      12.368232      885.57746     -8.3835512     -2787.8977      59.753273     -2728.1444      16532.637      0.38691938     12.122766      56.448156    
      8100   669.66204      12.394758      818.30343     -1318.3578     -2784.5971      55.214038     -2729.383       16550.422      0.3865036      8.9679735      52.613811    
      8200   677.73409      12.388431      786.30197     -451.23511     -2779.4029      53.054778     -2726.3481      16561.748      0.3862393      12.061022      57.367807    
      8300   685.82424      12.360707      811.71873      2082.0371     -2780.7796      54.769744     -2726.0099      16612.337      0.38506309     9.1490534      55.392848    
      8400   693.92294      12.34766       852.15017      749.04304     -2782.9261      57.497807     -2725.4283      16681.163      0.38347433     10.671173      58.460517    
      8500   701.97285      12.422499      890.1956      -3376.5801     -2788.8253      60.064876     -2728.7605      16750.846      0.38187909     7.4532803      50.615422    
      8600   710.0358       12.402408      871.13429      294.29862     -2784.9808      58.778737     -2726.2021      16823.384      0.38023253     11.431632      57.532155    
      8700   718.13107      12.352896      933.51566     -1112.0098     -2785.4304      62.987845     -2722.4426      16897.399      0.378567       9.8317389      53.146095    
      8800   726.36772      12.140854      942.07879      1400.3466     -2783.1583      63.565632     -2719.5927      16933.991      0.37774897     8.6115411      55.669997    
      8900   734.61739      12.121699      876.69375     -244.77829     -2781.4301      59.153855     -2722.2762      16983.067      0.37665739     13.403089      56.273374    
      9000   742.75214      12.292935      906.07261      1566.3538     -2781.6678      61.136158     -2720.5316      17035.305      0.3755024      24.81046       66.308304    
      9100   750.84209      12.361017      874.93169     -803.61504     -2777.2733      59.034962     -2718.2383      17073.595      0.37466027     12.281035      61.455415    
      9200   758.98491      12.280761      980.63272     -10.11493      -2783.5397      66.167012     -2717.3727      17065.567      0.37483651     8.2132641      53.050395    
      9300   767.10723      12.311748      991.30497     -2507.739      -2782.3464      66.887109     -2715.4593      17092.229      0.37425183     9.6939492      50.996286    
      9400   775.1831       12.382568      994.33572     -1786.9348     -2785.5744      67.091605     -2718.4828      17113.85       0.373779       12.030902      50.39989     
      9500   783.30073      12.318871      947.70194      1556.7511     -2778.8919      63.945047     -2714.9469      17143.129      0.37314062     16.976799      61.560115    
      9600   791.44881      12.272831      1005.1865      291.18362     -2781.063       67.82375      -2713.2392      17199.109      0.37192611     8.4697858      54.239481    
      9700   799.55773      12.332103      1030.8838      2331.5522     -2782.4624      69.557643     -2712.9048      17259.741      0.37061958     10.58545       57.5876      
      9800   807.62327      12.398415      994.00784     -1492.1433     -2778.2094      67.069482     -2711.14        17315.365      0.369429       7.5419786      52.808779    
      9900   815.61316      12.515814      1001.149      -1277.3269     -2778.6875      67.551321     -2711.1362      17351.023      0.36866978     8.1026536      54.91491     
     10000   823.57565      12.558885      971.56949     -972.43528     -2774.313       65.555481     -2708.7575      17416.55       0.36728271     13.417276      60.378941    
     10100   831.57275      12.504536      1001.2407      3671.5518     -2774.0153      67.557511     -2706.4578      17464.092      0.36628286     11.49385       59.296846    
     10200   839.9005       12.008046      923.52667     -3023.505      -2766.43        62.31385      -2704.1161      17561.216      0.36425711     9.5972826      55.481782    
     10289   847.19015      12.209097      962.85079     -1480.8961     -2765.2197      64.967197     -2700.2525      17619.878      0.36304438     10.528934      57.911935    
Loop time of 847.191 on 1 procs for 10000 steps with 523 atoms

Performance: 1.020 ns/day, 23.533 hours/ns, 11.804 timesteps/s, 6.173 katom-step/s
95.3% CPU use with 1 MPI tasks x 1 OpenMP threads

MPI task timing breakdown:
Section |  min time  |  avg time  |  max time  |%varavg| %total
---------------------------------------------------------------
Pair    | 831.37     | 831.37     | 831.37     |   0.0 | 98.13
Neigh   | 1.451      | 1.451      | 1.451      |   0.0 |  0.17
Comm    | 2.1185     | 2.1185     | 2.1185     |   0.0 |  0.25
Output  | 0.27262    | 0.27262    | 0.27262    |   0.0 |  0.03
Modify  | 9.8998     | 9.8998     | 9.8998     |   0.0 |  1.17
Other   |            | 2.083      |            |       |  0.25

Nlocal:            523 ave         523 max         523 min
Histogram: 1 0 0 0 0 0 0 0 0 0
Nghost:           1278 ave        1278 max        1278 min
Histogram: 1 0 0 0 0 0 0 0 0 0
Neighs:              0 ave           0 max           0 min
Histogram: 1 0 0 0 0 0 0 0 0 0
FullNghs:        29730 ave       29730 max       29730 min
Histogram: 1 0 0 0 0 0 0 0 0 0

Total # of neighbors = 29730
Ave neighs/atom = 56.845124
Neighbor list builds = 2129
Dangerous builds = 0
Phase 2: Compressing fluid to 2 GPa at 1000K (20,000 steps)
Setting up Verlet run ...
  Unit style    : metal
  Current step  : 10289
  Time step     : 0.001
Per MPI rank memory allocation (min/avg/max) = 126.5 | 126.5 | 126.5 Mbytes
   Step          CPU           S/CPU           Temp          Press          PotEng         KinEng         TotEng         Volume        Density          Fmax          Fnorm     
     10289   0              0              962.85079     -1479.7112     -2765.2197      64.967197     -2700.2525      17619.878      0.36304438     10.541273      57.937833    
     10300   0.92761941     11.858244      1018.0571     -157.3802      -2769.2878      68.692179     -2700.5957      17619.766      0.36304669     10.064561      56.813892    
     10400   9.0078521      12.375883      949.02666     -462.77738     -2761.7886      64.034431     -2697.7541      17622.693      0.36298639     9.6405681      55.964591    
     10500   16.983801      12.537693      992.97578     -1543.3421     -2765.6464      66.999845     -2698.6466      17632.83       0.36277772     10.280137      52.558309    
     10600   25.054911      12.38987       993.63426     -333.66426     -2763.161       67.044275     -2696.1167      17637.002      0.3626919      7.9193615      55.646935    
     10700   33.170069      12.322618      1140.0099      2423.5472     -2773.5036      76.920797     -2696.5828      17643.592      0.36255643     10.310756      57.514257    
     10800   41.190707      12.467836      1004.5592     -1668.5389     -2767.4373      67.781425     -2699.6559      17637.641      0.36267876     8.9443462      54.850523    
     10900   49.207754      12.473422      975.34892      879.43988     -2764.5963      65.810494     -2698.7858      17605.449      0.36334193     10.508962      63.914993    
     11000   57.275815      12.39455       1023.0643     -128.95032     -2769.4977      69.03003      -2700.4677      17558.377      0.36431601     24.111223      64.932983    
     11100   65.334815      12.408488      1020.2154      289.67843     -2768.2882      68.837806     -2699.4503      17491.285      0.36571342     19.890923      65.843583    
     11200   73.350716      12.475205      1022.7474     -36.791768     -2769.3974      69.008647     -2700.3888      17400.249      0.3676268      20.359095      66.537464    
     11300   81.430366      12.376774      992.77909      626.8431      -2765.7146      66.986573     -2698.728       17274.052      0.37031252     12.141312      63.663855    
     11400   89.544026      12.324894      1038.4882      712.06656     -2767.753       70.070742     -2697.6823      17124.934      0.37353707     11.288814      58.862062    
     11500   97.589512      12.42933       1043.2457      765.18805     -2770.4508      70.391748     -2700.0591      16937.929      0.37766115     8.7353318      55.523464    
     11600   105.60093      12.482183      1017.2482     -811.50332     -2768.4345      68.637596     -2699.7969      16728.153      0.38239713     9.0161411      54.896351    
     11700   113.61527      12.47763       1012.4223     -581.94597     -2768.5893      68.311977     -2700.2773      16494.608      0.38781145     10.050119      57.752851    
     11800   121.74033      12.307613      1020.4493     -1287.544      -2769.6722      68.853588     -2700.8186      16243.671      0.39380246     7.6071651      54.844315    
     11900   129.8295       12.362207      974.56335     -1199.3882     -2767.0599      65.757489     -2701.3024      15996.875      0.39987796     10.258942      58.826843    
     12000   137.88374      12.415815      1001.4391     -3634.0797     -2767.8381      67.570899     -2700.2672      15750.925      0.40612204     8.1027284      56.517349    
     12100   146.04317      12.255756      1105.6932      1408.8435     -2773.899       74.605317     -2699.2937      15508.895      0.41245993     7.313735       53.846944    
     12200   154.20653      12.249854      1000.2898     -250.94194     -2767.9105      67.493348     -2700.4171      15280.916      0.4186135      12.614572      56.154594    
     12300   162.3498       12.280088      1028.5364     -3294.0319     -2768.936       69.399255     -2699.5367      15068.22       0.42452247     8.1621288      56.586532    
     12400   170.4643       12.323623      1052.099      -708.94765     -2771.2015      70.98911      -2700.2124      14862.062      0.43041119     8.6942924      54.279646    
     12500   178.54771      12.371008      964.76772     -4985.0186     -2765.4594      65.09654      -2700.3629      14661.132      0.43630996     8.0663086      52.251674    
     12600   186.63932      12.358483      1020.973       708.8535      -2767.3693      68.888923     -2698.4804      14447.559      0.44275977     17.358226      64.311572    
     12700   194.78054      12.283175      1001.529      -4440.6734     -2767.2148      67.576964     -2699.6378      14229.17       0.44955524     8.5687997      56.346184    
     12800   203.06813      12.066222      1041.3096     -847.98464     -2771.509       70.261114     -2701.2478      14009.665      0.4565989      8.9991196      55.854273    
     12900   211.24364      12.231661      998.11757     -1379.2612     -2770.3001      67.346781     -2702.9533      13786.092      0.46400369     9.2759891      59.379964    
     13000   219.58635      11.986513      1023.284       1891.4532     -2772.2512      69.044858     -2703.2063      13550.492      0.47207125     9.9866421      59.01151     
     13100   228.05744      11.804854      1044.2974     -17.789741     -2773.7231      70.462708     -2703.2604      13329.165      0.47990985     12.562395      62.574021    
     13200   236.84928      11.374178      974.20048      683.55732     -2771.9412      65.733004     -2706.2082      13111.118      0.4878911      10.596426      62.549649    
     13300   245.30152      11.831188      1008.4969     -2179.3295     -2775.26        68.047115     -2707.2129      12898.882      0.49591877     9.2377965      57.248153    
     13400   254.10443      11.359885      1040.0506     -1207.8397     -2777.785       70.176159     -2707.6088      12685.478      0.50426145     12.855283      56.970627    
     13500   262.77763      11.529771      982.00077     -1892.1215     -2772.7908      66.25932      -2706.5315      12480.372      0.51254863     9.9158984      59.530795    
     13600   271.57789      11.363302      1128.882       1691.8869     -2781.3599      76.169952     -2705.1899      12285.411      0.52068245     8.1829793      56.570371    
     13700   280.24562      11.537045      967.32462     -2089.3705     -2771.1472      65.269064     -2705.8781      12106.434      0.52838004     9.0534741      60.078939    
     13800   289.09815      11.296195      1059.7363     -2368.0947     -2776.4458      71.504428     -2704.9414      11921.959      0.53655592     8.9855673      56.131811    
     13900   297.76705      11.535499      977.03158      364.04751     -2771.8567      65.924029     -2705.9326      11736.13       0.5450517      9.1576979      60.193068    
     14000   306.50548      11.443705      991.94831      4349.1103     -2771.0201      66.930518     -2704.0896      11551.075      0.55378374     11.900091      63.292775    
     14100   315.31912      11.34605       928.72967     -3249.1992     -2769.6174      62.664916     -2706.9525      11378.98       0.56215917     8.9246179      55.232506    
     14200   324.15922      11.312088      1062.4315     -1313.8082     -2778.4332      71.686283     -2706.7469      11209.545      0.57065634     9.46924        52.259865    
     14300   333.08248      11.206665      1064.1524      2405.232      -2779.5173      71.802401     -2707.7149      11046.075      0.57910143     8.9091935      60.136665    
     14400   341.97765      11.242059      995.68877     -628.1441      -2774.4839      67.182901     -2707.301       10889.745      0.58741486     8.3905376      55.75319     
     14500   350.92706      11.173915      993.47019      2090.1127     -2773.3836      67.033204     -2706.3504      10734.62       0.59590354     11.403437      58.72151     
     14600   360.10885      10.891128      999.2703       3924.35       -2773.6987      67.42456      -2706.2741      10586.351      0.60424954     8.2929098      57.700404    
     14700   369.00365      11.242524      1063.4588     -19.863759     -2774.4843      71.755603     -2702.7287      10435.979      0.61295615     8.8328166      54.435318    
     14800   377.93962      11.190717      1097.6118      2019.7488     -2772.5205      74.060034     -2698.4604      10291.306      0.621573       9.3312645      58.076144    
     14900   386.90964      11.148256      1033.5778      1423.6514     -2771.4211      69.739417     -2701.6817      10151.703      0.63012067     8.3749453      58.202544    
     15000   396.03114      10.963109      1025.7661     -1539.7479     -2773.412       69.212333     -2704.1997      10017.648      0.63855288     9.9510313      57.856458    
     15100   405.04397      11.095291      1052.6389     -441.77237     -2777.5738      71.025542     -2706.5482      9885.2742      0.64710372     9.8559234      56.609004    
     15200   414.05229      11.10085       1006.6335      2138.2269     -2776.3721      67.921382     -2708.4507      9752.6459      0.65590383     8.171252       55.706756    
     15300   423.19904      10.932843      931.12709      925.47358     -2770.9486      62.826679     -2708.1219      9624.2478      0.66465431     8.9440113      58.613526    
     15400   432.34545      10.933248      965.54423      1489.0945     -2771.9495      65.148934     -2706.8006      9493.5255      0.67380635     10.410405      60.368114    
     15500   441.7622       10.619382      980.19945      2929.8682     -2774.7273      66.137777     -2708.5895      9374.0353      0.68239531     9.6270366      54.397205    
     15600   451.24447      10.545997      961.3473       1157.7322     -2769.9902      64.865751     -2705.1245      9259.8537      0.69080981     8.136944       57.868282    
     15700   460.70101      10.574692      1000.5984      2888.2537     -2768.9293      67.51417      -2701.4152      9153.8232      0.69881159     13.342968      59.842865    
     15800   470.20469      10.522241      1070.5658     -880.9486      -2773.2021      72.235135     -2700.967       9052.968       0.70659675     6.2181737      54.922992    
     15900   479.67542      10.558842      1045.7803      2729.1961     -2772.0049      70.562763     -2701.4422      8949.6866      0.71475103     9.0722713      58.0922      
     16000   489.1895       10.51074       1093.5774      9654.9759     -2773.5479      73.787818     -2699.76        8841.643       0.72348519     23.690398      65.326683    
     16100   498.84964      10.351812      983.02316     -1014.4619     -2768.5611      66.328304     -2702.2328      8732.7267      0.73250864     9.0283094      56.839312    
     16200   508.64381      10.210155      956.24272      3352.1746     -2767.7544      64.521326     -2703.233       8624.2084      0.74172579     13.567693      61.578919    
     16300   518.37775      10.273336      1020.6835      6208.6058     -2772.3737      68.869388     -2703.5043      8517.0399      0.7510588      10.069331      61.84471     
     16400   527.96453      10.431027      1033.8926      2867.9934     -2773.2479      69.760658     -2703.4873      8415.2681      0.76014189     10.351143      63.445368    
     16500   537.67525      10.297897      1040.8366      1658.5779     -2772.6797      70.229195     -2702.4505      8313.4662      0.76945015     9.0152038      58.06974     
     16600   547.36729      10.317749      1045.673      -799.66177     -2772.955       70.555527     -2702.3994      8215.9502      0.77858284     10.006098      58.150393    
     16700   557.23709      10.131916      1074.947       962.6738      -2774.9915      72.530753     -2702.4608      8120.303       0.78775358     12.454309      57.978342    
     16800   567.14134      10.096676      1043.25        3375.9111     -2771.3799      70.392036     -2700.9879      8023.7084      0.79723707     17.88033       66.263893    
     16900   577.05205      10.090098      1045.6382      7706.6888     -2769.7205      70.553177     -2699.1673      7933.6259      0.80628931     9.0629288      58.571667    
     17000   586.89186      10.1628        1084.4188      3442.8083     -2770.6988      73.169851     -2697.529       7845.1668      0.81538073     11.066289      57.943591    
     17100   596.78944      10.103481      973.43489      3867.1545     -2764.8809      65.681347     -2699.1995      7762.5072      0.82406336     8.9116214      58.697448    
     17200   606.76029      10.029229      968.81308      5063.1057     -2763.9229      65.369496     -2698.5534      7681.9204      0.83270816     8.4657901      59.557622    
     17300   616.74485      10.015464      1043.9514      8896.9168     -2769.3877      70.439367     -2698.9483      7605.925       0.84102824     9.1448585      58.755239    
     17400   626.98909      9.7615879      993.33484      3790.506      -2764.4238      67.024072     -2697.3997      7534.6399      0.84898521     8.2422375      56.659271    
     17500   637.32822      9.6719943      974.43132     -784.18106     -2763.9581      65.74858      -2698.2096      7464.2801      0.8569879      8.6014471      58.043239    
     17600   647.62078      9.7157499      1040.7421      6650.0169     -2770.6419      70.222817     -2700.4191      7390.6203      0.86552921     8.318952       56.330947    
     17700   658.03636      9.6009995      1008.5621      845.04568     -2767.8715      68.051516     -2699.82        7316.1862      0.87433502     10.121994      57.690001    
     17800   668.4778       9.5772233      1098.4247      10617.041     -2761.7153      74.114881     -2687.6004      7244.1559      0.88302872     16.062575      60.328858    
     17900   678.9145       9.5815727      977.39996      8374.0448     -2759.6289      65.948885     -2693.68        7180.0356      0.89091449     9.7593344      58.731723    
     18000   689.30829      9.6211297      999.98911      4447.2946     -2764.3188      67.473061     -2696.8458      7126.2487      0.89763886     8.8376641      57.195894    
     18100   699.67374      9.6474344      982.32063      9183.4968     -2765.3854      66.280901     -2699.1045      7076.658       0.9039292      6.8181924      55.684491    
     18200   710.24116      9.463041       1012.1478      6743.8384     -2767.4302      68.293453     -2699.1368      7031.429       0.90974363     13.690436      58.790326    
     18300   720.91207      9.3712859      939.39574      13395.163     -2763.8612      63.384596     -2700.4766      6984.9339      0.91579933     15.396375      61.636338    
     18400   731.43285      9.5049957      973.12186      2881.3841     -2766.5715      65.660226     -2700.9113      6945.3876      0.92101379     14.250161      62.67113     
     18500   741.91723      9.5379996      1049.3204     -1834.26       -2770.377       70.801634     -2699.5754      6900.2292      0.92704134     9.1388333      53.918877    
     18600   752.44022      9.5029987      956.4705       1586.5954     -2766.4868      64.536695     -2701.9501      6851.2271      0.93367183     10.806102      57.55816     
     18700   763.02635      9.4463221      1060.8903      4494.8217     -2774.2178      71.582294     -2702.6355      6809.2916      0.93942192     8.9093514      54.538571    
     18800   773.81692      9.267354       1106.6116      11503.576     -2773.747       74.667282     -2699.0797      6769.1519      0.9449925      10.480525      58.084406    
     18900   784.69867      9.1896958      936.65605      4301.9887     -2764.4747      63.199739     -2701.2749      6725.8585      0.95107528     8.926294       57.715902    
     19000   795.42527      9.3226179      952.47742      8835.1226     -2765.6584      64.267267     -2701.3912      6685.1902      0.95686099     7.5040737      55.697183    
     19100   806.22283      9.2613544      1046.1224      11176.763     -2768.0432      70.585846     -2697.4574      6646.4803      0.96243387     9.2950189      54.221529    
     19200   817.11596      9.1801003      951.01914      4476.883      -2761.1874      64.168871     -2697.0185      6612.6577      0.96735655     7.2225371      57.557473    
     19300   827.94573      9.2338017      993.7719       13774.113     -2766.5828      67.053562     -2699.5293      6584.9629      0.97142503     8.9301073      58.330626    
     19400   838.90317      9.1262193      991.39483      9280.5381     -2764.8154      66.893172     -2697.9222      6561.8798      0.97484227     8.1372947      56.096175    
     19500   849.72443      9.2410722      1024.6629      6140.0089     -2762.6881      69.137892     -2693.5502      6535.5762      0.97876569     7.5054535      54.284721    
     19600   860.56712      9.2227969      1010.9367      3299.1234     -2762.6247      68.211735     -2694.413       6513.7081      0.98205165     7.1780852      57.265591    
     19700   871.63284      9.0369226      1011.3912      13101.01      -2758.5527      68.242405     -2690.3103      6492.4332      0.98526971     8.8230163      59.164951    
     19800   882.49993      9.2020951      1038.757       4168.3914     -2759.0587      70.088877     -2688.9698      6470.9923      0.98853429     15.056667      55.675371    
     19900   893.44734      9.1345768      1128.0256      6157.7328     -2764.6079      76.11217      -2688.4957      6450.8017      0.99162834     12.420485      55.945735    
     20000   904.52975      9.0233077      1042.3861      8468.4639     -2760.0616      70.333749     -2689.7279      6428.2713      0.99510389     15.161396      59.899491    
     20100   915.59691      9.0357443      1002.0724      10904.867     -2758.8396      67.613628     -2691.226       6408.028       0.99824747     11.336708      65.778492    
     20200   926.84825      8.8878315      1060.1844      8890.7261     -2763.1664      71.534668     -2691.6318      6389.528       1.0011378      14.306195      65.336736    
     20300   938.00828      8.9605523      1100.7034      7272.4655     -2767.0176      74.268634     -2692.749       6368.4482      1.0044516      9.3551014      55.954523    
     20400   949.18794      8.94481        1045.8676      3186.1566     -2764.0499      70.568655     -2693.4813      6346.4297      1.0079364      9.3087065      55.012239    
     20500   960.62942      8.7401267      936.76756      5046.0718     -2754.9095      63.207263     -2691.7023      6322.8464      1.0116959      17.789296      62.483897    
     20600   972.18363      8.6548541      1039.6049      4705.3355     -2763.3529      70.14609      -2693.2068      6297.0733      1.0158366      13.983935      60.95295     
     20700   983.40583      8.9109148      998.71314      12483.305     -2761.8418      67.386966     -2694.4549      6273.3331      1.0196809      13.7487        59.637012    
     20800   994.78415      8.7886444      1002.9311      14203.595     -2761.1463      67.671566     -2693.4747      6255.0636      1.0226591      9.2463237      59.403895    
     20900   1006.3063      8.6789266      1043.0876      5266.0178     -2764.3284      70.381076     -2693.9473      6236.219       1.0257494      12.78871       54.745589    
     21000   1017.6043      8.851131       1037.6629      4938.6015     -2764.2854      70.015054     -2694.2703      6217.8996      1.0287715      9.0536919      54.170465    
     21100   1028.9995      8.7756479      1029.6728      9454.6818     -2761.7096      69.475932     -2692.2337      6207.4087      1.0305102      9.8200113      57.001362    
     21200   1040.3424      8.8161031      1075.5419      9048.073      -2762.5858      72.570894     -2690.0149      6205.6193      1.0308073      11.946748      60.9737      
     21300   1051.7275      8.7833992      992.69936      20288.768     -2758.1245      66.981194     -2691.1433      6199.3743      1.0318457      9.9281694      60.481506    
     21400   1063.0797      8.8088462      1036.3986      22234.277     -2760.7085      69.929749     -2690.7787      6195.4277      1.032503       9.9275753      61.739588    
     21500   1074.6717      8.626632       1073.966       10458.044     -2767.7066      72.464563     -2695.242       6196.3063      1.0323566      9.8011031      57.005205    
     21600   1086.0586      8.7819947      1020.7002      15187.9       -2766.6604      68.87052      -2697.7899      6194.831       1.0326025      8.4467103      58.643541    
     21700   1097.3411      8.863275       908.3031       4052.5329     -2760.3752      61.286658     -2699.0885      6193.5247      1.0328203      9.5297507      58.746459    
     21800   1108.6097      8.8742842      915.89406      6220.6556     -2762.4758      61.798848     -2700.6769      6187.5416      1.033819       9.4699027      59.483894    
     21900   1119.8691      8.8814702      1007.235       9463.2051     -2768.5053      67.961966     -2700.5433      6181.1191      1.0348931      14.263851      61.828295    
     22000   1131.3979      8.6739049      1001.9211      7121.2209     -2766.0852      67.603418     -2698.4817      6170.6964      1.0366411      9.6229254      57.801951    
     22100   1142.9125      8.6845933      1079.2444      18500.114     -2770.4636      72.820716     -2697.6429      6155.0419      1.0392777      9.7215476      56.579486    
     22200   1154.5564      8.5882035      1088.0553      14601.727     -2771.4492      73.41522      -2698.034       6142.8495      1.0413405      10.042099      56.54292     
     22300   1165.9192      8.8006289      1038.0563      16015.673     -2766.975       70.041596     -2696.9334      6127.6063      1.0439309      10.330185      62.160094    
     22400   1177.4052      8.7062785      1040.945       13580.289     -2768.0944      70.236512     -2697.8579      6108.3414      1.0472234      12.597138      61.649888    
     22500   1190.5028      7.6349813      1037.439       16644.123     -2767.9927      69.999946     -2697.9928      6083.3317      1.0515287      11.830017      62.818794    
     22600   1224.8198      2.9140062      1069.4349      14433.908     -2770.6261      72.15883      -2698.4673      6059.2154      1.0557139      9.7361271      58.571724    
     22700   1260.3371      2.8155281      1071.7739      11214.217     -2768.7415      72.316653     -2696.4248      6037.5459      1.059503       9.5058337      57.503525    
     22800   1294.1981      2.9532515      1078.254       8180.1332     -2771.6022      72.75389      -2698.8483      6017.726       1.0629925      7.5316697      57.481799    
     22900   1331.1817      2.7039007      1035.8284      22220.468     -2768.3093      69.891275     -2698.418       5995.6101      1.0669136      10.428523      62.688714    
     23000   1366.89        2.8004698      1017.4464      20294.785     -2767.8457      68.650971     -2699.1947      5973.5321      1.0708568      10.659378      64.442607    
     23100   1403.2861      2.7475463      1060.7312      12204.409     -2770.0907      71.571558     -2698.5191      5950.9138      1.074927       9.6101268      58.429822    
     23200   1445.4393      2.3722999      1100.7321      15075.793     -2772.7963      74.270571     -2698.5258      5929.3746      1.0788318      8.1158065      59.088892    
     23300   1499.4264      1.8522938      1029.7766      15197.395     -2767.6187      69.482938     -2698.1358      5912.3876      1.0819314      12.087754      64.991597    
     23400   1512.7904      7.4828171      1035.9359      10146.061     -2768.4545      69.898525     -2698.556       5898.1388      1.0845451      9.4120862      61.67151     
     23500   1524.314       8.6778312      1018.7874      11309.163     -2766.0666      68.741453     -2697.3251      5880.0251      1.0878861      10.089115      60.018226    
     23600   1535.6275      8.83897        1082.5372      10168.248     -2769.2439      73.042892     -2696.201       5861.1199      1.0913951      17.160671      64.682984    
     23700   1547.14        8.6862383      1029.4962      20559.303     -2760.3702      69.464017     -2690.9062      5847.0875      1.0940144      17.188275      67.28912     
     23800   1558.8015      8.5752327      1075.8811      14423.705     -2762.2775      72.593783     -2689.6837      5839.8037      1.0953789      8.6360276      61.810518    
     23900   1570.461       8.5766774      1033.9625      8440.6133     -2760.7921      69.765377     -2691.0267      5837.27        1.0958544      6.8346754      55.597978    
     24000   1582.064       8.6184913      1094.5938      16695.29      -2767.1721      73.856399     -2693.3157      5835.9721      1.0960981      7.156521       57.44825     
     24100   1593.6484      8.6323039      1080.1554      15452.167     -2768.5977      72.882188     -2695.7155      5834.609       1.0963541      9.5195425      59.24895     
     24200   1605.2608      8.6114584      986.3396       7190.7505     -2766.0833      66.552076     -2699.5312      5833.6741      1.0965298      8.3431538      57.186799    
     24300   1616.8475      8.6305954      965.42802      12413.301     -2762.0431      65.141093     -2696.902       5834.9455      1.0962909      10.427981      63.125792    
     24400   1628.4521      8.6172964      1046.9325      18301.173     -2768.2781      70.640507     -2697.6376      5839.9616      1.0953493      14.464749      64.670668    
     24500   1640.1193      8.5709956      1004.5649      12816.556     -2764.9638      67.781806     -2697.182       5840.5505      1.0952388      8.7881575      54.455385    
     24600   1651.9913      8.4231672      975.93856      10021.32      -2761.2372      65.850279     -2695.3869      5845.2477      1.0943587      14.592174      65.006753    
     24700   1663.7374      8.5134627      1051.4506      18542.42      -2763.7896      70.945363     -2692.8442      5848.4823      1.0937535      20.374925      70.387482    
     24800   1675.314       8.6381458      1065.2029      10652.293     -2764.5119      71.87328      -2692.6387      5852.4723      1.0930078      11.915933      62.306244    
     24900   1686.9779      8.5734302      986.45802      12676.266     -2760.7185      66.560067     -2694.1584      5855.2347      1.0924921      12.231772      62.788856    
     25000   1698.5893      8.6122549      1028.728       15038.152     -2764.3228      69.412183     -2694.9106      5853.9519      1.0927315      11.379685      62.22565     
     25100   1710.2096      8.6056325      950.00879      10466.14      -2759.5253      64.100699     -2695.4246      5857.0497      1.0921536      12.15632       61.871962    
     25200   1721.8043      8.6246478      1056.8301      15644.472     -2767.0697      71.308341     -2695.7614      5861.5838      1.0913088      11.186521      61.132269    
     25300   1733.4188      8.6099191      1001.191       12400.907     -2761.9083      67.554159     -2694.3542      5865.151       1.090645       15.241646      59.25721     
     25400   1745.0849      8.5718612      996.50199      16968.773     -2761.3928      67.237772     -2694.1551      5860.7741      1.0914595      14.469533      63.877736    
     25500   1756.6938      8.6140399      1013.8766      19947.407     -2761.5339      68.4101       -2693.1238      5851.4327      1.093202       15.678406      67.491096    
     25600   1768.2766      8.6335208      1010.9448      11843.805     -2761.4613      68.212282     -2693.249       5838.9788      1.0955337      9.575671       57.136997    
     25700   1779.8692      8.6261478      1021.1794      16592.192     -2761.0161      68.902848     -2692.1133      5821.8485      1.0987572      10.658296      58.125014    
     25800   1792.7114      7.7868596      1082.6278      17785.297     -2761.3187      73.049007     -2688.2696      5806.2829      1.1017027      6.6823989      56.210869    
     25900   1806.3961      7.3074376      1067.1235      13002.442     -2755.8141      72.002876     -2683.8112      5790.5445      1.1046971      8.4833823      58.757532    
     26000   1819.5725      7.5892904      1014.5991      18930.868     -2749.2447      68.458853     -2680.7859      5771.7547      1.1082934      9.2579104      57.976503    
     26100   1834.4238      6.7334278      1079.2964      16822.841     -2755.409       72.824225     -2682.5848      5756.0034      1.1113263      8.4230633      56.054094    
     26200   1848.1819      7.2684748      1042.2867      20203.907     -2751.407       70.327039     -2681.0799      5742.2298      1.113992       9.5136269      57.058798    
     26300   1862.6032      6.9341825      1125.6656      15120.203     -2759.0647      75.95293      -2683.1118      5736.2849      1.1151465      14.22575       56.611184    
     26400   1877.9903      6.4989541      1082.955       24893.641     -2756.5622      73.071086     -2683.4911      5730.5612      1.1162603      15.267023      60.129973    
     26500   1891.7404      7.2726651      1018.6632      19327.506     -2752.3747      68.733072     -2683.6416      5727.5113      1.1168547      12.341397      60.89823     
     26600   1905.6333      7.1979359      1089.0949      16711.362     -2758.2052      73.485366     -2684.7199      5727.975       1.1167643      8.4471801      54.74748     
     26700   1919.122       7.4135895      1023.3194      16693.98      -2754.344       69.047246     -2685.2968      5728.1833      1.1167237      9.4379291      58.384663    
     26800   1932.4203      7.5197523      1074.6192      15329.286     -2754.8381      72.508637     -2682.3294      5728.5435      1.1166534      30.864887      73.798646    
     26900   1945.8985      7.4193954      1044.7774      16689.202     -2753.1266      70.495094     -2682.6315      5720.8939      1.1181466      11.976406      60.429525    
     27000   1964.4542      5.3891678      1032.2351      15637.204     -2755.6345      69.648823     -2685.9856      5715.3211      1.1192368      13.9335        63.578812    
     27100   1980.0848      6.3977291      1053.4606      15237.801     -2759.2911      71.080983     -2688.2101      5708.6937      1.1205362      14.429575      61.173107    
     27200   1996.1242      6.2346226      931.2834       24429.002     -2752.092       62.837226     -2689.2548      5702.8809      1.1216783      13.409672      69.109446    
     27300   2015.1239      5.2632422      1105.3748      8939.8339     -2765.7504      74.583835     -2691.1665      5699.4055      1.1223623      13.963913      57.480887    
     27400   2030.4384      6.5297583      912.47605      12338.491     -2755.2514      61.568223     -2693.6832      5690.2955      1.1241592      8.9690299      58.219571    
     27500   2056.3787      3.8550138      1042.223       17916.989     -2765.6019      70.322743     -2695.2792      5675.6648      1.127057       8.2039233      56.373137    
     27600   2087.705       3.1922054      958.38621      19103.681     -2761.0796      64.665955     -2696.4137      5657.0738      1.1307609      17.26391       66.020637    
     27700   2133.4219      2.1873763      1016.24        22546.293     -2763.6371      68.569569     -2695.0675      5633.9006      1.1354119      14.739784      63.600806    
     27800   2152.7167      5.1827409      1080.6323      16212.375     -2768.1784      72.91436      -2695.264       5606.3864      1.1409841      7.7134578      57.033481    
     27900   2164.8391      8.2491378      1018.5988      18685.463     -2763.5106      68.728724     -2694.7818      5576.7645      1.1470446      11.468283      56.693119    
     28000   2177.6534      7.803823       1086.8236      15996.608     -2768.4096      73.332112     -2695.0775      5542.4564      1.1541449      10.11381       55.713646    
     28100   2193.2965      6.3926058      1030.3564      16493.249     -2764.9734      69.522059     -2695.4514      5504.2354      1.1621592      9.589          56.263088    
     28200   2207.3685      7.1062792      1021.1243      23887.243     -2758.4692      68.899135     -2689.57        5468.9087      1.1696662      21.848558      71.355413    
     28300   2222.0675      6.8031848      1115.4384      21097.521     -2757.65        75.262866     -2682.3872      5437.8302      1.1763511      9.7469795      56.652827    
     28400   2257.1504      2.850391       1098.33        18934.525     -2755.7836      74.108495     -2681.6751      5410.4956      1.1822942      15.608302      63.85964     
     28500   2306.5957      2.0224371      1002.7937      32136.413     -2749.178       67.662299     -2681.5157      5386.7686      1.1875019      13.683157      63.109928    
     28600   2336.215       3.3761829      1052.9564      23454.401     -2751.4071      71.046962     -2680.3601      5370.963       1.1909964      16.280834      65.653836    
     28700   2348.4387      8.1808331      1003.1181      21926.003     -2748.1494      67.684187     -2680.4652      5362.0197      1.1929829      12.093908      63.781721    
     28800   2360.6442      8.1930248      989.61946      10667.347     -2747.3493      66.773382     -2680.5759      5365.7215      1.1921599      13.549658      59.005265    
     28900   2372.8797      8.1728974      1000.7871      19934.841     -2747.9232      67.526906     -2680.3963      5378.9624      1.1892252      9.2094084      64.158886    
     29000   2385.1468      8.1518914      1022.2859      21241.842     -2751.0043      68.977507     -2682.0268      5400.6234      1.1844554      22.014655      65.918706    
     29100   2397.4384      8.1356368      1008.6907      19118.214     -2753.0868      68.060193     -2685.0266      5433.974       1.1771859      14.297216      63.165381    
     29200   2409.879       8.0381951      1065.9959      21840.567     -2756.3493      71.926789     -2684.4225      5467.1699      1.1700382      12.070964      55.957714    
     29300   2422.0405      8.2227149      1114.3377      20805.399     -2755.6786      75.188594     -2680.49        5504.1109      1.1621855      14.421397      60.348911    
     29400   2434.1629      8.2491955      1044.6514      16465.82      -2749.5271      70.486593     -2679.0405      5538.1085      1.155051       9.6079854      60.24309     
     29500   2446.3051      8.235704       986.04319      14575.757     -2748.0298      66.532076     -2681.4977      5563.9705      1.1496822      10.317248      61.832646    
     29600   2458.5681      8.1546176      941.67837      8295.0521     -2745.2115      63.538614     -2681.6729      5582.7472      1.1458154      11.753854      55.879251    
     29700   2470.6715      8.2621377      900.16015      17843.813     -2740.5076      60.737222     -2679.7704      5593.9663      1.1435174      10.661556      60.523602    
     29800   2482.7052      8.3099645      1015.5275      22361.365     -2748.2781      68.521497     -2679.7566      5596.5896      1.1429814      16.635128      67.76796     
     29900   2494.8472      8.235896       1114.179       22691.195     -2752.7268      75.177888     -2677.5489      5596.0166      1.1430984      7.1365074      60.240549    
     30000   2506.9782      8.2433279      1058.7002      12420.24      -2750.6686      71.434519     -2679.2341      5594.848       1.1433372      9.7017462      59.896779    
     30100   2519.0237      8.3018595      1035.1372      20573.351     -2750.5326      69.844639     -2680.688       5589.4786      1.1444355      16.316126      63.644698    
     30200   2531.1962      8.215292       1013.4085      11662.621     -2750.6667      68.378521     -2682.2882      5578.6716      1.1466525      13.376487      62.706816    
     30289   2541.9484      8.2773744      1067.3088      26258.154     -2755.284       72.015377     -2683.2686      5560.6009      1.1503789      15.878034      63.042164    
Loop time of 2541.95 on 1 procs for 20000 steps with 523 atoms

Performance: 0.680 ns/day, 35.305 hours/ns, 7.868 timesteps/s, 4.115 katom-step/s
96.0% CPU use with 1 MPI tasks x 1 OpenMP threads

MPI task timing breakdown:
Section |  min time  |  avg time  |  max time  |%varavg| %total
---------------------------------------------------------------
Pair    | 2505.3     | 2505.3     | 2505.3     |   0.0 | 98.56
Neigh   | 5.1116     | 5.1116     | 5.1116     |   0.0 |  0.20
Comm    | 6.4336     | 6.4336     | 6.4336     |   0.0 |  0.25
Output  | 0.58167    | 0.58167    | 0.58167    |   0.0 |  0.02
Modify  | 19.938     | 19.938     | 19.938     |   0.0 |  0.78
Other   |            | 4.592      |            |       |  0.18

Nlocal:            523 ave         523 max         523 min
Histogram: 1 0 0 0 0 0 0 0 0 0
Nghost:           2477 ave        2477 max        2477 min
Histogram: 1 0 0 0 0 0 0 0 0 0
Neighs:              0 ave           0 max           0 min
Histogram: 1 0 0 0 0 0 0 0 0 0
FullNghs:        70082 ave       70082 max       70082 min
Histogram: 1 0 0 0 0 0 0 0 0 0

Total # of neighbors = 70082
Ave neighs/atom = 134
Neighbor list builds = 5948
Dangerous builds = 0
===========================================
Density after high-T compression: 1.15037886647728 g/cm^3
===========================================
Phase 3: Thermal quench under high pressure to lock density (40,000 steps)
Setting up Verlet run ...
  Unit style    : metal
  Current step  : 30289
  Time step     : 0.001
Per MPI rank memory allocation (min/avg/max) = 143.7 | 143.7 | 143.7 Mbytes
   Step          CPU           S/CPU           Temp          Press          PotEng         KinEng         TotEng         Volume        Density          Fmax          Fnorm     
     30289   0              0              1067.3088      26323.883     -2755.284       72.015377     -2683.2686      5560.6009      1.1503789      15.885218      63.086363    
     30300   1.3954612      7.8826759      1045.28        26404.788     -2752.9706      70.529007     -2682.4416      5560.7172      1.1503548      12.759605      64.916938    
     30400   13.562336      8.2190369      980.19579      23489.825     -2751.047       66.13753      -2684.9095      5557.1848      1.151086       9.3214263      63.278814    
     30500   25.668097      8.26053        1061.3506      18209.52      -2757.7017      71.613354     -2686.0884      5551.326       1.1523009      10.340179      59.134595    
     30600   37.841109      8.2148937      1062.8691      20743.898     -2758.8712      71.715814     -2687.1554      5539.6453      1.1547306      7.793606       57.470017    
     30700   50.01473       8.2144828      1011.4945      20490.053     -2754.7576      68.249374     -2686.5082      5527.5768      1.1572517      9.3410556      57.454761    
     30800   62.131748      8.2528557      1036.2633      21887.596     -2757.7877      69.92062      -2687.8671      5513.896       1.160123       15.494078      64.986275    
     30900   74.405704      8.1473322      1062.2576      19718.836     -2758.9074      71.674552     -2687.2329      5497.147       1.1636578      7.7234517      56.507741    
     31000   86.586401      8.2097112      1078.4373      20440.229     -2760.2041      72.766258     -2687.4379      5481.5665      1.1669653      11.388061      56.049912    
     31100   98.825798      8.1703371      1087.7609      24259.802     -2759.8131      73.395353     -2686.4178      5464.8127      1.1705429      9.6294975      61.232921    
     31200   111.04588      8.1832534      1011.7296      19563.183     -2755.1875      68.265238     -2686.9222      5454.9067      1.1726686      11.750932      60.577447    
     31300   123.24339      8.1983944      1055.799       18842.697     -2760.6907      71.238765     -2689.452       5447.2679      1.1743131      9.8594522      59.106509    
     31400   135.55503      8.1223957      964.63195      14535.218     -2754.522       65.087379     -2689.4346      5443.0374      1.1752258      13.224223      63.07724     
     31500   147.81051      8.1596102      960.33066      23260.366     -2754.4188      64.797155     -2689.6216      5441.0542      1.1756541      8.6830721      58.458089    
     31600   159.91851      8.2590008      987.03866      20725.11      -2756.4605      66.599245     -2689.8612      5440.5439      1.1757644      13.352005      59.942051    
     31700   172.17769      8.1571578      1019.7295      26492.299     -2758.5282      68.805019     -2689.7232      5442.6517      1.175309       17.496188      63.269111    
     31800   184.4812       8.1277575      981.34798      17280.147     -2756.0922      66.215273     -2689.8769      5448.6016      1.1740256      8.0541864      60.366382    
     31900   196.87684      8.0673537      1043.344       32254.089     -2759.2246      70.398383     -2688.8262      5458.165       1.1719686      12.325841      60.091146    
     32000   209.09253      8.1861963      1033.4046      21912.479     -2758.3042      69.72773      -2688.5765      5476.4577      1.1680539      10.101237      59.684295    
     32100   221.25695      8.2206913      994.11538      22319.671     -2757.3305      67.076738     -2690.2537      5497.2757      1.1636305      8.539047       57.775411    
     32200   233.39119      8.2411452      1015.9389      18867.099     -2760.2472      68.549252     -2691.698       5521.0349      1.158623       8.0447538      56.471939    
     32300   245.52204      8.2434466      1001.6863      16041.487     -2759.7604      67.587579     -2692.1728      5544.7412      1.1536693      9.5355635      54.298022    
     32400   257.60684      8.2748574      995.12604      16743.521     -2759.3543      67.144931     -2692.2093      5566.9528      1.1490663      9.2839786      59.688323    
     32500   269.76526      8.224752       957.72718      13740.531     -2757.2391      64.621488     -2692.6176      5586.6166      1.1450218      10.496823      57.825219    
     32600   281.88152      8.2533689      908.08209      13122.018     -2756.7493      61.271745     -2695.4776      5601.423       1.1419951      10.175703      57.818999    
     32700   293.95221      8.2845362      1018.6359      15038.959     -2763.9269      68.731227     -2695.1957      5611.9958      1.1398437      8.1428951      57.373812    
     32800   305.9559       8.330771       1039.4128      18609.741     -2766.0134      70.133129     -2695.8803      5618.0168      1.138622       7.4665511      55.98637     
     32900   318.04548      8.2715843      991.21177      23290.437     -2763.0193      66.88082      -2696.1385      5614.7526      1.139284       10.145188      58.394185    
     33000   330.09407      8.2997261      1028.7166      16232.612     -2767.8116      69.411416     -2698.4002      5601.9644      1.1418848      8.296281       54.427093    
     33100   342.26997      8.2129488      947.54567      18020.841     -2762.4192      63.934503     -2698.4847      5578.0355      1.1467833      11.12071       57.726018    
     33200   354.41209      8.235791       1011.4296      27055.867     -2769.2927      68.244996     -2701.0477      5544.6174      1.1536951      8.9832972      60.489562    
     33300   366.59062      8.211174       1027.8164      11355.449     -2768.7071      69.350677     -2699.3564      5504.2309      1.1621602      7.1500349      51.557135    
     33400   378.78834      8.1982519      1017.2495      23062.719     -2768.2684      68.637686     -2699.6307      5460.3671      1.1714959      9.1919131      56.565358    
     33500   391.00727      8.184024       977.47185      21513.577     -2765.2834      65.953736     -2699.3297      5411.7236      1.1820259      11.89151       60.620015    
     33600   403.31617      8.1241998      946.68022      23882.716     -2762.2537      63.876108     -2698.3775      5361.3903      1.1931229      17.340636      69.462288    
     33700   415.63458      8.1179291      987.55312      21510.409     -2766.2182      66.633958     -2699.5843      5314.5012      1.2036497      9.9009661      57.708214    
     33800   428.42772      7.8166917      1037.3841      24833.42      -2766.5382      69.996239     -2696.542       5275.1608      1.2126261      10.330025      58.196152    
     33900   443.63406      6.5762049      1019.8907      27476.925     -2763.9365      68.815899     -2695.1206      5241.0477      1.2205189      13.169532      65.863961    
     34000   469.83344      3.816883       920.69568      20105.501     -2757.0306      62.122832     -2694.9077      5216.9138      1.2261651      11.772124      63.51935     
     34100   512.41762      2.3482901      991.94387      19578.104     -2763.9385      66.930218     -2697.0083      5206.7911      1.228549       10.842974      60.084987    
     34200   561.15832      2.0516737      928.54683      11989.669     -2757.7446      62.652579     -2695.092       5208.222       1.2282114      14.012899      63.081615    
     34300   605.1838       2.271412       953.62593      17896.731     -2761.7704      64.344761     -2697.4257      5219.971       1.225447       9.1933408      55.261908    
     34400   645.73757      2.4658621      911.21007      20415.385     -2760.0042      61.482802     -2698.5214      5243.2313      1.2200106      12.458761      61.367102    
     34500   666.16543      4.8952731      918.06971      26794.076     -2762.7309      61.945648     -2700.7853      5275.6799      1.2125068      12.852791      62.542037    
     34600   686.60514      4.8924388      995.75256      22615.212     -2768.3079      67.187205     -2701.1207      5315.9897      1.2033127      7.2671738      55.611494    
     34700   715.86667      3.4174556      956.78141      13891.403     -2765.6466      64.557673     -2701.0889      5357.2982      1.1940343      12.84537       58.988062    
     34800   767.02262      1.9548071      857.30682      15645.214     -2758.52        57.845745     -2700.6742      5397.9644      1.1850389      12.442504      62.121266    
     34900   814.4066       2.1104179      994.64501      20543.458     -2768.0911      67.112474     -2700.9786      5438.4747      1.1762117      14.248588      60.161447    
     35000   868.99567      1.8318684      916.59956      16708.242     -2763.1574      61.846452     -2701.311       5472.2911      1.1689433      16.935275      65.048891    
     35100   916.93111      2.0861393      936.89805      21154.914     -2763.5628      63.216068     -2700.3467      5495.4402      1.1640192      10.44992       61.341683    
     35200   964.20312      2.1154168      1009.5955      20151.715     -2765.3972      68.121243     -2697.276       5511.1467      1.1607018      12.595201      63.583785    
     35300   1011.2928      2.1236064      979.09293      19310.166     -2759.3372      66.063117     -2693.2741      5517.2158      1.159425       9.0560704      57.871179    
     35400   1060.374       2.0374398      968.96758      15550.918     -2759.8949      65.379921     -2694.515       5513.6218      1.1601807      10.515176      63.775061    
     35500   1107.8235      2.1075067      1005.9147      14978.173     -2762.0524      67.872886     -2694.1795      5500.9021      1.1628634      10.738866      60.056109    
     35600   1155.1618      2.1124508      1006.8449      17854.881     -2762.2261      67.93565      -2694.2905      5481.4484      1.1669904      11.765         65.162136    
     35700   1202.8769      2.0957745      966.07751      12400.695     -2760.4556      65.184916     -2695.2706      5452.0327      1.1732868      9.1365334      58.579893    
     35800   1250.8713      2.083578       938.02286      16837.968     -2759.9794      63.291963     -2696.6874      5419.1555      1.1804049      11.496706      60.329555    
     35900   1299.4457      2.0586954      965.15876      15971.813     -2763.0536      65.122925     -2697.9307      5378.3784      1.1893543      13.984689      59.608148    
     36000   1341.8305      2.359335       963.44963      24175.855     -2763.301       65.007604     -2698.2934      5331.5712      1.199796       12.312361      59.662745    
     36100   1362.1225      4.928068       938.09568      16160.88      -2760.8134      63.296876     -2697.5165      5283.7442      1.2106562      8.2520838      55.60594     
     36200   1382.7456      4.8489352      943.33267      23344.636     -2760.4769      63.650236     -2696.8267      5235.5211      1.2218073      14.290428      66.737916    
     36300   1427.5575      2.2315468      871.11953      18815.804     -2754.3118      58.777741     -2695.534       5188.5728      1.2328627      10.114914      58.623872    
     36400   1476.8123      2.0302592      899.04088      27076.578     -2755.5998      60.661701     -2694.9381      5150.0518      1.2420842      12.095225      64.449616    
     36500   1489.405       7.9411069      947.41856      25277.276     -2761.5376      63.925926     -2697.6117      5122.3828      1.2487934      12.649664      60.893867    
     36600   1501.8531      8.0333317      995.23151      18722.85      -2765.8502      67.152047     -2698.6981      5110.9852      1.2515782      10.22258       55.325968    
     36700   1514.418       7.9586903      959.99381      23077.247     -2765.3294      64.774426     -2700.5549      5110.6268      1.251666       7.804676       55.771123    
     36800   1526.9603      7.9730412      944.81004      25377.676     -2763.758       63.74992      -2700.0081      5122.6179      1.2487361      11.156629      59.354411    
     36900   1539.4829      7.9855555      865.85009      19019.282     -2758.1643      58.422192     -2699.7421      5142.0781      1.2440102      7.4213861      57.494696    
     37000   1551.9419      8.0263247      963.44122      32578.027     -2766.858       65.007036     -2701.851       5172.6092      1.2366675      12.347299      56.077888    
     37100   1564.345       8.0624967      948.69523      27990.689     -2765.7235      64.012068     -2701.7114      5210.418       1.2276938      8.8744149      56.591503    
     37200   1576.7952      8.0319958      900.11429      21795.577     -2763.8607      60.734127     -2703.1266      5249.5026      1.2185531      14.268608      59.782018    
     37300   1589.1408      8.1000448      882.1922       22409.362     -2762.9982      59.524856     -2703.4733      5288.1873      1.209639       9.8830043      56.523148    
     37400   1601.205       8.2890311      914.81278      20107.413     -2767.1824      61.725891     -2705.4565      5324.71        1.201342       14.445197      58.896482    
     37500   1613.4519      8.1652935      895.01433      20095.165     -2765.5648      60.390014     -2705.1748      5358.7565      1.1937094      11.291501      59.285007    
     37600   1625.6699      8.184643       901.12146      19624.612     -2765.5262      60.802085     -2704.7241      5384.085       1.1880937      13.593698      60.063885    
     37700   1637.8273      8.2254692      881.69098      17195.547     -2764.123       59.491037     -2704.632       5402.9524      1.1839449      11.978066      59.545048    
     37800   1650.0524      8.1798951      924.60777      12241.079     -2764.132       62.386795     -2701.7452      5415.0935      1.1812904      10.862468      59.051286    
     37900   1662.3273      8.1467029      916.79186      16909.651     -2762.9641      61.859427     -2701.1047      5422.1707      1.1797485      10.467512      61.294371    
     38000   1674.5342      8.1921048      936.06254      10436.824     -2762.7165      63.159693     -2699.5568      5418.3329      1.1805841      10.060634      56.955569    
     38100   1686.7913      8.1585201      947.91703      16150.568     -2761.9233      63.95956      -2697.9638      5408.4375      1.1827441      16.111566      62.625071    
     38200   1699.0588      8.1516012      930.72006      25884.045     -2756.5729      62.799215     -2693.7737      5393.8114      1.1859513      11.233365      65.050713    
     38300   1711.329       8.1498395      926.4803       14397.666     -2755.7141      62.513142     -2693.2009      5376.8557      1.1896912      12.741248      66.352001    
     38400   1723.5889      8.1566882      898.25869      25918.456     -2755.2236      60.608924     -2694.6147      5357.8625      1.1939085      13.298524      59.75051     
     38500   1735.8294      8.169559       873.3101       3420.3907     -2753.5269      58.925547     -2694.6014      5341.1867      1.1976361      11.320161      59.462945    
     38600   1748.1551      8.1131528      862.74782      34575.268     -2756.1009      58.21287      -2697.8881      5321.5583      1.2020535      12.203501      64.385471    
     38700   1760.4797      8.113871       833.77004      10623.977     -2754.8022      56.257629     -2698.5446      5307.7988      1.2051696      10.591162      57.471837    
     38800   1772.8166      8.1057748      884.40373      22898.981     -2759.794       59.674077     -2700.1199      5296.885       1.2076528      8.8931822      59.871847    
     38900   1785.3391      7.9855996      869.79741      21127.951     -2759.3617      58.688533     -2700.6732      5287.8588      1.2097142      7.649636       53.565211    
     39000   1797.6691      8.1103056      842.1684       13500.193     -2758.6926      56.824298     -2701.8683      5282.4971      1.210942       7.9435894      51.593401    
     39100   1810.0477      8.0784713      927.77869      25872.549     -2765.3966      62.60075      -2702.7959      5278.8938      1.2117686      9.1611828      54.806871    
     39200   1822.4374      8.0712182      918.32529      16886.895     -2764.3636      61.962893     -2702.4007      5279.9897      1.2115171      7.582037       53.555484    
     39300   1834.8197      8.0760591      864.09637      15876.357     -2760.8121      58.303862     -2702.5083      5282.8348      1.2108646      7.6925206      59.034245    
     39400   1847.1854      8.0868744      860.88198      19036.536     -2762.3428      58.086975     -2704.2558      5281.0219      1.2112803      9.1758237      56.672121    
     39500   1859.5212      8.1064895      871.93418      19681.883     -2763.8202      58.832709     -2704.9875      5276.2206      1.2123825      12.083906      56.327425    
     39600   1872.0655      7.9717082      841.38811      14329.552     -2757.2236      56.77165      -2700.452       5266.3218      1.2146614      27.663748      74.932825    
     39700   1884.4939      8.046078       840.58101      20831.348     -2755.7606      56.717191     -2699.0434      5251.2226      1.218154       10.932032      61.456022    
     39800   1896.7723      8.1443835      924.20892      12420.611     -2762.2334      62.359884     -2699.8735      5233.8331      1.2222013      12.096835      53.554946    
     39900   1909.3078      7.9773618      849.11116      32122.227     -2760.0352      57.292753     -2702.7424      5220.7808      1.2252569      11.446339      60.835111    
     40000   1921.8201      7.9921316      816.03932      13756.689     -2761.0232      55.061271     -2705.962       5212.6836      1.2271602      10.56563       57.801794    
     40100   1934.2198      8.0647356      803.52962      22797.131     -2762.1304      54.217193     -2707.9132      5205.7905      1.2287851      11.445811      59.378763    
     40200   1946.6748      8.0289231      823.82822      14519.035     -2764.6737      55.586817     -2709.0869      5204.6845      1.2290462      11.756622      56.607993    
     40300   1959.1858      7.9929453      854.66376      19575.958     -2765.5466      57.667408     -2707.8792      5210.0376      1.2277834      9.2252969      58.711368    
     40400   1971.6377      8.0309137      849.87832      23484.089     -2765.4683      57.344516     -2708.1238      5218.7842      1.2257257      12.795594      63.489139    
     40500   1984.0196      8.0762563      837.36166      23484.837     -2763.4416      56.49997      -2706.9416      5230.3231      1.2230215      9.6131834      54.053285    
     40600   1996.2951      8.1463319      825.67477      19535.267     -2759.5302      55.711411     -2703.8188      5242.1949      1.2202518      22.484089      70.145405    
     40700   2008.8104      7.9902285      830.31267      10247.065     -2760.0875      56.024347     -2704.0631      5256.9135      1.2168353      10.170685      55.95941     
     40800   2021.4403      7.9176923      844.39033      16490.287     -2761.575       56.97422      -2704.6008      5271.8522      1.2133872      11.896887      64.692917    
     40900   2033.9231      8.011075       892.79546      6603.2536     -2766.9382      60.240299     -2706.6979      5283.0655      1.2108118      6.3286123      53.060166    
     41000   2045.9402      8.3214688      839.83563      18995.912     -2764.6548      56.666897     -2707.9879      5291.1779      1.2089553      11.347309      57.613573    
     41100   2058.3289      8.0718257      129809.29      1727591.2     -2705.6889      8758.7256      6053.0367      5413.6445      1.1816066      30.836845      71.458206    
     41200   2070.096       8.498279       22879.727      247506.63     -2675.5531      1543.782      -1131.771       6406.6823      0.99845716     6.0993454      39.912187    
     41300   2081.2234      8.9868369      50006.938      516166.67     -2690.1036      3374.1579      684.05436      6910.6835      0.92563895     12.143041      41.905419    
     41400   2091.7752      9.477092       68954.569      638831.51     -2635.006       4652.6265      2017.6205      7727.2023      0.82782843     68.458284      105.60872    
     41500   2101.6798      10.096296      7000.4786      57159.547     -2651.2315      472.34886     -2178.8826      8426.5478      0.75912436     7.256464       37.406639    
     41600   2111.4607      10.223992      6731.5751      49472.576     -2622.4491      454.20492     -2168.2441      9100.6415      0.70289526     30.669007      60.264584    
     41700   2120.6142      10.924817      7478.2267      56311.848     -2638.2678      504.58434     -2133.6834      9811.7298      0.65195413     82.568092      146.28666    
     41800   2129.5748      11.159936      2153.9812      14056.729     -2652.4193      145.33729     -2507.082       10338.462      0.61873786     38.853013      79.517288    
     41900   2138.5439      11.149439      3152.6128      18933.475     -2663.3255      212.71875     -2450.6067      10469.22       0.61100995     10.53104       32.366498    
     42000   2147.457       11.219394      4138.9542      25961.413     -2676.7056      279.27095     -2397.4346      10556.174      0.60597692     7.641738       23.867004    
     42100   2156.3284      11.272197      610.91416      1023.3299     -2686.4857      41.220697     -2645.265       10622.564      0.60218963     5.9473549      23.116962    
     42200   2165.1677      11.313086      299.60725      1155.2314     -2696.056       20.215639     -2675.8403      10514.379      0.60838568     10.919678      26.312917    
     42300   2174.0232      11.292387      416.15032      274.38959     -2692.4214      28.079242     -2664.3421      10328.539      0.6193323      8.667091       28.092139    
     42400   2182.8728      11.300039      825.6858       364.8556      -2682.8337      55.712155     -2627.1215      10111.9        0.63260097     7.3824923      36.933886    
     42500   2191.8001      11.201549      1344.7005      4826.6336     -2666.2834      90.732046     -2575.5513      9899.3678      0.64618246     8.2974743      46.072523    
     42600   2200.8923      10.998458      1058.8877      2979.8519     -2670.8089      71.447174     -2599.3617      9703.1797      0.65924759     5.8105141      45.941451    
     42700   2209.9604      11.027638      628.7886       191.93817     -2694.6797      42.426754     -2652.2529      9518.0921      0.67206723     8.8393198      41.286293    
     42800   2219.015       11.044127      510.79231      4539.5298     -2707.4042      34.465096     -2672.9391      9329.4629      0.68565552     6.797667       36.140695    
     42900   2228.1986      10.888967      550.51319     -1266.6931     -2703.7669      37.145214     -2666.6217      9143.5704      0.69959518     6.7925839      37.509727    
     43000   2237.5986      10.638304      832.98724      5260.793      -2691.3022      56.204811     -2635.0974      8960.7328      0.71386994     10.627831      47.020787    
     43100   2247.0519      10.578361      1048.799      -709.9429      -2677.1268      70.766452     -2606.3603      8790.1066      0.72772698     7.0381247      47.168227    
     43200   2256.5829      10.492013      922.43487      6724.9606     -2684.9485      62.240182     -2622.7083      8637.0776      0.74062062     7.4760573      50.239204    
     43300   2266.1739      10.426409      659.68797      4803.0137     -2699.3106      44.511652     -2654.799       8489.98        0.75345263     10.756794      49.449351    
     43400   2275.7754      10.415064      548.13504      1879.9774     -2709.3192      36.984752     -2672.3344      8343.9124      0.76664249     7.8915141      45.638058    
     43500   2285.4549      10.331086      629.11787      3133.7368     -2710.5887      42.448971     -2668.1398      8192.4659      0.7808147      8.460782       42.92015     
     43600   2295.1815      10.281108      798.02183      10707.558     -2699.6664      53.845562     -2645.8208      8041.9008      0.79543356     7.0488641      52.57346     
     43700   2304.9943      10.190782      929.92165      4704.008      -2687.8364      62.745343     -2625.0911      7902.8575      0.80942846     6.1069479      44.519603    
     43800   2314.9461      10.048413      926.07455      4960.1392     -2692.6163      62.485765     -2630.1306      7772.3965      0.82301486     8.7678107      50.766204    
     43900   2324.9491      9.9970739      764.16727      4995.862      -2704.3539      51.561266     -2652.7926      7643.2745      0.8369185      8.6590809      43.359953    
     44000   2334.9491      9.9999359      567.88159      10987.832     -2707.3684      38.317127     -2669.0513      7523.5427      0.85023746     11.340476      53.513307    
     44100   2345.241       9.7164294      622.27585      2000.0894     -2712.62        41.987313     -2670.6327      7411.7881      0.86305729     8.5845073      41.447701    
     44200   2355.4234      9.8208879      751.01015      11428.49      -2705.0461      50.673506     -2654.3726      7301.0587      0.8761466      22.480717      66.75365     
     44300   2365.8707      9.571815       958.52817      5889.991      -2692.4761      64.675534     -2627.8005      7195.9479      0.88894442     25.577192      70.436385    
     44400   2376.6406      9.285117       906.42121      10170.116     -2694.5172      61.15968      -2633.3576      7096.1132      0.90145091     7.3310121      48.243609    
     44500   2387.2587      9.4178535      745.54507      8071.1594     -2713.5735      50.304756     -2663.2687      7003.251       0.91340404     6.4047452      45.3233      
     44600   2397.7648      9.5182875      583.66867      6326.1305     -2722.9141      39.38234      -2683.5317      6907.4047      0.92607833     7.1921875      41.422477    
     44700   2408.4922      9.3219822      594.59071      6909.8984     -2724.1686      40.119292     -2684.0493      6811.1004      0.93917244     7.1149628      41.160346    
     44800   2419.2267      9.3157135      691.99676      3718.0884     -2714.936       46.691648     -2668.2444      6716.0822      0.95245972     8.5907926      46.466313    
     44900   2430.0123      9.2716119      925.88242      8887.8902     -2711.2094      62.472801     -2648.7366      6622.4773      0.96592219     8.4453565      48.49197     
     45000   2440.8875      9.1952217      894.08274      8091.618      -2708.792       60.327156     -2648.4648      6541.4836      0.97788181     8.4572756      48.848736    
     45100   2451.7763      9.1837671      754.31568      12710.969     -2718.3156      50.896542     -2667.4191      6467.3185      0.98909584     9.3936839      51.45997     
     45200   2462.9745      8.9299937      599.85352      7566.9463     -2724.0854      40.474394     -2683.611       6394.2908      1.0003921      6.8517369      42.338222    
     45300   2474.3232      8.8115805      606.67415      7434.8833     -2724.7112      40.934608     -2683.7766      6322.4411      1.0117608      6.8993588      45.642138    
     45400   2485.6         8.8677706      770.99987      15561.895     -2712.8885      52.022288     -2660.8662      6254.9298      1.022681       26.103344      67.739648    
     45500   2496.9947      8.7760464      802.231        8505.6741     -2702.9376      54.129571     -2648.808       6196.2568      1.0323649      11.190347      61.203101    
     45600   2508.3499      8.8065599      843.39416      10496.107     -2707.2945      56.907005     -2650.3875      6138.2462      1.0421214      8.4533487      52.36064     
     45700   2519.7288      8.7881557      702.09825      12809.481     -2713.2372      47.373234     -2665.864       6084.8884      1.0512597      8.6608166      53.254782    
     45800   2531.3487      8.60592        609.91394      20136.438     -2717.4943      41.153208     -2676.3411      6036.2891      1.0597236      9.0282785      51.799496    
     45900   2542.8563      8.6898963      663.24928      11200.848     -2719.4373      44.751947     -2674.6854      5989.2385      1.0680486      7.6056603      49.208193    
     46000   2554.509       8.5816912      694.3242       14821.896     -2712.3942      46.848689     -2665.5455      5943.4722      1.0762728      8.1988971      49.727254    
     46100   2566.1658      8.5787491      747.75221      13746.888     -2703.9713      50.45368      -2653.5176      5899.0516      1.0843773      11.008829      56.578147    
     46200   2577.7419      8.6384738      795.52199      10629.423     -2698.6758      53.676889     -2644.9989      5857.6339      1.0920447      15.328115      56.07591     
     46300   2589.2689      8.6752524      752.39953      13608.427     -2706.3253      50.767252     -2655.558       5821.0509      1.0989077      10.143828      53.965912    
     46400   2601.0343      8.4995229      726.67019      15212.26      -2710.5318      49.031196     -2661.5006      5786.94        1.1053852      8.1547235      47.182872    
     46500   2612.8373      8.4724079      639.6742       18971.559     -2722.0719      43.161246     -2678.9106      5756.7999      1.1111725      10.830689      50.428453    
     46600   2624.6735      8.4486914      592.78909      10174.911     -2726.5701      39.99773      -2686.5723      5726.0975      1.1171304      10.342913      49.54983     
     46700   2636.3035      8.5984227      767.86989      14155.768     -2723.7495      51.811096     -2671.9384      5693.5489      1.1235168      9.8892657      46.768993    
     46800   2648.2489      8.371397       9486.4657      128863.53     -2690.5795      640.08785     -2050.4917      5699.6675      1.1223107      10.241791      48.976369    
     46900   2660.119       8.4245701      10207.987      131290.34     -2713.8839      688.77163     -2025.1122      5924.1336      1.0797862      10.530114      30.938536    
     47000   2671.6111      8.7015851      5366.8118      66775.668     -2672.889       362.11916     -2310.7699      6448.3357      0.99200756     16.036169      45.682846    
     47100   2682.5724      9.1230248      3876.5537      46875.625     -2686.1054      261.56579     -2424.5396      6735.6725      0.94968955     24.424796      53.967623    
     47200   2693.4136      9.224084       4522.7512      46427.26      -2687.8971      305.16719     -2382.7299      7019.8251      0.91124746     4.6460988      27.260756    
     47300   2704.2282      9.246792       7798.7944      78388.398     -2709.3338      526.21426     -2183.1196      7221.2443      0.8858304      11.904836      28.670039    
     47400   2714.8424      9.4212807      8365.9857      91718.909     -2651.2451      564.48481     -2086.7602      7322.5529      0.87357481     235.16825      455.39729    
     47500   2725.2967      9.5654841      6749.348       64233.589     -2695.3908      455.40413     -2239.9867      7680.1516      0.83289993     18.76018       55.584742    
     47600   2735.3285      9.9682805      4404.8584      35395.755     -2670.813       297.21251     -2373.6004      8141.3074      0.78572119     19.017833      39.133239    
     47700   2745.3849      9.9439435      2439.7304      23287.843     -2680.135       164.61787     -2515.5172      8263.0481      0.77414505     13.040018      41.956653    
     47800   2755.0375      10.359895      363.46249      2692.4547     -2694.0508      24.524194     -2669.5266      8259.6018      0.77446806     5.7941923      27.172339    
     47900   2764.7218      10.326021      305.7644       6729.5644     -2709.3905      20.631084     -2688.7594      8179.9869      0.78200587     7.5787416      30.206963    
     48000   2774.4965      10.230418      411.72656      3236.2553     -2708.6521      27.780754     -2680.8714      8069.8634      0.79267733     4.8409408      31.504418    
     48100   2784.3013      10.199079      664.8253       1660.716      -2688.3156      44.858287     -2643.4573      7950.9689      0.8045306      15.712376      48.17703     
     48200   2794.1708      10.132279      1083.0402      3897.3841     -2666.8209      73.076831     -2593.7441      7836.1366      0.81632035     7.2473354      45.648527    
     48300   2804.1384      10.032527      839.4343       3944.6611     -2685.2267      56.639819     -2628.5869      7734.5343      0.82704369     12.189821      47.595215    
     48400   2814.0819      10.05679       531.04158      5765.4661     -2705.9363      35.831391     -2670.1049      7630.3719      0.83833368     7.0780165      39.921733    
     48500   2824.06        10.021987      435.44698      2368.601      -2714.0796      29.381261     -2684.6983      7520.9938      0.8505256      5.9069719      33.755695    
     48600   2834.3461      9.7217681      491.03399      10445.877     -2708.6056      33.131927     -2675.4737      7407.3417      0.86357536     8.9125026      39.479277    
     48700   2844.6285      9.7254243      793.08661      8516.468      -2698.2896      53.512564     -2644.7771      7298.2905      0.87647892     11.351815      50.926491    
     48800   2855.023       9.6204928      963.94435      9534.9737     -2691.6547      65.040984     -2626.6137      7197.3097      0.88877622     9.1008964      48.771154    
     48900   2865.4955      9.5487938      755.39574      11140.127     -2701.4159      50.969418     -2650.4465      7109.1591      0.89979668     7.4246687      44.875773    
     49000   2875.9395      9.5748338      586.55004      13547.694     -2711.2334      39.576758     -2671.6567      7027.8805      0.91020298     5.9052712      39.611273    
     49100   2886.4727      9.4937808      493.51268      8643.0837     -2720.199       33.299174     -2686.8998      6947.0956      0.92078735     6.4399988      36.090785    
     49200   2897.0595      9.4457181      517.31591      7283.0573     -2716.6388      34.905268     -2681.7336      6859.701       0.93251846     7.3362764      39.287006    
     49300   2907.8606      9.2583155      718.66518      5363.3216     -2709.1821      48.491068     -2660.6911      6772.2294      0.94456307     5.7397683      41.3805      
     49400   2918.6897      9.2343859      832.04554      17395.498     -2696.8311      56.141271     -2640.6898      6688.9026      0.95632994     8.2109843      47.719893    
     49500   2929.4673      9.2785384      767.08716      10971.845     -2698.3013      51.758282     -2646.543       6613.513       0.96723146     5.4307434      44.949909    
     49600   2940.2367      9.2855521      586.78139      7459.7245     -2706.8221      39.592368     -2667.2298      6544.6958      0.97740186     7.7980108      43.560547    
     49700   2951.0478      9.2497609      527.06146      9473.6624     -2717.9358      35.562837     -2682.373       6476.8557      0.98763938     5.1201456      39.276336    
     49800   2962.1413      9.0142607      545.23406      7717.66       -2717.2834      36.789012     -2680.4944      6408.1105      0.99823463     7.2778332      39.755214    
     49900   2973.4081      8.8756418      652.81895      8130.2562     -2709.3601      44.048173     -2665.3119      6340.1483      1.008935       8.419288       44.343254    
     50000   2984.7636      8.8063581      779.88411      9589.1067     -2701.5961      52.621741     -2648.9744      6278.9029      1.0187764      12.983516      50.632038    
     50100   2996.0335      8.8731949      757.93226      14068.466     -2701.475       51.140566     -2650.3345      6224.1103      1.0277449      13.320248      55.507005    
     50200   3007.3935      8.8027462      678.75684      12923.996     -2711.6284      45.7983       -2665.8301      6173.118       1.0362345      4.8359385      40.327806    
     50300   3018.7912      8.7737592      564.08589      16382.569     -2714.0237      38.061016     -2675.9627      6124.2942      1.0444955      14.640109      45.86596     
     50400   3030.1988      8.7660411      596.57896      3484.2766     -2714.3588      40.253447     -2674.1053      6074.281       1.0530955      5.8600393      40.081038    
     50500   3041.7883      8.628538       612.71672      16272.669     -2710.8001      41.342323     -2669.4577      6022.4347      1.0621614      9.1952668      43.602757    
     50600   3053.246       8.7277382      690.01011      17067.614     -2706.9758      46.557601     -2660.4182      5970.6098      1.071381       11.021383      47.236862    
     50700   3064.9152      8.5695853      697.73163      15989.769     -2703.0838      47.078601     -2656.0052      5920.992       1.0803591      13.304001      52.66784     
     50800   3076.5473      8.5968982      724.94765      21418.911     -2709.1008      48.91497      -2660.1858      5879.682       1.0879496      8.8482928      44.868861    
     50900   3088.1107      8.6479717      738.03617      20550.737     -2711.5415      49.798101     -2661.7434      5845.314       1.0943463      5.3110886      41.862209    
     51000   3099.8433      8.5232532      597.95079      15032.479     -2708.6852      40.346009     -2668.3392      5816.9499      1.0996825      8.1009131      40.719868    
     51100   3111.4932      8.5837539      571.63221      15057.846     -2708.0671      38.570195     -2669.4969      5783.9567      1.1059553      9.8081782      45.555813    
     51200   3123.1497      8.5788919      629.02244      15316.356     -2709.5814      42.442531     -2667.1389      5751.929       1.1121135      9.9234176      45.281011    
     51300   3134.9362      8.4843287      729.74091      21092.025     -2713.732       49.238389     -2664.4936      5720.4467      1.118234       8.0046335      42.502592    
     51400   3146.6542      8.5338534      662.24826      16084.217     -2707.7748      44.684403     -2663.0904      5690.4202      1.1241345      17.632784      55.571658    
     51500   3158.4736      8.460682       641.01952      15875.631     -2706.6127      43.25202      -2663.3607      5660.0943      1.1301575      10.609871      42.914738    
     51600   3170.4214      8.3696993      609.06725      11590.167     -2710.2808      41.096079     -2669.1847      5630.16        1.1361662      5.8627739      41.979368    
     51700   3182.4788      8.2937078      597.10419      18076.762     -2710.4318      40.288886     -2670.1429      5598.1146      1.14267        11.104567      47.67225     
     51800   3194.6273      8.2314536      603.73315      22990.338     -2713.9463      40.736167     -2673.2101      5570.4337      1.1483483      14.209236      48.351636    
     51900   3206.7202      8.269282       635.71488      22482.081     -2715.7958      42.894096     -2672.9017      5546.8884      1.1532227      6.8568898      42.592479    
     52000   3218.9052      8.2068563      632.87707      17212.658     -2714.1228      42.702618     -2671.4202      5522.623       1.1582898      5.5594808      45.194844    
     52100   3231.1158      8.1896225      624.52347      19870.763     -2713.7789      42.138969     -2671.6399      5502.8435      1.1624532      11.111338      47.833381    
     52200   3243.234       8.2519869      602.86487      14194.894     -2716.9454      40.677581     -2676.2679      5488.9178      1.1654024      5.85126        41.554485    
     52300   3255.483       8.1639613      648.63233      24325.559     -2719.38        43.765685     -2675.6143      5477.3597      1.1678615      16.036449      48.10541     
     52400   3267.6702      8.2053227      617.85558      16625.715     -2711.8146      41.689061     -2670.1256      5471.362       1.1691418      10.365905      48.102599    
     52500   3279.9461      8.1460272      593.87569      17744.522     -2722.4239      40.071047     -2682.3528      5464.0239      1.1707119      11.504658      44.935725    
     52600   3292.238       8.1354825      594.70767      18024.538     -2719.2096      40.127184     -2679.0824      5456.6881      1.1722858      6.9402905      41.401362    
     52700   3304.4637      8.1794663      508.87828      15508.341     -2726.7509      34.335949     -2692.4149      5450.5138      1.1736137      9.032397       41.410118    
     52800   3316.8662      8.0628865      5199.2546      74221.101     -2709.0815      350.81344     -2358.2681      5450.1734      1.173687       6.9137783      41.07083     
     52900   3329.2239      8.0921005      2354.518       43942.16      -2704.2422      158.86827     -2545.3739      5524.4185      1.1579133      6.8215307      31.51001     
     53000   3341.4629      8.1706522      358.54306      17428.388     -2713.3618      24.192261     -2689.1695      5712.7289      1.1197447      25.129309      47.175978    
     53100   3353.2095      8.5130723      199.04628      5723.4376     -2728.083       13.430408     -2714.6526      5842.089       1.0949504      5.2321883      21.594957    
     53200   3364.7628      8.6555548      201.89095      8459.173      -2727.3182      13.622348     -2713.6958      5882.9048      1.0873536      5.5067866      23.698369    
     53300   3376.3543      8.6270243      420.91999      15337.321     -2713.2894      28.40107      -2684.8883      5875.267       1.0887672      6.4846092      34.465966    
     53400   3387.9288      8.6396507      931.58103      21373.781     -2687.5274      62.857308     -2624.6701      5852.3973      1.0930218      10.697123      47.395831    
     53500   3399.6174      8.5553551      1021.3045      25643.948     -2685.6901      68.911289     -2616.7788      5836.1815      1.0960587      15.04498       53.573414    
     53600   3411.2414      8.6028512      612.19511      15957.053     -2714.1967      41.307128     -2672.8896      5830.6308      1.0971022      5.200602       35.913687    
     53700   3422.8407      8.6212268      426.07491      16131.725     -2733.9496      28.748891     -2705.2008      5822.2045      1.09869        5.6015162      33.781107    
     53800   3434.5238      8.5593943      384.30632      10658.066     -2738.5893      25.930606     -2712.6587      5801.6596      1.1025807      5.2390153      32.187977    
     53900   3446.1231      8.6212174      439.31334      14188.997     -2731.2813      29.642138     -2701.6391      5771.7572      1.108293       6.0722742      37.027955    
     54000   3457.8215      8.548162       676.92712      25996.816     -2718.9322      45.674842     -2673.2574      5739.8162      1.1144604      17.682168      52.351387    
     54100   3469.5551      8.5225638      891.8941       23435.305     -2709.8811      60.17948      -2649.7016      5715.5149      1.1191989      13.574127      49.620171    
     54200   3481.239       8.5587343      614.33188      19534.256     -2718.7159      41.451304     -2677.2646      5705.2626      1.12121        7.5986292      42.570597    
     54300   3493.0182      8.4895848      491.30903      18787.129     -2727.1343      33.150485     -2693.9838      5699.2449      1.1223939      7.4837253      38.769078    
     54400   3504.7327      8.5363873      541.75834      20298.138     -2728.5442      36.554491     -2691.9897      5691.9841      1.1238257      8.5239795      36.390933    
     54500   3516.6423      8.3965864      525.80594      16382.293     -2722.4841      35.478122     -2687.0059      5679.8068      1.1262351      7.7887404      39.907785    
     54600   3528.3995      8.505478       604.81524      16291.33      -2719.535       40.80918      -2678.7258      5663.0094      1.1295757      9.4626797      42.082447    
     54700   3540.1155      8.5353093      607.5517       12070.198     -2714.6502      40.993819     -2673.6563      5648.1374      1.13255        10.403789      46.533611    
     54800   3552.039       8.3868141      594.29366      16927.299     -2719.9062      40.099249     -2679.8069      5633.221       1.1355489      6.523712       43.045421    
     54900   3563.8927      8.4361534      541.63044      16218.853     -2726.0091      36.545862     -2689.4633      5613.5381      1.1395305      12.448783      44.436775    
     55000   3575.9568      8.2890529      507.10926      23575.798     -2727.5706      34.216587     -2693.354       5591.699       1.1439811      9.1760952      41.864134    
     55100   3588.0668      8.2576299      541.32271      20943.309     -2725.2608      36.525098     -2688.7357      5574.5109      1.1475083      10.465181      42.873666    
     55200   3600.1105      8.3031229      575.9813       15621.857     -2721.5641      38.863644     -2682.7005      5557.8418      1.15095        9.3658788      44.877209    
     55300   3612.2899      8.2106158      627.72922      15464.43      -2720.2969      42.355273     -2677.9416      5538.788       1.1549093      6.1223361      44.801597    
     55400   3624.4238      8.2413479      541.78584      17299.333     -2720.0327      36.556347     -2683.4764      5522.2351      1.1583711      11.033035      46.562078    
     55500   3636.4199      8.3360212      527.08372      19529.19      -2726.3429      35.56434      -2690.7786      5508.8849      1.1611783      9.7916967      43.856433    
     55600   3648.2905      8.4241917      474.67469      22688.878     -2726.0969      32.028103     -2694.0688      5491.0531      1.1649492      10.032441      47.693832    
     55700   3660.3815      8.2706246      510.9189       13147.019     -2727.6518      34.473638     -2693.1781      5470.5712      1.1693108      6.1689735      40.426191    
     55800   3672.7303      8.0979616      557.66134      11001.022     -2727.4857      37.627527     -2689.8582      5448.5113      1.1740451      7.4369206      40.627662    
     55900   3684.9434      8.1878988      554.92177      20641.961     -2724.3         37.442678     -2686.8573      5427.2413      1.1786463      13.752057      48.223738    
     56000   3697.2565      8.1214392      545.51845      13719.59      -2725.4232      36.808201     -2688.615       5406.0288      1.1832711      11.042799      50.150408    
     56100   3709.5533      8.1321875      580.02409      23908.859     -2730.8937      39.136427     -2691.7573      5386.9542      1.187461       6.6815404      40.569238    
     56200   3721.7828      8.1769844      538.91343      20132.675     -2726.852       36.362535     -2690.4895      5376.5599      1.1897566      9.4707936      46.150178    
     56300   3734.1422      8.0909951      536.00972      21503.238     -2730.1105      36.16661      -2693.9439      5370.3591      1.1911304      6.1749163      40.36555     
     56400   3746.3971      8.1599756      526.56236      21661.223     -2730.1904      35.529161     -2694.6612      5366.2211      1.1920489      6.1670191      40.336784    
     56500   3758.7125      8.1199354      557.76712      18263.675     -2730.1366      37.634665     -2692.5019      5359.1066      1.1936314      6.6460265      40.492695    
     56600   3770.9982      8.1395348      546.71649      17207.645     -2725.5264      36.889037     -2688.6374      5350.5574      1.1955386      7.8473618      42.551414    
     56700   3783.2687      8.1496185      582.93056      17406.872     -2724.5303      39.332537     -2685.1978      5343.2389      1.1971761      9.0239787      48.530112    
     56800   3795.7018      8.043012       567.42751      19477.645     -2724.6003      38.286488     -2686.3139      5337.0176      1.1985716      11.649439      47.310352    
     56900   3807.9956      8.1342155      502.17262      18670.727     -2724.9103      33.883493     -2691.0268      5334.0653      1.199235       11.342444      47.241192    
     57000   3820.3659      8.0838843      490.16981      23441.773     -2728.2948      33.073617     -2695.2212      5331.9581      1.1997089      18.590728      51.039907    
     57100   3832.6845      8.1178384      518.69053      23104.322     -2730.327       34.998019     -2695.329       5327.5932      1.2006918      15.837203      49.242265    
     57200   3844.9894      8.1268485      524.63582      16379.57      -2727.332       35.39917      -2691.9329      5321.267       1.2021193      7.8858581      44.226908    
     57300   3857.3992      8.058106       563.14657      11782.918     -2729.2273      37.997636     -2691.2296      5313.898       1.2037863      5.1882487      41.423906    
     57400   3869.6835      8.1404496      547.55091      19204.989     -2726.8011      36.945339     -2689.8557      5305.3263      1.2057313      7.8003606      45.003821    
     57500   3882.0915      8.0593723      526.93191      15664.121     -2727.8419      35.554096     -2692.2878      5298.8538      1.2072041      10.505925      46.168978    
     57600   3894.4461      8.0941188      463.94386      20152.282     -2727.9767      31.304053     -2696.6727      5292.1504      1.2087332      11.160768      45.783735    
     57700   3906.8234      8.0793063      569.14597      18205.385     -2738.756       38.402439     -2700.3535      5285.5064      1.2102526      8.6879768      42.89517     
     57800   3919.2613      8.0399664      494.45841      16328.848     -2735.2447      33.362986     -2701.8817      5275.3338      1.2125863      8.2334943      42.121633    
     57900   3931.6149      8.0948192      492.92842      13027.38      -2730.0533      33.259752     -2696.7936      5262.4218      1.2155616      7.8107432      41.856921    
     58000   3944.093       8.0140347      562.56547      18388.804     -2727.3434      37.958428     -2689.385       5249.1002      1.2186465      7.9792619      45.655014    
     58100   3956.4583      8.0871309      637.00091      21792.446     -2731.0788      42.980869     -2688.0979      5239.3101      1.2209237      10.088064      42.829108    
     58200   3968.9204      8.0243445      461.47155      20249.633     -2730.0017      31.137237     -2698.8644      5232.8421      1.2224328      7.3326711      42.262377    
     58300   3981.359       8.0394497      492.56135      17575.491     -2738.7168      33.234984     -2705.4818      5229.2319      1.2232767      8.7778643      38.957532    
     58400   3993.786       8.0470169      435.23657      20223.204     -2734.9893      29.367064     -2705.6222      5225.2216      1.2242156      16.086092      46.588438    
     58500   4006.2842      8.0011253      610.83688      23031.339     -2728.7983      41.215483     -2687.5828      5223.5143      1.2246157      8.4048154      40.557276    
     58600   4018.737       8.030354       555.33373      19115.63      -2724.9046      37.470475     -2687.4341      5226.1258      1.2240038      7.1693012      40.790694    
     58700   4031.2257      8.0072013      514.57877      18438.573     -2728.1791      34.720583     -2693.4585      5231.1657      1.2228245      11.222926      42.663288    
     58800   4043.6439      8.0526994      428.53624      18765.295     -2729.0899      28.914967     -2700.1749      5237.2329      1.2214079      7.6918553      38.640985    
     58900   4056.0651      8.0507515      435.88734      20019.097     -2731.953       29.410973     -2702.542       5240.892       1.2205552      8.6605317      38.317216    
     59000   4068.4198      8.0940832      515.54121      19800.404     -2729.0155      34.785522     -2694.23        5242.749       1.2201228      5.5731897      40.165635    
     59100   4080.798       8.0787258      575.21374      23191.95      -2725.2042      38.811854     -2686.3924      5245.2462      1.219542       10.410191      43.868466    
     59200   4093.2402      8.0371992      502.80408      22086.766     -2724.9994      33.9261       -2691.0733      5248.913       1.21869        7.0001135      43.248633    
     59300   4105.643       8.0626787      452.17259      17925.816     -2730.917       30.509801     -2700.4072      5251.0976      1.218183       8.8763012      42.843709    
     59400   4118.0991      8.0282207      439.51514      13337.364     -2735.1554      29.655755     -2705.4996      5250.5601      1.2183077      7.1900764      39.60425     
     59500   4130.5123      8.0558951      480.43535      16584.326     -2734.652       32.416797     -2702.2352      5244.4522      1.2197266      7.312275       41.341427    
     59600   4142.8361      8.1144079      517.08939      23445.775     -2729.7789      34.889984     -2694.8889      5233.6972      1.2222331      13.098209      48.580978    
     59700   4155.3437      7.9951355      555.31534      15254.706     -2729.6362      37.469234     -2692.167       5220.8966      1.2252297      7.1645323      40.172545    
     59800   4167.7092      8.0870472      486.78956      19831.721     -2726.2131      32.845539     -2693.3676      5208.298       1.2281935      15.189341      55.442035    
     59900   4180.2232      7.991001       453.4411       14285.704     -2732.3319      30.595392     -2701.7365      5197.1478      1.2308285      9.4836339      39.455751    
     60000   4192.6816      8.0267284      397.5639       11085.761     -2732.7575      26.825145     -2705.9323      5186.5696      1.2333388      9.7639196      42.088743    
     60100   4205.148       8.0215608      557.24307      18709.152     -2723.862       37.599305     -2686.2627      5174.8058      1.2361426      14.642298      49.323259    
     60200   4217.6898      7.9733174      489.25285      13194.776     -2725.342       33.011747     -2692.3303      5165.9559      1.2382602      6.4195806      39.552321    
     60300   4230.1037      8.0555068      427.42422      17839.725     -2729.8058      28.839935     -2700.9658      5158.3256      1.2400919      9.1841685      42.379082    
     60400   4242.6891      7.9456893      492.86501      16736.658     -2729.1459      33.255473     -2695.8905      5152.2895      1.2415447      6.6704927      37.68252     
     60500   4255.1708      8.0117663      473.6149       19326.742     -2733.0163      31.956595     -2701.0597      5148.0869      1.2425582      13.118117      40.389576    
     60600   4267.639       8.0203699      419.00454      20745.869     -2732.0173      28.271827     -2703.7455      5144.3895      1.2434513      7.0654874      39.448496    
     60700   4280.121       8.0115657      441.80745      17133.631     -2730.6161      29.810426     -2700.8057      5142.465       1.2439166      12.370786      45.266102    
     60800   4292.5791      8.0268881      492.51908      16979.752     -2725.5558      33.232131     -2692.3237      5142.0047      1.244028       9.0167044      42.463722    
     60900   4305.0451      8.021851       493.66164      22710.806     -2725.1869      33.309225     -2691.8777      5143.2349      1.2437304      9.3991653      46.620385    
     61000   4317.4615      8.0538726      470.10293      21686.491     -2730.7571      31.719629     -2699.0375      5148.8805      1.2423667      9.5380585      43.221708    
     61100   4329.9813      7.9873039      426.37967      19429.956     -2736.7236      28.769455     -2707.9542      5156.8653      1.2404431      7.1959981      39.420634    
     61200   4342.4308      8.0324403      405.90697      15707.297     -2738.2572      27.388084     -2710.8691      5165.2613      1.2384268      10.326684      42.706567    
     61300   4354.8815      8.0316883      406.45894      16372.261     -2734.7226      27.425328     -2707.2972      5170.5262      1.2371657      8.6022552      42.781352    
     61400   4367.4274      7.9707631      474.77128      17090.54      -2728.045       32.03462      -2696.0104      5172.7508      1.2366337      7.6053995      40.771102    
     61500   4379.8602      8.0432593      514.5023       16214.113     -2724.0607      34.715423     -2689.3452      5172.4859      1.236697       7.4030189      44.567602    
     61600   4392.3644      7.9972664      568.75762      23159.362     -2728.4871      38.376235     -2690.1109      5170.3761      1.2372016      7.4793164      39.533485    
     61700   4404.8107      8.0345394      417.0299       18312.786     -2730.8814      28.13859      -2702.7428      5171.3409      1.2369708      7.2322512      38.984888    
     61800   4417.2832      8.0176362      395.45316      14849.057     -2736.3803      26.682726     -2709.6975      5175.2986      1.2360249      8.9764862      38.119964    
     61900   4429.8236      7.9741941      372.22276      11954.028     -2732.9625      25.115282     -2707.8473      5179.0616      1.2351268      7.5613411      39.540435    
     62000   4442.2631      8.03894        466.32428      18479.421     -2727.9791      31.464669     -2696.5144      5181.4619      1.2345546      11.23232       52.749552    
     62100   4454.8262      7.9597933      500.34685      26621.333     -2722.0396      33.760301     -2688.2793      5183.7289      1.2340147      14.224454      53.957409    
     62200   4467.2735      8.0338986      456.78934      22740.36      -2722.2753      30.82131      -2691.454       5188.1141      1.2329717      6.1255807      43.561597    
     62300   4479.7623      8.0071789      499.1007       20835.366     -2731.3647      33.676219     -2697.6885      5193.6615      1.2316547      6.2286685      39.041649    
     62400   4492.2212      8.0263955      387.22027      14763.394     -2732.5775      26.127221     -2706.4503      5197.242       1.2308062      6.4130041      35.006632    
     62500   4504.6663      8.0353059      426.97332      25326.781     -2718.0967      28.809511     -2689.2872      5197.2592      1.2308021      8.2439115      41.314024    
     62600   4517.2243      7.9630539      422.89646      16309.057     -2732.076       28.534429     -2703.5416      5199.9022      1.2301765      9.3502416      39.531931    
     62700   4529.6518      8.0466694      350.67238      16918.918     -2742.7289      23.661197     -2719.0677      5198.5858      1.2304881      6.4648238      33.139528    
     62800   4542.1619      7.9934865      291.77543      19053.128     -2742.1287      19.687196     -2722.4415      5191.3232      1.2322095      8.7722824      37.817378    
     62900   4554.5888      8.0470823      343.951        15880.202     -2738.1652      23.207679     -2714.9575      5180.5142      1.2347805      5.9048502      33.890063    
     63000   4567.0926      7.9975482      626.14109      19667.657     -2718.7337      42.248116     -2676.4855      5166.8558      1.2380446      8.0749464      42.66041     
     63100   4579.5935      7.9994362      524.92624      15839.613     -2725.8884      35.418766     -2690.4696      5156.5381      1.2405218      6.9626313      42.528702    
     63200   4592.0277      8.0423683      380.05439      23143.101     -2736.8911      25.643712     -2711.2474      5148.3885      1.2424854      10.853002      41.424039    
     63300   4604.5945      7.9574166      323.41539      18363.23      -2738.9344      21.822064     -2717.1124      5140.4474      1.2444049      14.006061      41.386719    
     63400   4617.0912      8.002159       333.73183      18911.718     -2733.7486      22.518154     -2711.2304      5129.487       1.2470638      13.763714      44.473339    
     63500   4629.6167      7.9836984      372.3481       19650.216     -2726.6852      25.12374      -2701.5615      5115.2173      1.2505427      12.740998      42.253021    
     63600   4642.0801      8.0235127      495.08049      18435.855     -2727.3505      33.40496      -2693.9455      5103.0213      1.2535315      19.742743      50.743216    
     63700   4654.9997      7.7401914      431.70701      18840.745     -2725.9541      29.128911     -2696.8252      5095.2892      1.2554337      6.8102122      38.906301    
     63800   4668.2383      7.5536632      451.47362      24613.021     -2732.8947      30.462639     -2702.4321      5093.2465      1.2559372      7.3931235      37.117388    
     63900   4681.0752      7.7899945      395.78904      13928.14      -2735.366       26.705389     -2708.6607      5091.5621      1.2563527      10.711421      45.043969    
     64000   4694.0105      7.7307946      374.43397      13080.081     -2734.7016      25.264481     -2709.4372      5088.487       1.2571119      9.4029475      38.381569    
     64100   4706.9182      7.7473367      445.30575      22680.842     -2729.6525      30.046469     -2699.606       5087.0086      1.2574773      14.397672      46.593312    
     64200   4720.4651      7.3817423      397.47571      20711.701     -2738.2395      26.819195     -2711.4203      5087.6249      1.257325       7.8043294      34.859658    
     64300   4733.7048      7.5530747      398.80752      13923.413     -2741.6602      26.909057     -2714.7512      5087.8945      1.2572583      9.6640288      33.702221    
     64400   4746.6356      7.7334743      304.72079      16726.41      -2734.7424      20.560668     -2714.1818      5087.0979      1.2574552      8.228677       37.788996    
     64500   4759.5643      7.7346913      389.05661      16988.915     -2736.3483      26.251126     -2710.0972      5086.1509      1.2576893      11.112991      39.161739    
     64600   4772.4238      7.7763447      424.66305      26340.445     -2734.7808      28.653628     -2706.1271      5084.515       1.258094       22.596614      53.132224    
     64700   4785.485       7.6562958      408.60211      25960.197     -2733.8407      27.569935     -2706.2708      5082.8724      1.2585006      8.3410955      43.520497    
     64800   4798.3966      7.7449942      388.74637      22418.095     -2737.7935      26.230193     -2711.5634      5081.2956      1.2588911      13.834309      45.662838    
     64900   4811.4173      7.6800225      395.51274      19845.818     -2743.2127      26.686746     -2716.5259      5079.2115      1.2594077      10.551656      39.923471    
     65000   4824.3997      7.7027653      355.47425      15816.903     -2740.8205      23.985197     -2716.8353      5075.2707      1.2603855      15.96308       42.810505    
     65100   4837.4677      7.6522651      400.53382      21516.787     -2743.0731      27.025537     -2716.0475      5071.7514      1.2612601      11.862918      42.830032    
     65200   4850.7943      7.5038243      415.90149      30271.813     -2735.1452      28.062452     -2707.0827      5068.6937      1.262021       42.392429      87.810864    
     65300   4865.1405      6.9704685      453.42729      24679.824     -2737.6364      30.59446      -2707.042       5070.0834      1.2616751      11.35468       40.321573    
     65400   4879.546       6.9417735      399.19603      24638.999     -2745.2157      26.935271     -2718.2804      5075.4556      1.2603396      10.814695      34.88543     
     65500   4893.6296      7.1005031      325.05076      21104.473     -2746.219       21.932409     -2724.2866      5080.4395      1.2591032      9.2502512      40.069802    
     65600   4908.1144      6.9037808      321.69251      22539.628     -2746.2583      21.705815     -2724.5525      5084.6942      1.2580497      9.3111347      38.620551    
     65700   4922.2465      7.0760664      353.57689      25508.308     -2740.8252      23.857175     -2716.968       5089.8878      1.256766       11.956457      43.501822    
     65800   4936.7781      6.881551       468.73066      19913.294     -2740.1633      31.627037     -2708.5363      5096.3462      1.2551733      20.246068      47.897744    
     65900   4950.988       7.0373742      472.38232      23118.679     -2741.1265      31.873428     -2709.2531      5101.2485      1.2539671      9.3992386      43.588428    
     66000   4965.4853      6.897835       344.37151      21363.841     -2735.6428      23.236053     -2712.4068      5105.2304      1.2529891      15.520787      49.014849    
     66100   4979.8578      6.9577147      357.79003      20640.129     -2742.2635      24.141451     -2718.1221      5106.7548      1.252615       10.776934      40.848502    
     66200   4995.3654      6.4484689      296.45991      16268.666     -2742.8964      20.003275     -2722.8931      5105.5166      1.2529188      7.4909042      38.536229    
     66300   5009.5605      7.0446826      392.71374      19761.796     -2745.7143      26.497887     -2719.2164      5099.7898      1.2543258      10.71604       36.126475    
     66400   5023.7984      7.0235146      427.37365      19441.027     -2734.5322      28.836522     -2705.6957      5094.9164      1.2555256      8.9113449      40.625886    
     66500   5038.4261      6.8363195      308.83334      22889.283     -2742.6848      20.838157     -2721.8466      5093.3232      1.2559183      7.759063       36.2554      
     66600   5053.1802      6.7777898      282.16832      21952.089     -2747.1418      19.038968     -2728.1029      5092.1384      1.2562105      8.4131265      36.787699    
     66700   5067.3899      7.037436       317.84728      26888.611     -2745.4404      21.446362     -2723.9941      5091.0699      1.2564741      10.77808       42.406062    
     66800   5081.7479      6.9647384      410.14738      17465.459     -2742.4956      27.6742       -2714.8214      5089.9173      1.2567587      6.7050971      35.622162    
     66900   5096.0267      7.0034237      453.6353       16687.515     -2733.1161      30.608495     -2702.5076      5088.5492      1.2570966      7.9427451      40.034003    
     67000   5110.2378      7.0367469      399.24959      22685.093     -2734.3292      26.938885     -2707.3904      5087.5621      1.2573405      18.763037      48.339685    
     67100   5126.5519      6.1296745      694.00899      34353.773     -2707.1647      46.827421     -2660.3373      5142.4486      1.2439206      85.31736       174.76133    
     67200   5161.0362      2.8998684      925.93185      22812.232     -2720.7589      62.476137     -2658.2828      5290.3277      1.2091496      4.6553935      24.661912    
     67300   5217.7379      1.7636155      294.72338      14412.177     -2751.0692      19.886105     -2731.1831      5428.2956      1.1784174      7.5977906      24.163043    
     67400   5315.7779      1.0199915      168.05914      9095.4136     -2756.9068      11.339588     -2745.5672      5508.8242      1.1611911      8.0793587      24.176817    
     67500   5444.6453      0.77599167     216.53228      10628.342     -2757.2781      14.610255     -2742.6678      5541.3577      1.1543737      4.4775473      23.631221    
     67600   5580.1697      0.73787424     354.74444      12471.371     -2748.731       23.935954     -2724.7951      5541.8219      1.154277       8.3202584      32.249005    
     67700   5720.567       0.71226483     450.0262       13579.473     -2734.5053      30.364976     -2704.1403      5529.2129      1.1569093      7.4281499      36.835044    
     67800   5838.3886      0.84874067     450.78344      16284.721     -2736.9175      30.416069     -2706.5015      5514.7715      1.1599389      6.4359777      36.288389    
     67900   5949.2451      0.90206658     344.57791      13129.585     -2748.2422      23.24998      -2724.9922      5496.42        1.1638117      10.093827      37.298967    
     68000   6048.6582      1.0059038      255.89127      13313.71      -2755.008       17.265955     -2737.7421      5470.9037      1.1692397      4.3220598      26.574164    
     68100   6128.3552      1.254753       232.3377       15441.64      -2754.6894      15.676706     -2739.0127      5438.4744      1.1762118      5.8552103      29.259283    
     68200   6200.0563      1.3946785      327.71109      19741.543     -2752.7913      22.111911     -2730.6794      5401.9895      1.1841559      10.512703      30.81628     
     68300   6271.509       1.3995261      402.19882      12801.705     -2742.8907      27.137881     -2715.7528      5369.2567      1.1913749      7.6333851      37.493607    
     68400   6341.104       1.4368852      442.21668      19568.006     -2741.382       29.838038     -2711.544       5339.5514      1.1980029      7.7212143      41.586672    
     68500   6382.4495      2.4186426      365.69182      17814.467     -2746.4856      24.674615     -2721.811       5314.9072      1.2035577      5.763759       31.368068    
     68600   6419.4435      2.7031397      294.29734      27621.512     -2752.0218      19.857358     -2732.1644      5297.3349      1.2075502      11.50138       39.69        
     68700   6456.2765      2.7149603      239.88297      22106.358     -2752.5546      16.185815     -2736.3688      5280.8548      1.2113186      13.477483      39.334467    
     68800   6493.1489      2.7120543      265.5549       21040.846     -2751.5561      17.917997     -2733.6381      5263.0155      1.2154245      8.018472       34.73636     
     68900   6530.0772      2.7079488      325.77408      18886.608     -2746.4301      21.981214     -2724.4489      5244.805       1.2196445      9.6102965      37.693955    
     69000   6566.4202      2.7515668      390.24231      17554.158     -2740.4951      26.33113      -2714.164       5227.9751      1.2235708      9.7162451      42.381945    
     69100   6603.3208      2.7099832      390.63489      20147.43      -2740.6965      26.357619     -2714.3388      5212.2144      1.2272707      6.7102082      38.518548    
     69200   6640.606       2.6820242      327.35303      17361.442     -2745.7968      22.087752     -2723.709       5195.542       1.231209       11.711232      36.652754    
     69300   6677.9228      2.6797625      276.50157      14150.268     -2748.2313      18.65661      -2729.5747      5178.3333      1.2353005      9.1654664      33.491935    
     69400   6714.9831      2.6983049      344.04857      16823.761     -2740.6064      23.214263     -2717.3922      5160.0888      1.2396682      6.8267002      33.922184    
     69500   6751.9779      2.7030789      348.11368      20908.79      -2737.8798      23.488551     -2714.3913      5143.0167      1.2437832      7.7174712      33.194543    
     69600   6788.675       2.7250109      264.40816      17610.102     -2744.9552      17.840622     -2727.1145      5126.8665      1.2477013      5.714278       29.995743    
     69700   6820.4505      3.1470856      225.70147      11189.487     -2746.8253      15.228935     -2731.5964      5109.4493      1.2519544      4.9674403      28.542961    
     69800   6840.0761      5.095373       307.00511      19864.383     -2749.1971      20.7148       -2728.4823      5092.4091      1.2561437      6.3822024      33.405246    
     69900   6854.3585      7.0016154      361.68699      17244.469     -2744.645       24.404394     -2720.2406      5075.6525      1.2602907      6.0595799      33.558563    
     70000   6868.4587      7.0921181      351.55669      18931.592     -2739.1231      23.720865     -2715.4023      5062.0844      1.2636687      8.4981948      39.511108    
     70100   6883.5696      6.6177263      425.28482      21107.733     -2741.898       28.695581     -2713.2024      5051.4347      1.2663329      9.5721216      38.134511    
     70200   6898.3854      6.7495655      369.42358      21835.721     -2750.3476      24.926411     -2725.4212      5046.1084      1.2676695      8.2680262      30.947661    
     70289   6911.3625      6.8582304      253.41686      21933.327     -2750.6478      17.098998     -2733.5488      5047.0003      1.2674455      7.534054       36.308283    
Loop time of 6911.36 on 1 procs for 40000 steps with 523 atoms

Performance: 0.500 ns/day, 47.996 hours/ns, 5.788 timesteps/s, 3.027 katom-step/s
97.6% CPU use with 1 MPI tasks x 1 OpenMP threads

MPI task timing breakdown:
Section |  min time  |  avg time  |  max time  |%varavg| %total
---------------------------------------------------------------
Pair    | 6835.5     | 6835.5     | 6835.5     |   0.0 | 98.90
Neigh   | 11.787     | 11.787     | 11.787     |   0.0 |  0.17
Comm    | 14.233     | 14.233     | 14.233     |   0.0 |  0.21
Output  | 1.0905     | 1.0905     | 1.0905     |   0.0 |  0.02
Modify  | 39.458     | 39.458     | 39.458     |   0.0 |  0.57
Other   |            | 9.251      |            |       |  0.13

Nlocal:            523 ave         523 max         523 min
Histogram: 1 0 0 0 0 0 0 0 0 0
Nghost:           2636 ave        2636 max        2636 min
Histogram: 1 0 0 0 0 0 0 0 0 0
Neighs:              0 ave           0 max           0 min
Histogram: 1 0 0 0 0 0 0 0 0 0
FullNghs:        77584 ave       77584 max       77584 min
Histogram: 1 0 0 0 0 0 0 0 0 0

Total # of neighbors = 77584
Ave neighs/atom = 148.34417
Neighbor list builds = 12572
Dangerous builds = 2502
Density after 300K quench: 1.26744548145534 g/cm^3
Phase 4: Pressure release at 300K (20,000 steps)
Setting up Verlet run ...
  Unit style    : metal
  Current step  : 70289
  Time step     : 0.001
Per MPI rank memory allocation (min/avg/max) = 150.1 | 150.1 | 150.1 Mbytes
   Step          CPU           S/CPU           Temp          Press          PotEng         KinEng         TotEng         Volume        Density          Fmax          Fnorm     
     70289   0              0              253.41686      22275.218     -2750.6478      17.098998     -2733.5488      5047.0003      1.2674455      7.2063097      36.10724     
     70300   3.4575337      3.181455       254.1832       20938.978     -2749.8107      17.150705     -2732.66        5047.1763      1.2674013      9.6749154      34.732194    
     70400   17.662034      7.0400218      245.27678      23185.938     -2742.9402      16.549756     -2726.3905      5055.5777      1.2652951      10.432914      41.809545    
     70500   31.991961      6.9784028      313.30522      22842.012     -2743.9641      21.139892     -2722.8242      5064.7979      1.2629917      10.521733      36.482388    
     70600   46.243433      7.0168192      406.03375      20395.903     -2745.2737      27.396638     -2717.8771      5075.6644      1.2602878      6.86273        35.037651    
     70700   60.528049      7.0005378      373.78042      21144.573     -2740.4459      25.220384     -2715.2255      5089.2817      1.2569156      8.2270505      38.123647    
     70800   78.756184      5.4860249      381.25617      17135.002     -2739.4429      25.724801     -2713.7181      5107.6742      1.2523895      8.0823093      38.524884    
     70900   115.42749      2.7269275      473.46462      21927.914     -2730.9103      31.946455     -2698.9639      5132.806       1.2462575      9.4071354      40.83996     
     71000   156.11058      2.4580241      435.41993      16674.706     -2735.9679      29.379436     -2706.5884      5172.7103      1.2366434      11.72244       43.553054    
     71100   203.69066      2.1017198      366.55263      18254.033     -2735.1106      24.732697     -2710.3779      5225.4171      1.2241698      15.878541      44.065518    
     71200   244.47418      2.4519709      450.51819      16403.954     -2742.021       30.398172     -2711.6228      5262.0777      1.2156411      9.5727999      34.424664    
     71300   284.86236      2.4759716      326.80333      16318.982     -2736.633       22.050661     -2714.5824      5269.2047      1.2139968      13.016891      46.525436    
     71400   325.10282      2.485061       347.10366      16070.774     -2738.8568      23.420402     -2715.4364      5249.928       1.2184544      28.227818      53.862886    
     71500   365.83249      2.4552127      366.50881      18913.687     -2738.2556      24.729741     -2713.5259      5208.7059      1.2280973      7.9604304      35.906754    
     71600   406.57105      2.4546767      312.68458      18983.569     -2739.6228      21.098015     -2718.5248      5154.8225      1.2409346      7.3263462      37.458963    
     71700   444.44003      2.640684       325.55166      16690.062     -2743.387       21.966206     -2721.4208      5098.3558      1.2546786      11.085774      35.535491    
     71800   460.0562       6.4036198      377.4601       18146.471     -2744.363       25.468665     -2718.8943      5055.3441      1.2653536      14.275726      44.705118    
     71900   478.66538      5.3736918      337.7046       23416.209     -2738.7094      22.786211     -2715.9231      5031.2033      1.271425       7.510406       36.484986    
     72000   504.11281      3.9296699      363.20809      20341.973     -2744.7863      24.507029     -2720.2793      5032.9449      1.2709851      6.5315379      33.517232    
     72100   518.43635      6.9815123      319.05747      17590.171     -2744.7185      21.528019     -2723.1905      5054.4933      1.2655666      13.109482      36.956506    
     72200   532.80532      6.959442       360.72979      18033.446     -2749.7407      24.339808     -2725.4009      5088.507       1.257107       6.0929868      30.605246    
     72300   567.1108       2.9149862      363.46939      18311.054     -2744.7778      24.52466      -2720.2532      5126.0733      1.2478943      5.4289529      34.095244    
     72400   610.46727      2.306461       315.65914      19296.544     -2742.7028      21.29872      -2721.4041      5161.6787      1.2392863      28.165283      53.129011    
     72500   652.8178       2.3612453      312.6867       20487.165     -2745.2818      21.098159     -2724.1836      5194.9005      1.231361       8.3873393      36.188659    
     72600   695.54937      2.3401903      285.28906      19925.456     -2745.342       19.249535     -2726.0925      5231.0631      1.2228485      7.6871226      34.950747    
     72700   737.99043      2.3562088      320.6332       15555.411     -2745.1982      21.634339     -2723.5638      5261.1042      1.215866       8.6060229      36.151783    
     72800   780.43464      2.3560338      338.73744      17361.301     -2748.7675      22.855901     -2725.9116      5278.3786      1.2118869      7.5812303      33.035132    
     72900   822.7012       2.3659365      308.24725      13399.413     -2747.0937      20.798612     -2726.2951      5284.2969      1.2105296      5.8162154      33.34691     
     73000   865.19236      2.3534308      320.84162      13515.726     -2749.7836      21.648402     -2728.1352      5274.086       1.2128732      6.5883024      31.436335    
     73100   907.47851      2.3648405      302.87833      19898.91      -2748.2857      20.436351     -2727.8494      5252.8232      1.2177828      7.4534742      33.813475    
     73200   949.98467      2.3526003      295.10862      9667.6644     -2749.0867      19.912099     -2729.1746      5230.47        1.2229872      7.2282827      33.521035    
     73300   992.23234      2.3669942      324.42467      20387.805     -2749.4575      21.890164     -2727.5674      5203.543       1.2293158      6.8975751      33.07862     
     73400   1034.4954      2.3661301      347.72466      19628.449     -2750.8059      23.462303     -2727.3436      5181.5315      1.2345381      8.2122979      31.057878    
     73500   1077.5176      2.3243842      309.42615      15781.293     -2749.2197      20.878157     -2728.3415      5170.7443      1.2371135      7.2821592      33.241846    
     73600   1121.0882      2.2951269      310.62016      18216.065     -2749.0447      20.958722     -2728.086       5172.6946      1.2366471      5.4656702      34.696337    
     73700   1163.4923      2.3582635      317.36053      18032.316     -2748.7293      21.41352      -2727.3158      5189.4951      1.2326436      10.334704      38.310567    
     73800   1205.8998      2.3580705      313.44037      16433.642     -2747.8669      21.149011     -2726.7178      5209.9808      1.2277968      10.974743      38.248086    
     73900   1248.2007      2.364014       327.01335      15217.976     -2749.5788      22.064832     -2727.514       5236.188       1.2216517      8.7745963      38.317428    
     74000   1290.5479      2.361433       292.99184      13200.975     -2744.5528      19.769271     -2724.7835      5250.2828      1.218372       11.953697      42.799334    
     74100   1333.2199      2.3434573      320.5465       15459.896     -2745.6491      21.628489     -2724.0206      5243.7334      1.2198938      9.6226329      39.096694    
     74200   1375.5896      2.360178       368.81669      21347.227     -2748.4168      24.885462     -2723.5314      5218.8902      1.2257008      13.287698      43.625751    
     74300   1418.0642      2.3543464      314.4494       18325.236     -2739.7437      21.217095     -2718.5266      5189.0549      1.2327481      8.886343       42.635669    
     74400   1460.513       2.3557806      317.94977      14234.264     -2741.2329      21.453278     -2719.7796      5169.2034      1.2374823      15.714326      43.034864    
     74500   1503.0545      2.3506432      340.55941      17979.332     -2744.7448      22.978836     -2721.7659      5164.8107      1.2385348      8.2090224      38.572131    
     74600   1546.5079      2.3013191      388.34194      18032.236     -2750.5507      26.202905     -2724.3478      5170.0561      1.2372782      11.169987      39.353921    
     74700   1590.3338      2.2817544      296.91728      9652.0985     -2746.2958      20.034136     -2726.2617      5178.9575      1.2351516      6.9047119      34.70817     
     74800   1634.0448      2.2877559      314.18926      14525.605     -2747.4561      21.199542     -2726.2566      5187.9431      1.2330123      6.7100102      34.934631    
     74900   1676.5169      2.3544865      315.87803      13565.085     -2744.1581      21.31349      -2722.8446      5201.2341      1.2298615      7.5631306      36.691509    
     75000   1718.9919      2.3543266      405.35363      13595.462     -2747.0397      27.350748     -2719.689       5215.2713      1.2265513      6.2355579      36.108326    
     75100   1761.4131      2.35731        348.65403      15414.992     -2740.7544      23.52501      -2717.2294      5225.3797      1.2241786      5.7347298      33.561348    
     75200   1803.8217      2.3580146      309.8527       17147.095     -2738.3471      20.906938     -2717.4402      5237.9931      1.2212307      12.348072      39.60605     
     75300   1846.1751      2.3610836      328.61639      13527.047     -2740.8604      22.172995     -2718.6874      5259.9268      1.2161382      9.3259031      36.743109    
     75400   1888.593       2.3574972      319.29651      10775.586     -2741.5754      21.544147     -2720.0313      5277.0496      1.2121921      7.7090358      32.765105    
     75500   1930.8296      2.3676145      336.3265       12332.964     -2745.8616      22.693226     -2723.1684      5295.5212      1.2079638      11.366011      37.835752    
     75600   1973.1077      2.3652908      312.22443      6317.0906     -2748.0895      21.066967     -2727.0225      5313.3879      1.2039019      9.3232665      36.842584    
     75700   2015.4876      2.3596067      334.59171      10711.595     -2751.8529      22.576172     -2729.2767      5321.4053      1.2020881      4.9064005      30.173682    
     75800   2057.6874      2.3696798      526.39649      17672.851     -2743.9127      35.517969     -2708.3948      5324.818       1.2013176      11.622949      41.334065    
     75900   2099.9838      2.3642684      410.22785      17392.694     -2747.8454      27.67963      -2720.1658      5340.4407      1.1978034      10.458632      38.441671    
     76000   2144.5276      2.2449822      367.24387      13806.699     -2749.3612      24.779338     -2724.5819      5359.8318      1.1934699      5.879857       34.097765    
     76100   2200.3574      1.791158       348.11808      15238.538     -2752.2931      23.488848     -2728.8042      5369.9919      1.1912118      6.1692487      33.115526    
     76200   2263.2586      1.5897934      304.61251      16030.965     -2753.4562      20.553362     -2732.9029      5369.2811      1.1913695      9.4094348      36.207712    
     76300   2324.0456      1.6450892      310.6237       16432.174     -2754.9014      20.95896      -2733.9424      5367.0609      1.1918623      9.205002       36.422253    
     76400   2377.7299      1.8627406      313.15405      12444.576     -2754.9977      21.129693     -2733.868       5374.8991      1.1901243      6.1667053      31.948034    
     76500   2443.738       1.5149668      333.77877      13103.944     -2756.8818      22.521321     -2734.3605      5391.4932      1.1864613      6.262053       33.479598    
     76600   2522.4316      1.2707514      302.62579      8951.5441     -2754.2413      20.419311     -2733.822       5396.7413      1.1853075      9.1532811      37.533158    
     76700   2595.2438      1.3733961      320.43762      17736.278     -2756.3636      21.621142     -2734.7424      5386.2868      1.1876081      8.8323553      34.837432    
     76800   2656.1005      1.6432049      305.1876       15099.414     -2755.6969      20.592166     -2735.1048      5377.6514      1.1895151      7.7088056      36.134591    
     76900   2719.1962      1.5848944      298.96487      13562.504     -2755.449       20.172295     -2735.2767      5369.5737      1.1913046      6.8872194      33.566524    
     77000   2779.2664      1.6647186      295.81303      11498.631     -2754.402       19.959628     -2734.4424      5362.4024      1.1928978      5.73402        32.663917    
     77100   2835.5053      1.7781269      327.60675      13127.342     -2755.503       22.104871     -2733.3981      5351.5693      1.1953125      14.021875      39.072261    
     77200   2883.3168      2.091547       289.70636      9433.8514     -2753.2992      19.547588     -2733.7517      5348.8436      1.1959216      10.167317      36.503862    
     77300   2939.3393      1.7849983      295.24766      13000.412     -2750.7711      19.92148      -2730.8496      5349.06        1.1958733      9.1662867      39.764284    
     77400   2983.4577      2.2666258      301.35629      12456.335     -2749.9718      20.333653     -2729.6381      5346.836       1.1963707      8.4028163      36.524681    
     77500   3031.1012      2.0989249      323.90097      13631.915     -2751.5249      21.854828     -2729.67        5355.8201      1.1943638      10.880313      40.409151    
     77600   3083.6256      1.9038756      337.9289       11868.225     -2751.4118      22.801345     -2728.6104      5365.1165      1.1922943      9.2966967      36.612868    
     77700   3138.1953      1.8325192      321.25591      13964.984     -2750.356       21.676355     -2728.6796      5370.0993      1.191188       11.533695      44.458151    
     77800   3195.1383      1.7561437      421.09632      13308.525     -2748.8953      28.412967     -2720.4824      5375.7896      1.1899271      9.5587981      39.650523    
     77900   3261.1016      1.5159941      378.42555      7904.8799     -2749.2947      25.533808     -2723.7609      5384.326       1.1880406      6.7539395      34.401233    
     78000   3330.5273      1.4403877      299.95789      12728.944     -2745.9264      20.239298     -2725.6871      5396.3792      1.185387       4.8953979      33.399769    
     78100   3404.737       1.3475336      379.30086      14259.791     -2753.4773      25.592869     -2727.8844      5418.651       1.1805148      5.8002445      31.539025    
     78200   3490.3235      1.1684078      361.63932      11788.618     -2754.013       24.401178     -2729.6118      5444.6092      1.1748865      8.6592289      36.244528    
     78300   3578.7769      1.1305387      287.74246      9193.908      -2751.8878      19.415076     -2732.4727      5463.9744      1.1707225      6.2571748      31.096871    
     78400   3675.2513      1.0365449      302.22115      13756.448     -2754.8305      20.392008     -2734.4385      5487.1986      1.1657675      9.6147435      36.347308    
     78500   3782.2528      0.93456599     318.36033      14180.39      -2756.5667      21.48098      -2735.0858      5511.319       1.1606655      10.178847      32.870038    
     78600   3903.9448      0.8217471      309.30132      11737.175     -2755.2402      20.869734     -2734.3704      5530.1818      1.1567066      4.446815       30.510061    
     78700   4032.9018      0.77545225     296.98603      8343.4385     -2752.4122      20.038775     -2732.3734      5533.7257      1.1559658      5.2701886      29.97404     
     78800   4162.7387      0.770197       301.39219      13832.776     -2751.0298      20.336075     -2730.6937      5527.144       1.1573423      7.3284634      38.610127    
     78900   4291.783       0.77492756     286.13788      12148.969     -2747.543       19.306809     -2728.2362      5521.1144      1.1586063      16.427328      48.283334    
     79000   4421.5998      0.77031628     312.75816      8879.816      -2748.891       21.10298      -2727.788       5523.9243      1.1580169      12.58157       39.901117    
     79100   4616.4842      0.51312481     407.94197      10952.52      -2754.0084      27.525393     -2726.483       5528.4632      1.1570662      9.5473567      38.891876    
     79200   4872.9592      0.38990151     313.06027      10216.919     -2750.6056      21.123365     -2729.4823      5545.8174      1.1534454      10.341078      39.241823    
     79300   5080.9459      0.48079994     357.44503      13704.444     -2753.1488      24.118173     -2729.0307      5568.8068      1.1486837      10.465137      40.210273    
     79400   5237.604       0.63833273     318.54208      10690.39      -2754.0723      21.493243     -2732.5791      5596.6625      1.1429665      15.019572      39.023794    
     79500   5389.0112      0.66047064     328.79557      10729.793     -2757.171       22.185085     -2734.9859      5635.4952      1.1350906      8.8405581      37.201137    
     79600   5516.6823      0.78326262     302.20161      10167.223     -2757.0011      20.39069      -2736.6105      5667.6015      1.1286605      11.493268      42.031434    
     79700   5573.9524      1.7461124      303.42488      11566.797     -2757.9338      20.473229     -2737.4606      5685.5519      1.1250971      11.981315      44.722998    
     79800   5633.6537      1.6750052      328.53829      15541.094     -2760.4067      22.167725     -2738.239       5706.3546      1.1209955      9.8641599      36.616482    
     79900   5695.0597      1.6285045      333.58026      10646.123     -2754.2219      22.507926     -2731.714       5731.6772      1.1160429      4.9280693      31.47349     
     80000   5756.167       1.6364657      317.91004      8315.9947     -2754.4243      21.450597     -2732.9737      5755.9485      1.1113369      7.8364353      35.034685    
     80100   5817.0816      1.6416431      348.27833      9255.7194     -2757.3523      23.499661     -2733.8526      5775.7329      1.1075301      8.2383958      33.718005    
     80200   5877.4767      1.6557626      352.00276      8805.5117     -2760.4748      23.750962     -2736.7238      5787.0449      1.1053651      10.987266      37.105654    
     80300   5937.5806      1.6637862      298.87258      10334.663     -2758.1781      20.166068     -2738.012       5784.997       1.1057564      10.521313      39.572087    
     80400   5997.8187      1.6600805      315.18677      5432.1864     -2760.2393      21.266848     -2738.9724      5762.0322      1.1101635      7.0977692      33.982613    
     80500   6058.9709      1.6352638      290.93251      10469.428     -2759.3187      19.630321     -2739.6884      5722.8766      1.1177592      11.310586      39.492045    
     80600   6117.5656      1.7066369      376.20312      5501.6473     -2756.6743      25.383852     -2731.2905      5677.5021      1.1266923      10.542115      34.575155    
     80700   6203.2827      1.1666296      285.14878      10275.36      -2753.8393      19.240071     -2734.5992      5635.7796      1.1350333      10.532522      40.736564    
     80800   6351.4888      0.67473571     344.21369      13296.198     -2754.306       23.225404     -2731.0806      5610.8858      1.1400691      15.391067      42.155664    
     80900   6505.6943      0.64848537     318.69138      12461.469     -2754.9782      21.503317     -2733.4749      5615.8962      1.139052       13.464584      39.368958    
     81000   6680.8752      0.57083844     331.16565      11005.103     -2756.5943      22.345003     -2734.2493      5646.1543      1.1329477      5.7780485      33.916607    
     81100   6734.9748      1.8484442      331.97876      10588.473     -2752.902       22.399867     -2730.5021      5691.089       1.1240024      15.28666       38.823467    
     81200   6783.5764      2.0575453      335.98335      8700.1583     -2753.0031      22.670072     -2730.333       5734.5813      1.1154777      26.747323      51.636666    
     81300   6832.5086      2.0436433      318.36634      7168.301      -2753.4109      21.481385     -2731.9296      5778.043       1.1070873      8.0343374      35.243674    
     81400   6899.322       1.4967056      304.00847      12019.717     -2750.9579      20.512605     -2730.4453      5806.222       1.1017143      17.331897      47.123137    
     81500   7158.9695      0.3851375      397.72302      6612.0679     -2756.5734      26.835882     -2729.7375      5821.2405      1.0988719      9.0801579      38.002702    
     81600   7430.1333      0.36878084     384.21919      8221.3715     -2747.2679      25.924727     -2721.3432      5815.8037      1.0998992      11.746416      36.70989     
     81700   7701.093       0.36905865     358.13571      6279.2586     -2748.8282      24.164775     -2724.6635      5802.2653      1.1024656      7.5555947      35.118101    
     81800   7858.9926      0.63331377     369.37061      11010.328     -2752.0899      24.922837     -2727.167       5791.6297      1.1044901      4.8567496      31.740441    
     81900   7929.9316      1.4096613      315.3519       9168.6316     -2751.6728      21.277989     -2730.3948      5787.6758      1.1052447      11.95417       38.464912    
     82000   8094.1893      0.60879928     342.02691      12669.862     -2752.6478      23.077854     -2729.57        5781.8327      1.1063616      10.376048      43.10661     
     82100   8172.4693      1.2774666      338.91043      5116.0872     -2752.5594      22.867573     -2729.6918      5768.5877      1.1089019      11.858222      37.04328     
     82200   8220.9586      2.0623084      396.10097      9179.2716     -2748.0489      26.726436     -2721.3224      5754.7715      1.1115642      11.279594      38.051386    
     82300   8269.3469      2.0666145      372.9036       13184.236     -2747.105       25.161221     -2721.9438      5743.2056      1.1138027      14.103092      46.933171    
     82400   8318.0179      2.0546117      336.60883      9438.9572     -2749.5499      22.712275     -2726.8376      5754.0779      1.1116982      7.2827767      35.074682    
     82500   8366.6502      2.0562482      331.08703      12823.417     -2750.2764      22.339699     -2727.9367      5779.9497      1.106722       8.6370275      36.122681    
     82600   8593.0358      0.44172423     328.02516      5000.4813     -2750.6913      22.133103     -2728.5582      5811.5099      1.1007119      7.9172396      35.913018    
     82700   8862.0292      0.37175631     397.4806       9381.4775     -2747.5515      26.819525     -2720.732       5846.4933      1.0941256      8.9637651      34.702943    
     82800   9112.2711      0.3996134      341.28807      7232.4196     -2745.6906      23.028001     -2722.6626      5884.0049      1.0871503      14.014066      42.634197    
     82900   9328.6286      0.46219788     408.52211      5793.1184     -2751.568       27.564537     -2724.0035      5919.5623      1.0806201      7.0899239      33.563462    
     83000   9479.5598      0.66255372     300.2098       2682.4368     -2741.3317      20.256295     -2721.0754      5957.978       1.0736525      8.2275635      39.644085    
     83100   9692.531       0.46954699     347.64931      6789.5286     -2742.9405      23.457218     -2719.4833      5986.8344      1.0684775      13.405146      39.861319    
     83200   9841.9958      0.66905376     370.58449      14350.822     -2749.8234      25.004742     -2724.8186      6017.0183      1.0631176      14.249892      42.484257    
     83300   9920.1037      1.2802812      346.16179      5487.1454     -2754.4983      23.35685      -2731.1415      6053.8947      1.0566417      14.492887      42.108705    
     83400   9964.1179      2.2719897      317.42795      602.11608     -2755.1426      21.418069     -2733.7246      6080.9005      1.0519491      5.8407392      33.902996    
     83500   10007.924      2.2828061      311.21055      6267.4105     -2755.8958      20.998557     -2734.8973      6093.3797      1.0497947      7.8600053      36.628707    
     83600   10051.739      2.2823026      300.27968      5799.808      -2756.41        20.26101      -2736.149       6101.1561      1.0484567      8.1359519      37.156497    
     83700   10095.423      2.2891692      297.28911      2393.2951     -2756.8463      20.059225     -2736.7871      6095.1565      1.0494887      9.2147993      35.222886    
     83800   10139.346      2.2766995      298.03047      3107.5187     -2757.4756      20.109247     -2737.3663      6071.1579      1.0536372      10.120344      37.084964    
     83900   10302.361      0.61344178     376.39117      7792.1669     -2752.0172      25.396541     -2726.6206      6045.3931      1.0581277      7.5482187      34.922879    
     84000   10404.197      0.9819743      326.53094      7588.4405     -2752.893       22.032282     -2730.8607      6029.523       1.0609127      13.119966      40.643319    
     84100   10539.47       0.73924143     298.29136      10016.368     -2754.4564      20.12685      -2734.3295      6019.4177      1.0626938      10.971952      42.575642    
     84200   10711.544      0.58114613     295.24682      9090.471      -2756.5007      19.921424     -2736.5793      6011.8902      1.0640244      7.7825666      33.410759    
     84300   10880.029      0.59352451     315.85591      4038.6672     -2759.0947      21.311997     -2737.7827      6010.8489      1.0642087      6.0027542      32.947039    
     84400   11049.871      0.58878389     322.94148      9472.1581     -2759.401       21.790088     -2737.611       6009.9781      1.0643629      10.768709      41.013564    
     84500   11196.839      0.68042131     299.64041      5613.7828     -2758.723       20.217876     -2738.5051      6011.0643      1.0641706      5.4679157      35.234236    
     84600   11298.758      0.98116341     284.80573      12801.274     -2756.1765      19.216923     -2736.9596      6010.3511      1.0642968      13.735909      41.859282    
     84700   11410.66       0.89363959     285.24331      8987.071      -2755.8982      19.246449     -2736.6518      6015.4061      1.0634025      18.405219      52.895634    
     84800   11533.909      0.811368       343.83379      2045.065      -2761.2972      23.199771     -2738.0975      6028.6574      1.0610651      6.6398535      32.462231    
     84900   11647.631      0.87933378     797.75834      10742.555     -2746.8585      53.827783     -2693.0307      6044.0483      1.0583631      10.186989      38.007398    
     85000   11694.666      2.1261028      448.16361      4014.4595     -2728.6828      30.2393       -2698.4435      6114.9963      1.0460837      16.709901      42.066353    
     85100   11734.038      2.539893       463.4808       2310.062      -2745.137       31.272809     -2713.8641      6218.5548      1.0286631      15.232852      43.541078    
     85200   11753.739      5.0758477      377.66424      1367.1        -2749.3708      25.48244      -2723.8883      6320.7967      1.012024       7.4451178      37.708079    
     85300   11774.103      4.9105742      337.1578       6308.4772     -2749.3069      22.749317     -2726.5576      6405.2149      0.9986859      7.4079287      36.259042    
     85400   11793.692      5.1049081      303.51431      1101.5542     -2750.8694      20.479263     -2730.3902      6458.6808      0.99041862     9.4178033      40.590153    
     85500   11813.053      5.1648748      307.14928      3170.4895     -2755.9877      20.724528     -2735.2632      6479.2071      0.98728096     10.860728      34.549033    
     85600   11832.438      5.1588744      263.57381      3587.0873     -2755.246       17.784325     -2737.4616      6473.7792      0.98810873     8.8639395      35.912884    
     85700   11852.021      5.1063885      318.59037      1049.8565     -2758.6372      21.496502     -2737.1407      6451.463       0.9915267      12.09009       37.520311    
     85800   11871.862      5.0400366      321.69369      6569.0778     -2758.807       21.705895     -2737.1011      6417.3865      0.99679172     9.1064375      36.066396    
     85900   11892.145      4.9302578      293.60697     -393.24957     -2757.7979      19.810777     -2737.9872      6377.113       1.0030868      11.041967      36.888238    
     86000   11912.534      4.9046721      320.95585      5122.4321     -2760.9016      21.65611      -2739.2455      6334.4808      1.0098377      9.1475024      34.895846    
     86100   11932.654      4.9700909      314.72687      7342.0653     -2760.2572      21.235816     -2739.0214      6299.6541      1.0154205      8.4760119      39.303638    
     86200   11952.445      5.0527807      328.20402      6669.9603     -2761.1874      22.145171     -2739.0422      6268.4884      1.0204689      8.3602675      36.493453    
     86300   11972.176      5.0682545      273.78461      3812.6076     -2757.6134      18.473287     -2739.1401      6242.0147      1.024797       18.880226      51.435192    
     86400   12005.62       2.9900905      315.881        3657.7544     -2761.4525      21.31369      -2740.1388      6220.2018      1.0283907      11.940302      38.610533    
     86500   12041.535      2.7843044      269.21981      347.77214     -2757.3006      18.165283     -2739.1353      6210.6789      1.0299676      11.157993      36.441218    
     86600   12079.7        2.6201878      290.61771      6.5737882     -2758.2171      19.60908      -2738.608       6211.339       1.0298581      10.074236      37.024761    
     86700   12117.195      2.6670291      344.87649      3338.2573     -2758.8763      23.270126     -2735.6061      6216.5776      1.0289903      12.476264      40.023485    
     86800   12152.79       2.809435       282.27787     -3135.7151     -2757.3782      19.046359     -2738.3318      6228.489       1.0270224      6.1764198      32.615334    
     86900   12173.221      4.8945399      340.64743      2912.7186     -2759.8158      22.984775     -2736.831       6241.9088      1.0248144      12.343952      38.17847     
     87000   12193.099      5.0305671      348.44886      6410.3059     -2758.8536      23.511167     -2735.3424      6261.7431      1.0215682      7.5352935      36.165388    
     87100   12212.986      5.0284283      325.48968      4842.4039     -2759.4544      21.962024     -2737.4924      6287.376       1.0174034      8.4634676      35.37089     
     87200   12232.972      5.0035268      350.26575      2587.8318     -2759.6894      23.63376      -2736.0556      6304.596       1.0146245      7.8340458      35.679741    
     87300   12253.072      4.9751817      270.49346     -113.16173     -2753.9468      18.25122      -2735.6956      6304.1196      1.0147012      7.4675713      34.235996    
     87400   12273.356      4.9299674      313.85611      4853.8378     -2756.7229      21.177063     -2735.5459      6294.2166      1.0162977      9.2306051      38.662501    
     87500   12293.131      5.0567971      320.73566      5286.513      -2759.3103      21.641253     -2737.669       6281.723       1.018319       10.269982      41.875295    
     87600   12313.001      5.0328234      305.47232      1807.5703     -2758.3421      20.611377     -2737.7308      6270.753       1.0201004      11.333113      39.636961    
     87700   12332.763      5.0601715      285.10061      3553.2197     -2758.6425      19.23682      -2739.4057      6259.6032      1.0219175      12.489016      38.997918    
     87800   12352.255      5.1303452      257.32251      1860.598      -2754.8806      17.362527     -2737.5181      6253.4598      1.0229214      15.279159      40.995561    
     87900   12372.004      5.0634686      359.03777      7006.838      -2760.9998      24.225641     -2736.7741      6251.9771      1.023164       27.372378      53.678447    
     88000   12391.955      5.0123431      301.12111      993.22892     -2756.0417      20.317784     -2735.7239      6254.9225      1.0226822      14.483696      42.628911    
     88100   12411.412      5.1394894      356.58238      692.85056     -2759.1635      24.059967     -2735.1036      6265.5818      1.0209423      10.417948      39.534284    
     88200   12431.269      5.0360081      293.7058       4100.7432     -2753.0443      19.817445     -2733.2269      6277.4173      1.0190174      22.17146       52.73093     
     88300   12451.137      5.033216       331.47209      1931.7771     -2754.8251      22.36568      -2732.4594      6293.0844      1.0164805      15.153367      40.199404    
     88400   12471.04       5.0244709      365.31588      1006.834      -2756.8786      24.649249     -2732.2294      6316.1578      1.0127673      5.4155129      33.561435    
     88500   12491.205      4.9590063      316.03847      1319.7875     -2754.9214      21.324315     -2733.5971      6335.8246      1.0096236      10.937454      39.973536    
     88600   12511.49       4.9298283      266.78011      1652.0214     -2751.8653      18.000666     -2733.8647      6353.3872      1.0068327      28.820374      74.824841    
     88700   12532.047      4.8644448      363.94509      1744.2673     -2752.6434      24.556757     -2728.0866      6376.2137      1.0032283      11.554785      40.393976    
     88800   12552.4        4.913362       338.47763      3302.6156     -2754.2619      22.83837      -2731.4236      6402.4558      0.99911627     16.348181      45.060641    
     88900   12572.78       4.9067066      331.80652     -368.01457     -2758.4211      22.388245     -2736.0329      6432.5614      0.99444022     7.0585428      33.258466    
     89000   12592.23       5.141327       347.6305       2725.3399     -2760.3333      23.455949     -2736.8774      6466.8459      0.98916812     11.665741      37.269039    
     89100   12611.253      5.2567552      289.5782      -698.05341     -2758.0595      19.53894      -2738.5205      6507.8659      0.98293325     8.3482004      36.672438    
     89200   12630.116      5.3013883      343.61613      1814.4876     -2762.0166      23.185084     -2738.8316      6559.4454      0.97520406     7.2959192      33.626715    
     89300   12649.201      5.239831       321.369        1763.6682     -2758.3582      21.683986     -2736.6742      6606.3345      0.96828245     15.570053      42.861751    
     89400   12668.47       5.1896673      269.56168      3471.1217     -2753.3251      18.18835      -2735.1368      6650.7898      0.96181024     21.055561      57.982273    
     89500   12687.835      5.1637774      435.30088      4050.8606     -2754.3106      29.371403     -2724.9392      6704.7794      0.95406536     7.2217268      38.263715    
     89600   12706.715      5.2966298      426.90229     -288.01872     -2744.8501      28.804718     -2716.0454      6785.4886      0.94271734     15.281683      46.02442     
     89700   12725.292      5.3831048      364.49008     -1276.382      -2747.6307      24.593529     -2723.0372      6872.1542      0.93082861     9.7296488      41.600118    
     89800   12743.979      5.3513326      334.18984     -79.588216     -2751.3559      22.549057     -2728.8068      6961.81        0.91884118     8.6020599      36.037088    
     89900   12762.342      5.4458619      366.20276      3627.4175     -2756.4971      24.70909      -2731.788       7043.7921      0.90814687     8.2709786      35.70472     
     90000   12780.303      5.5675039      345.51921     -447.97025     -2759.3117      23.313492     -2735.9982      7116.3091      0.89889263     7.7876635      34.927394    
     90100   12798.487      5.4993371      311.9859      -3588.7919     -2761.1093      21.050873     -2740.0584      7184.405       0.89037266     6.2719623      33.501651    
     90200   12816.628      5.5122892      329.78867      1072.959      -2762.1558      22.252093     -2739.9037      7224.564       0.88542337     7.6399394      30.030204    
     90289   12832.71       5.5341375      275.64031     -1307.8833     -2757.6168      18.598498     -2739.0184      7244.3001      0.88301115     14.440489      43.48757     
Loop time of 12832.7 on 1 procs for 20000 steps with 523 atoms

Performance: 0.135 ns/day, 178.232 hours/ns, 1.559 timesteps/s, 815.104 atom-step/s
99.5% CPU use with 1 MPI tasks x 1 OpenMP threads

MPI task timing breakdown:
Section |  min time  |  avg time  |  max time  |%varavg| %total
---------------------------------------------------------------
Pair    | 12797      | 12797      | 12797      |   0.0 | 99.72
Neigh   | 4.9345     | 4.9345     | 4.9345     |   0.0 |  0.04
Comm    | 6.2551     | 6.2551     | 6.2551     |   0.0 |  0.05
Output  | 0.54253    | 0.54253    | 0.54253    |   0.0 |  0.00
Modify  | 19.723     | 19.723     | 19.723     |   0.0 |  0.15
Other   |            | 4.395      |            |       |  0.03

Nlocal:            523 ave         523 max         523 min
Histogram: 1 0 0 0 0 0 0 0 0 0
Nghost:           2202 ave        2202 max        2202 min
Histogram: 1 0 0 0 0 0 0 0 0 0
Neighs:              0 ave           0 max           0 min
Histogram: 1 0 0 0 0 0 0 0 0 0
FullNghs:        53874 ave       53874 max       53874 min
Histogram: 1 0 0 0 0 0 0 0 0 0

Total # of neighbors = 53874
Ave neighs/atom = 103.00956
Neighbor list builds = 5272
Dangerous builds = 55
Phase 5: Final NPT equilibration at 300K and 1 bar (10,000 steps)
Setting up Verlet run ...
  Unit style    : metal
  Current step  : 90289
  Time step     : 0.001
Per MPI rank memory allocation (min/avg/max) = 148.6 | 148.6 | 148.6 Mbytes
   Step          CPU           S/CPU           Temp          Press          PotEng         KinEng         TotEng         Volume        Density          Fmax          Fnorm     
     90289   0              0              275.64031     -1302.0721     -2757.6168      18.598498     -2739.0184      7244.3001      0.88301115     14.441716      43.508718    
     90300   2.1006671      5.2364213      312.13691      2465.0602     -2760.09        21.061062     -2739.0289      7244.264       0.88301556     15.314808      45.63694     
     90400   20.760618      5.359071       367.68348      777.54424     -2761.7877      24.809        -2736.9787      7250.2615      0.88228512     15.102986      40.725653    
     90500   39.394874      5.3664603      359.58718      3890.3041     -2760.078       24.262712     -2735.8153      7253.9693      0.88183414     19.341266      44.927791    
     90600   58.015742      5.3703189      344.27872     -1595.3613     -2755.7133      23.229792     -2732.4835      7259.3952      0.88117503     21.463763      45.835061    
     90700   76.381456      5.4449285      331.77811     -2453.8825     -2755.1086      22.386329     -2732.7222      7256.0107      0.88158604     8.1673297      34.24452     
     90800   94.72763       5.4507273      353.08998      2247.3815     -2757.2944      23.824321     -2733.4701      7250.4777      0.88225881     13.281028      40.673019    
     90900   113.03109      5.4634483      329.70594     -121.3929      -2756.3674      22.246511     -2734.1208      7244.4901      0.88298799     9.5117649      38.25113     
     91000   131.18603      5.5081413      339.75384     -713.11393     -2758.1676      22.924481     -2735.2432      7237.7554      0.88380961     11.062237      35.6318      
     91100   149.45277      5.474433       343.18373      830.92543     -2758.6967      23.155909     -2735.5408      7230.9717      0.88463875     16.189344      42.328395    
     91200   167.62408      5.5031792      353.77624     -679.88608     -2759.4907      23.870626     -2735.6201      7227.5651      0.88505571     10.456199      37.796586    
     91300   185.96723      5.4516253      284.50508      494.20946     -2755.6069      19.196637     -2736.4103      7232.5873      0.88444114     8.3548081      37.83362     
     91400   204.31725      5.4495865      397.00361      691.61948     -2761.4067      26.78734      -2734.6194      7236.4994      0.88396301     10.567491      36.058568    
     91500   220.49814      6.1801296      5180.8722      34894.407     -2698.4616      349.57311     -2348.8885      8475.0701      0.75477815     18.430048      46.339574    
     91600   231.26873      9.2845481      3570.1829      21667.261     -2708.3167      240.89379     -2467.4229      9307.4596      0.68727645     27.143479      46.401268    
     91700   241.51489      9.7597532      332.24214     -2614.6539     -2725.0227      22.417638     -2702.6051      9615.7966      0.66523847     5.1440411      18.646155    
     91800   251.63183      9.8844113      188.91279     -2744.5219     -2737.6772      12.746663     -2724.9306      9622.1941      0.66479617     5.3576696      19.85917     
     91900   261.71797      9.9145936      194.03898     -1046.3334     -2744.7846      13.092546     -2731.6921      9571.5397      0.6683144      13.258573      28.646122    
     92000   271.91761      9.8042652      262.42346     -571.95122     -2748.5514      17.706707     -2730.8446      9517.0301      0.67214223     5.7156031      22.113893    
     92100   282.16696      9.756715       373.6085       313.18246     -2747.2816      25.208783     -2722.0729      9489.9845      0.67405777     5.4231956      24.45381     
     92200   292.47385      9.7022453      338.59243      279.37434     -2741.3097      22.846117     -2718.4635      9489.0736      0.67412247     6.9829578      27.98874     
     92300   302.74628      9.7348006      332.74094     -928.01337     -2742.3494      22.451294     -2719.8981      9483.1996      0.67454004     9.7806028      27.608121    
     92400   313.11739      9.64217        300.06986      1157.4847     -2745.1908      20.246853     -2724.944       9475.1322      0.67511436     24.392329      52.8915      
     92500   323.39495      9.729933       280.12908     -468.85768     -2749.3932      18.901372     -2730.4918      9467.6142      0.67565045     17.054253      44.015158    
     92600   333.81505      9.5968359      234.41075     -1563.2479     -2747.7732      15.816583     -2731.9566      9447.8256      0.67706561     10.995469      30.451769    
     92700   344.06505      9.7561019      275.15982     -860.70702     -2748.0196      18.566077     -2729.4535      9432.1087      0.67819381     7.9597546      33.473458    
     92800   354.49726      9.5856946      380.53619     -1414.2971     -2740.9447      25.676221     -2715.2685      9426.7216      0.67858138     5.7491285      28.66842     
     92900   364.82488      9.6827701      310.02339      2164.1597     -2749.574       20.918455     -2728.6555      9413.8434      0.67950969     8.9338086      32.461586    
     93000   375.15858      9.6770827      224.23271      2507.5215     -2752.8271      15.129832     -2737.6973      9381.6365      0.68184242     8.4257163      28.647045    
     93100   385.48331      9.6854753      434.84867      2090.9146     -2749.739       29.34089      -2720.3981      9376.4834      0.68221715     6.15637        25.727488    
     93200   395.87385      9.6241398      164.53465     -286.25835     -2755.5346      11.101777     -2744.4328      9404.2562      0.68020241     3.5961009      19.984423    
     93300   406.03318      9.8431763      163.4384      -2276.788      -2759.0766      11.027809     -2748.0488      9410.8418      0.67972642     7.5436206      22.762992    
     93400   416.32087      9.7203474      752.62056      3183.9749     -2743.2652      50.782166     -2692.4831      9399.8731      0.68051959     11.019378      34.344094    
     93500   426.84997      9.4974914      455.7436      -1475.6334     -2738.3678      30.750751     -2707.6171      9564.4208      0.66881183     9.3080092      24.960125    
     93600   437.02634      9.8266892      163.59717     -1227.8057     -2749.2819      11.038522     -2738.2434      9696.8153      0.65968028     5.7714403      23.210582    
     93700   447.12369      9.9035843      132.12957     -3260.6008     -2752.1691      8.9152834     -2743.2538      9732.9152      0.65723349     4.9397547      20.148962    
     93800   457.36276      9.7665099      242.76225     -1152.3278     -2751.521       16.380091     -2735.1409      9702.479       0.6592952      6.5990691      26.936053    
     93900   467.55255      9.8137458      412.51276      638.13521     -2741.059       27.833802     -2713.2252      9652.4501      0.66271234     16.215986      39.531459    
     94000   477.59701      9.9557362      462.15547      3145.5233     -2736.3024      31.183384     -2705.1191      9653.4849      0.6626413      10.708108      41.361291    
     94100   487.91923      9.6878432      225.27354     -1816.5921     -2745.3022      15.200061     -2730.1021      9698.4364      0.65957001     7.460607       26.927263    
     94200   498.24332      9.6860869      175.51641     -118.37925     -2748.7368      11.842758     -2736.894       9726.5849      0.65766123     7.6714731      26.171612    
     94300   508.48628      9.7627952      219.93745      379.43831     -2748.7865      14.840015     -2733.9465      9738.3844      0.65686438     6.6872924      27.587463    
     94400   518.77432      9.7200234      328.11494     -3999.629      -2743.5872      22.139161     -2721.4481      9733.8186      0.65717249     8.0797337      28.230599    
     94500   528.97364      9.8045766      435.72042      810.05945     -2738.8017      29.399711     -2709.402       9701.3177      0.65937411     14.962429      43.63662     
     94600   539.12369      9.8521708      325.16858     -1010.7264     -2740.1926      21.940358     -2718.2523      9651.4761      0.66277922     5.8355578      29.501679    
     94700   549.45843      9.6760998      266.24423      888.07513     -2747.6384      17.964509     -2729.6739      9596.9101      0.66654764     5.5147639      26.887023    
     94800   559.63626      9.8252817      226.60254     -868.75542     -2749.8688      15.289734     -2734.579       9546.9439      0.67003617     6.2553651      23.976132    
     94900   569.89931      9.7436937      248.79162      395.2654      -2748.6848      16.786915     -2731.8979      9498.4138      0.67345958     5.5813666      27.446368    
     95000   580.07065      9.8315413      297.03784      983.47591     -2743.044       20.042271     -2723.0017      9460.2493      0.67617645     13.960349      37.327354    
     95100   590.31001      9.7662338      400.48793     -379.459       -2741.3607      27.022441     -2714.3382      9423.3566      0.6788237      14.626002      39.065414    
     95200   600.56856      9.7479716      326.67639     -16.05678      -2738.7684      22.042096     -2716.7263      9393.1149      0.68100921     14.576431      38.988291    
     95300   610.95296      9.6298291      245.81804     -3779.2745     -2742.4926      16.586276     -2725.9063      9361.252       0.68332717     5.0667562      28.37443     
     95400   621.21492      9.7447277      218.65746     -936.89682     -2741.5973      14.753649     -2726.8437      9316.8698      0.68658229     6.1491525      27.870534    
     95500   631.69766      9.5394886      283.28162     -550.37934     -2746.7127      19.114086     -2727.5986      9267.198       0.69026234     7.8749977      30.505123    
     95600   642.38004      9.3612125      318.21266     -691.9204      -2746.5866      21.471016     -2725.1156      9202.8591      0.69508809     5.80499        29.212859    
     95700   652.95591      9.4554841      289.49521     -485.80597     -2741.3327      19.53334      -2721.7993      9145.4775      0.69944929     7.6036647      29.170388    
     95800   663.56313      9.4275438      317.71556      2398.9572     -2741.4109      21.437475     -2719.9735      9109.404       0.70221914     6.0277071      30.259573    
     95900   674.18566      9.4139523      316.78938      206.75232     -2742.157       21.374982     -2720.7821      9098.0709      0.70309386     8.2532507      30.326669    
     96000   684.85335      9.3741002      300.11831      1529.1077     -2742.5243      20.250122     -2722.2742      9098.7989      0.7030376      6.8082987      32.424009    
     96100   695.44954      9.4373523      297.07059      25.465094     -2741.6924      20.04448      -2721.6479      9111.8382      0.70203154     13.81597       34.131736    
     96200   706.07246      9.4136071      287.07246      1345.4705     -2740.8591      19.369868     -2721.4892      9127.368       0.70083706     8.7763935      34.756767    
     96300   716.55335      9.5411784      287.95535     -1974.9286     -2741.4097      19.429441     -2721.9802      9140.8681      0.699802       5.9861152      31.595923    
     96400   726.89737      9.6674206      314.57569      369.3717      -2743.2133      21.225616     -2721.9876      9154.8586      0.69873256     6.7917686      31.047854    
     96500   737.24327      9.6656661      316.38271     -1920.5726     -2742.6465      21.347542     -2721.2989      9180.8443      0.69675485     8.312641       31.282991    
     96600   747.71048      9.5536435      297.3061       561.09287     -2741.8596      20.060371     -2721.7992      9199.4267      0.69534744     5.929037       28.670311    
     96700   758.01512      9.704361       299.25865     -309.13356     -2743.9404      20.192117     -2723.7483      9225.4397      0.69338676     6.7404587      30.762962    
     96800   768.32272      9.7015799      296.97794     -2177.1747     -2743.0005      20.038229     -2722.9623      9242.31        0.6921211      6.4080754      28.474422    
     96900   778.78227      9.5606451      298.69555     -2313.4246     -2742.0049      20.154122     -2721.8508      9250.3755      0.69151763     8.5595319      35.821577    
     97000   789.47415      9.3528924      317.90065     -2550.8558     -2741.6823      21.449963     -2720.2323      9255.979       0.691099       8.2022263      31.734191    
     97100   799.9691       9.5283843      1080.502       3153.48       -2737.1608      72.905571     -2664.2552      9869.8806      0.64811298     6.0734937      19.096496    
     97200   810.08275      9.8876282      133.01623     -1870.5038     -2740.653       8.9751101     -2731.6779      10324.754      0.61955933     3.8479509      15.892533    
     97300   820.08914      9.9936197      119.33205      256.92527     -2744.3297      8.0517866     -2736.2779      10387.679      0.61580625     7.1140441      20.093789    
     97400   830.06202      10.027187      178.16261     -1567.5703     -2742.2864      12.021307     -2730.2651      10370.497      0.61682654     4.0126803      20.542273    
     97500   840.03549      10.026608      384.55553     -563.18586     -2735.9134      25.947421     -2709.966       10346.771      0.61824097     6.9481349      30.850161    
     97600   850.23478      9.8045993      422.97281     -670.91026     -2725.6579      28.539581     -2697.1184      10329.895      0.61925098     8.7806454      33.655916    
     97700   860.34019      9.8956952      349.05741     -373.97595     -2732.4962      23.552228     -2708.944       10314.423      0.62017989     10.59571       33.765642    
     97800   870.52925      9.8144487      252.60194     -31.495255     -2740.2341      17.044011     -2723.1901      10326.448      0.61945769     16.284863      34.060314    
     97900   880.55443      9.9748811      243.71634     -1351.9333     -2746.0346      16.444467     -2729.5901      10336.96       0.61882777     8.8883557      31.065428    
     98000   890.44114      10.114589      256.6065      -775.04507     -2747.6612      17.314214     -2730.347       10338.357      0.61874411     7.5820549      26.859912    
     98100   900.38366      10.057814      280.26678     -1292.3509     -2742.7009      18.910663     -2723.7903      10332.348      0.61910399     9.0100022      28.926335    
     98200   910.43761      9.9463331      378.78884      2831.4015     -2742.8093      25.558321     -2717.2509      10312.64       0.62028712     10.689985      37.550641    
     98300   920.33145      10.107302      360.41128     -3976.4955     -2744.7436      24.318317     -2720.4252      10301.906      0.62093341     4.3605595      28.83804     
     98400   930.37728      9.9543731      279.17915     -1983.9796     -2746.6466      18.837277     -2727.8093      10251.64       0.62397799     4.2587598      27.865945    
     98500   940.43426      9.9433434      238.79946     -1219.258      -2747.5682      16.112706     -2731.4555      10208.739      0.62660021     4.3231416      26.346447    
     98600   950.57882      9.8575048      268.00791      1096.316      -2748.8699      18.083511     -2730.7864      10175.627      0.62863918     5.6582461      28.68157     
     98700   960.60865      9.9702589      312.92191     -190.0527      -2747.9094      21.114029     -2726.7954      10154.624      0.62993943     5.5769188      30.135268    
     98800   970.66474      9.9442203      314.12083      1555.1959     -2743.7788      21.194924     -2722.5838      10123.93       0.63184926     6.1367404      31.975095    
     98900   980.54659      10.119564      340.64076      364.66547     -2745.5049      22.984325     -2722.5206      10099.865      0.63335475     5.8625127      31.232524    
     99000   990.61395      9.9330933      315.47899     -2803.9077     -2748.0649      21.286565     -2726.7784      10085.045      0.6342855      6.2022507      29.901522    
     99100   1000.738       9.8774716      269.76209      1562.8286     -2746.8865      18.201872     -2728.6846      10050.771      0.63644849     13.251225      37.172868    
     99200   1010.7495      9.988522       249.51463     -2026.0255     -2746.1266      16.835699     -2729.2909      10012.36       0.63889008     5.7122994      30.992934    
     99300   1020.9248      9.8276696      287.34658      12.028489     -2746.7817      19.388364     -2727.3934      9963.3802      0.64203088     7.6303112      33.210648    
     99400   1031.1073      9.8207649      341.83017      1114.0837     -2747.3421      23.064579     -2724.2775      9935.0855      0.64385936     5.6231921      30.483802    
     99500   1041.1877      9.9202578      321.83046      1002.6446     -2744.9023      21.715123     -2723.1872      9910.7553      0.64543999     7.7833157      34.380686    
     99600   1051.3603      9.830335       323.32514      1808.2682     -2746.8975      21.815975     -2725.0815      9889.963       0.64679693     8.0316854      33.375666    
     99700   1061.5858      9.7795072      304.95593     -1252.5152     -2749.0601      20.576534     -2728.4836      9877.1327      0.64763712     6.2550214      29.337051    
     99800   1071.5389      10.047129      286.96119     -983.50353     -2747.3768      19.362361     -2728.0144      9861.0057      0.64869629     6.9220122      31.533405    
     99900   1081.6173      9.9221602      281.95869      2576.1837     -2745.0312      19.024823     -2726.0064      9849.5504      0.64945074     6.2643988      33.494867    
    100000   1091.7396      9.8792063      307.19805      2007.0414     -2746.0775      20.727818     -2725.3497      9837.2802      0.65026081     6.8832723      36.175697    
    100100   1101.8662      9.8749971      300.12094      667.25587     -2746.0954      20.250299     -2725.8451      9820.2532      0.65138827     14.121509      39.699862    
    100200   1112.0273      9.841395       298.08217     -2781.4692     -2745.1874      20.112735     -2725.0747      9808.7466      0.65215242     6.6667399      31.48872     
    100289   1120.988       9.932291       313.79838     -1807.8479     -2746.8408      21.173168     -2725.6677      9784.7718      0.65375033     8.631717       31.865892    
Loop time of 1120.99 on 1 procs for 10000 steps with 523 atoms

Performance: 0.771 ns/day, 31.139 hours/ns, 8.921 timesteps/s, 4.666 katom-step/s
96.3% CPU use with 1 MPI tasks x 1 OpenMP threads

MPI task timing breakdown:
Section |  min time  |  avg time  |  max time  |%varavg| %total
---------------------------------------------------------------
Pair    | 1103.4     | 1103.4     | 1103.4     |   0.0 | 98.43
Neigh   | 2.2835     | 2.2835     | 2.2835     |   0.0 |  0.20
Comm    | 2.9684     | 2.9684     | 2.9684     |   0.0 |  0.26
Output  | 0.25441    | 0.25441    | 0.25441    |   0.0 |  0.02
Modify  | 9.8468     | 9.8468     | 9.8468     |   0.0 |  0.88
Other   |            | 2.25       |            |       |  0.20

Nlocal:            523 ave         523 max         523 min
Histogram: 1 0 0 0 0 0 0 0 0 0
Nghost:           1918 ave        1918 max        1918 min
Histogram: 1 0 0 0 0 0 0 0 0 0
Neighs:              0 ave           0 max           0 min
Histogram: 1 0 0 0 0 0 0 0 0 0
FullNghs:        40534 ave       40534 max       40534 min
Histogram: 1 0 0 0 0 0 0 0 0 0

Total # of neighbors = 40534
Ave neighs/atom = 77.502868
Neighbor list builds = 2853
Dangerous builds = 590
System init for write_data ...
WARNING: No fixes with time integration, atoms won't move
For more information see https://docs.lammps.org/err0028 (src/verlet.cpp:60)
Setting up Verlet run ...
  Unit style    : metal
  Current step  : 100289
  Time step     : 0.001
Per MPI rank memory allocation (min/avg/max) = 143.4 | 143.4 | 143.4 Mbytes
   Step          CPU           S/CPU           Temp          Press          PotEng         KinEng         TotEng         Volume        Density          Fmax          Fnorm     
    100289   0              0              313.79838     -1826.7441     -2746.8408      21.173168     -2725.6677      9784.7718      0.65375033     8.6318854      31.87195     
GPU information: NVIDIA RTX A6000, 8, 6, 45, 84, 300, 2100
Loop time of 0.000132 on 1 procs for 0 steps with 523 atoms

106.8% CPU use with 1 MPI tasks x 1 OpenMP threads

MPI task timing breakdown:
Section |  min time  |  avg time  |  max time  |%varavg| %total
---------------------------------------------------------------
Pair    | 0          | 0          | 0          |   0.0 |  0.00
Neigh   | 0          | 0          | 0          |   0.0 |  0.00
Comm    | 0          | 0          | 0          |   0.0 |  0.00
Output  | 0          | 0          | 0          |   0.0 |  0.00
Modify  | 0          | 0          | 0          |   0.0 |  0.00
Other   |            | 0.000132   |            |       |100.00

Nlocal:            523 ave         523 max         523 min
Histogram: 1 0 0 0 0 0 0 0 0 0
Nghost:           1918 ave        1918 max        1918 min
Histogram: 1 0 0 0 0 0 0 0 0 0
Neighs:              0 ave           0 max           0 min
Histogram: 1 0 0 0 0 0 0 0 0 0
FullNghs:        40568 ave       40568 max       40568 min
Histogram: 1 0 0 0 0 0 0 0 0 0

Total # of neighbors = 40568
Ave neighs/atom = 77.567878
Neighbor list builds = 0
Dangerous builds = 0
System init for write_restart ...
===========================================
V3 True T-P Annealing (100k) Complete!
===========================================
Density Summary (Target: 1.10 g/cm^3):
  Initial density:            0.653750330947104 g/cm^3
  After high-T compression:   0.653750330947104 g/cm^3
  After quench compression:   0.653750330947104 g/cm^3
  Final density:              0.653750330947104 g/cm^3
  Target:                     1.1 g/cm^3
  Relative error:             40.5681517320815%%
===========================================
Output files:
  - densified_pdms.lmpdat     (LAMMPS data format)
  - densified_pdms.xyz        (XYZ format)
  - densified_pdms.restart    (restart file)
  - full_trajectory.xyz       (complete XYZ trajectory)
  - full_trajectory.lammpstrj (complete LAMMPS trajectory)
  - trajectory.xyz            (MD XYZ trajectory)
  - trajectory.lammpstrj      (MD LAMMPS trajectory)
  - trajectory.dcd            (MD DCD trajectory)
  - melt_quench_log.lammps    (LAMMPS log file)
===========================================
Total: 100,000 steps (~2.5 hours)
Strategy: True T-P Annealing (Melt, Compress 2GPa, Quench, Release)
===========================================
Total wall time: 6:46:00
 
[SUCCESS] Workflow completed at: 2026/04/08 周三  5:22:22.62 
Final density should be checked in melt_quench_log.lammps 
