========================================== 
PDMS Melt-Quench Densification Simulation 
Target density: 1.10 g/cm3 
Using MACE Machine Learning Force Field 
Log file: run_melt_quench_12-Sat-20_18-14-51.log 
Started at: Sat 12/20/2025 18:14:51.25 
========================================== 
 
Using: docker-compose 
Step 1: Converting XYZ to LAMMPS data format... 
Successfully converted silicone_slab.xyz to silicone_slab.lmpdat
Cell dimensions: 22.000 x 19.080 x 20.000 A
Elements found: ['C', 'H', 'O', 'Si']
Total atoms: 523
Initial density: 0.762 g/cm^3
Target density: 1.10 g/cm^3 (PDMS rubber)
XYZ conversion completed successfully. 
 
Step 2: Converting MACE model to MLIAP format... 
Using default model: mace_pretained_models\mace-mpa-0-medium.model 
Converting model in Docker container... 
 Network lammps_melting-quenching_cuequ_default  Creating
 Network lammps_melting-quenching_cuequ_default  Created
/usr/local/lib/python3.10/dist-packages/e3nn/o3/_wigner.py:10: UserWarning: Environment variable TORCH_FORCE_NO_WEIGHTS_ONLY_LOAD detected, since the`weights_only` argument was not explicitly passed to `torch.load`, forcing weights_only=False.
  _Jd, _W3j_flat, _W3j_indices = torch.load(os.path.join(os.path.dirname(__file__), 'constants.pt'))
Failed to get GPU information from pynvml: Not Supported. Using default values.
/workspace/convert_mace_to_mliap.py:58: UserWarning: Environment variable TORCH_FORCE_NO_WEIGHTS_ONLY_LOAD detected, since the`weights_only` argument was not explicitly passed to `torch.load`, forcing weights_only=False.
  model = torch.load(
/usr/local/lib/python3.10/dist-packages/mace/modules/models.py:84: UserWarning: To copy construct from a tensor, it is recommended to use sourceTensor.detach().clone() or sourceTensor.detach().clone().requires_grad_(True), rather than torch.tensor(sourceTensor).
  "atomic_numbers", torch.tensor(atomic_numbers, dtype=torch.int64)
/usr/local/lib/python3.10/dist-packages/cuequivariance_torch/operations/linear.py:125: DeprecationWarning: `use_fallback` is deprecated, please use `method` instead
  warnings.warn(
/usr/local/lib/python3.10/dist-packages/cuequivariance_torch/operations/linear.py:125: DeprecationWarning: `use_fallback` is deprecated, please use `method` instead
  warnings.warn(
/usr/local/lib/python3.10/dist-packages/cuequivariance_torch/operations/linear.py:125: DeprecationWarning: `use_fallback` is deprecated, please use `method` instead
  warnings.warn(
/usr/local/lib/python3.10/dist-packages/cuequivariance_torch/operations/tp_fully_connected.py:142: DeprecationWarning: `use_fallback` is deprecated, please use `method` instead
  warnings.warn(
/usr/local/lib/python3.10/dist-packages/cuequivariance_torch/operations/linear.py:125: DeprecationWarning: `use_fallback` is deprecated, please use `method` instead
  warnings.warn(
/usr/local/lib/python3.10/dist-packages/cuequivariance_torch/operations/linear.py:125: DeprecationWarning: `use_fallback` is deprecated, please use `method` instead
  warnings.warn(
/usr/local/lib/python3.10/dist-packages/cuequivariance_torch/operations/linear.py:125: DeprecationWarning: `use_fallback` is deprecated, please use `method` instead
  warnings.warn(
/usr/local/lib/python3.10/dist-packages/cuequivariance_torch/operations/linear.py:125: DeprecationWarning: `use_fallback` is deprecated, please use `method` instead
  warnings.warn(
/usr/local/lib/python3.10/dist-packages/cuequivariance_torch/operations/tp_fully_connected.py:142: DeprecationWarning: `use_fallback` is deprecated, please use `method` instead
  warnings.warn(
/usr/local/lib/python3.10/dist-packages/cuequivariance_torch/operations/linear.py:125: DeprecationWarning: `use_fallback` is deprecated, please use `method` instead
  warnings.warn(
/usr/local/lib/python3.10/dist-packages/cuequivariance_torch/operations/linear.py:125: DeprecationWarning: `use_fallback` is deprecated, please use `method` instead
  warnings.warn(
/usr/local/lib/python3.10/dist-packages/cuequivariance_torch/operations/linear.py:125: DeprecationWarning: `use_fallback` is deprecated, please use `method` instead
  warnings.warn(
GPU information: NVIDIA RTX A6000, 8, 6, 45, 84, 300, 2100
cuEquivariance conversion is available - GPU acceleration will be enabled!
No model path provided, using default: /workspace/mace_pretained_models/mace-mpa-0-medium.model
Loading model from: /workspace/mace_pretained_models/mace-mpa-0-medium.model
Converting model to cuEquivariance format for GPU acceleration...
cuEquivariance conversion successful!
Model loaded and converted to float64
Using head: default
Model saved to: /workspace/mace_pretained_models/mace-mpa-0-medium.model-mliap_lammps.pt
Conversion successful!
 
Model conversion completed successfully 
Output file: mace_pretained_models\mace-mpa-0-medium.model-mliap_lammps.pt 
 
Step 3: Running melt-quench simulation... 
This may take a while... 

==========
== CUDA ==
==========

CUDA Version 12.9.0

Container image Copyright (c) 2016-2023, NVIDIA CORPORATION & AFFILIATES. All rights reserved.

This container image and its contents are governed by the NVIDIA Deep Learning Container License.
By pulling and using the container, you accept the terms and conditions of this license:
https://developer.nvidia.com/ngc/nvidia-deep-learning-container-license

A copy of this license is made available in this container at /NGC-DL-CONTAINER-LICENSE for your convenience.

LAMMPS (22 Jul 2025 - Update 2)
/usr/local/lib/python3.10/dist-packages/e3nn/o3/_wigner.py:10: UserWarning: Environment variable TORCH_FORCE_NO_WEIGHTS_ONLY_LOAD detected, since the`weights_only` argument was not explicitly passed to `torch.load`, forcing weights_only=False.
  _Jd, _W3j_flat, _W3j_indices = torch.load(os.path.join(os.path.dirname(__file__), 'constants.pt'))
Failed to get GPU information from pynvml: Not Supported. Using default values.
W1220 10:15:29.615000 1 torch/fx/_symbolic_trace.py:52] is_fx_tracing will return true for both fx.symbolic_trace and torch.export. Please use is_fx_tracing_symbolic_tracing() for specifically fx.symbolic_trace or torch.compiler.is_compiling() for specifically torch.export/compile.
/usr/local/lib/python3.10/dist-packages/mace/calculators/lammps_mliap_mace.py:193: UserWarning: Converting a tensor with requires_grad=True to a scalar may lead to unexpected behavior.
Consider using tensor.detach() first. (Triggered internally at /pytorch/torch/csrc/autograd/generated/python_variable_methods.cpp:836.)
  data.energy = torch.sum(atom_energies[:natoms])
KOKKOS mode with Kokkos version 4.6.2 is enabled
  will use up to 1 GPU(s) per node
WARNING: When using a single thread, the Kokkos Serial backend (i.e. Makefile.kokkos_mpi_only) gives better performance than the OpenMP backend (src/KOKKOS/kokkos.cpp:221)
  using 1 OpenMP thread(s) per MPI task
Reading data file ...
  orthogonal box = (0 0 0) to (22 19.079963 20)
  1 by 1 by 1 MPI processor grid
  reading atoms ...
  523 atoms
  read_data CPU = 0.056 seconds
Step 1: Quick Minimization
Neighbor list info ...
  update: every = 1 steps, delay = 0 steps, check = yes
  max neighbors/atom: 2000, page size: 100000
  master list distance cutoff = 7
  ghost atom cutoff = 7
  binsize = 7, bins = 4 3 3
  1 neighbor lists, perpetual/occasional/extra = 1 0 0
  (1) pair mliap/kk, perpetual
      attributes: full, newton on, kokkos_device
      pair build: full/bin/kk/device
      stencil: full/bin/3d
      bin: kk/device
Setting up cg/kk style minimization ...
  Unit style    : metal
  Current step  : 0
WARNING: Fix MINIMIZE/kk not compatible with sending data in Kokkos communication (src/KOKKOS/comm_kokkos.cpp:767)
WARNING: Fix with atom-based arrays not compatible with sending data in Kokkos communication, switching to classic exchange/border communication (src/KOKKOS/comm_kokkos.cpp:780)
WARNING: Fix MINIMIZE/kk not compatible with Kokkos sorting on device (src/KOKKOS/atom_kokkos.cpp:212)
WARNING: Fix with atom-based arrays not compatible with Kokkos sorting on device, switching to classic host sorting (src/KOKKOS/atom_kokkos.cpp:218)
Per MPI rank memory allocation (min/avg/max) = 118.4 | 118.4 | 118.4 Mbytes
   Step          CPU           S/CPU           Temp          Press          PotEng         KinEng         TotEng         Volume        Density          Fmax          Fnorm     
         0   0              0              0              150097.85     -2363.8186      0             -2363.8186      8395.1837      0.76196043     12.378492      76.805711    
       100   17.036166      5.8698633      0              1568.4489     -2827.5823      0             -2827.5823      8395.1837      0.76196043     0.89971419     3.7047204    
       200   36.136969      5.2353822      0             -30.697817     -2836.0444      0             -2836.0444      8395.1837      0.76196043     0.31356859     1.37999      
       300   55.19567       5.2469474      0              375.66615     -2838.7023      0             -2838.7023      8395.1837      0.76196043     0.20369708     0.904859     
       400   74.60477       5.1522222      0              838.17007     -2840.6391      0             -2840.6391      8395.1837      0.76196043     0.33102527     0.85241273   
       500   94.07581       5.1358302      0              196.5686      -2841.702       0             -2841.702       8395.1837      0.76196043     0.10776578     0.53976347   
       600   113.68651      5.0992583      0              485.28204     -2842.6869      0             -2842.6869      8395.1837      0.76196043     0.27982957     0.72227947   
       700   133.31662      5.0942152      0              109.21667     -2843.4564      0             -2843.4564      8395.1837      0.76196043     0.14356379     0.36841976   
       800   153.07702      5.0606257      0              171.95911     -2843.6301      0             -2843.6301      8395.1837      0.76196043     0.068654776    0.18651704   
       900   172.65695      5.107272       0              343.66134     -2843.7116      0             -2843.7116      8395.1837      0.76196043     0.064176518    0.16970379   
      1000   192.28208      5.0955089      0              97.233449     -2843.7895      0             -2843.7895      8395.1837      0.76196043     0.066665078    0.1800022    
      1100   212.20536      5.0192521      0              192.056       -2843.88        0             -2843.88        8395.1837      0.76196043     0.072618806    0.22062083   
      1200   231.54683      5.1702384      0              47.250437     -2843.9861      0             -2843.9861      8395.1837      0.76196043     0.054460551    0.15320366   
      1300   250.92268      5.161064       0              54.143857     -2844.0278      0             -2844.0278      8395.1837      0.76196043     0.036305976    0.11553049   
      1400   270.46273      5.1176951      0              71.739916     -2844.0472      0             -2844.0472      8395.1837      0.76196043     0.025714122    0.07411112   
      1500   289.83942      5.1608382      0              172.83312     -2844.0638      0             -2844.0638      8395.1837      0.76196043     0.022500327    0.09715851   
      1600   309.48579      5.0899958      0              142.65917     -2844.1147      0             -2844.1147      8395.1837      0.76196043     0.025845256    0.14645635   
      1700   329.02396      5.1181892      0              144.45348     -2844.1354      0             -2844.1354      8395.1837      0.76196043     0.017936952    0.10511724   
      1800   348.51392      5.1308411      0              137.32079     -2844.1688      0             -2844.1688      8395.1837      0.76196043     0.028721256    0.1081673    
      1900   368.21097      5.0769099      0              66.595039     -2844.2043      0             -2844.2043      8395.1837      0.76196043     0.026868164    0.11849639   
      2000   387.58238      5.1622469      0              20.305278     -2844.224       0             -2844.224       8395.1837      0.76196043     0.011068313    0.060277123  
      2100   407.16812      5.1057557      0              51.918423     -2844.229       0             -2844.229       8395.1837      0.76196043     0.0062969131   0.033518517  
      2200   426.89622      5.068912       0              64.523411     -2844.2304      0             -2844.2304      8395.1837      0.76196043     0.0051717942   0.016522484  
      2300   446.35844      5.1381588      0              48.413598     -2844.2308      0             -2844.2308      8395.1837      0.76196043     0.0029840935   0.0089795689 
      2400   465.81346      5.1400622      0              45.362591     -2844.2309      0             -2844.2309      8395.1837      0.76196043     0.0011639265   0.004362088  
      2500   485.29389      5.1333567      0              45.121792     -2844.2309      0             -2844.2309      8395.1837      0.76196043     0.00051943606  0.0024568427 
      2600   504.72309      5.1468913      0              45.437695     -2844.2309      0             -2844.2309      8395.1837      0.76196043     0.00035766061  0.0011212953 
      2700   524.20531      5.1328866      0              45.132067     -2844.2309      0             -2844.2309      8395.1837      0.76196043     0.00013664919  0.00046265943
      2800   544.03276      5.0435117      0              45.229681     -2844.2309      0             -2844.2309      8395.1837      0.76196043     6.0858331e-05  0.00024645185
      2900   563.72768      5.0774509      0              45.210434     -2844.2309      0             -2844.2309      8395.1837      0.76196043     3.4777996e-05  0.00013230378
      3000   583.61856      5.0274312      0              45.231317     -2844.2309      0             -2844.2309      8395.1837      0.76196043     1.6207782e-05  6.5184726e-05
      3100   603.46795      5.037937       0              45.246898     -2844.2309      0             -2844.2309      8395.1837      0.76196043     6.0756403e-06  3.6023118e-05
      3200   622.98636      5.1233703      0              45.255597     -2844.2309      0             -2844.2309      8395.1837      0.76196043     1.7212599e-06  1.3356039e-05
      3300   642.60327      5.0976419      0              45.259031     -2844.2309      0             -2844.2309      8395.1837      0.76196043     2.3150339e-06  9.2442068e-06
      3400   662.16994      5.1107305      0              45.261015     -2844.2309      0             -2844.2309      8395.1837      0.76196043     1.4860617e-06  4.709358e-06 
      3500   681.97733      5.0486223      0              45.26556      -2844.2309      0             -2844.2309      8395.1837      0.76196043     8.7239385e-07  2.3852902e-06
      3600   701.72154      5.064776       0              45.266223     -2844.2309      0             -2844.2309      8395.1837      0.76196043     1.8241902e-07  1.1557171e-06
      3700   721.30388      5.1066422      0              45.266293     -2844.2309      0             -2844.2309      8395.1837      0.76196043     6.0520857e-08  3.6501219e-07
      3800   740.78097      5.1342365      0              45.266483     -2844.2309      0             -2844.2309      8395.1837      0.76196043     2.9785458e-08  1.3714779e-07
      3900   760.42682      5.0901331      0              45.266588     -2844.2309      0             -2844.2309      8395.1837      0.76196043     1.0962285e-08  5.7882256e-08
      4000   780.08886      5.0859423      0              45.26661      -2844.2309      0             -2844.2309      8395.1837      0.76196043     2.7087609e-09  1.1623588e-08
      4007   781.5683       4.7315013      0              45.26661      -2844.2309      0             -2844.2309      8395.1837      0.76196043     1.8230504e-09  9.2421566e-09
Loop time of 781.582 on 1 procs for 4007 steps with 523 atoms

96.4% CPU use with 1 MPI tasks x 1 OpenMP threads

Minimization stats:
  Stopping criterion = force tolerance
  Energy initial, next-to-last, final = 
     -2363.81860700332  -2844.23094817515  -2844.23094817515
  Force two-norm initial, final = 76.805711 9.2421566e-09
  Force max component initial, final = 12.378492 1.8230504e-09
  Final line search alpha, max atom move = 1 1.8230504e-09
  Iterations, force evaluations = 4007 7961

MPI task timing breakdown:
Section |  min time  |  avg time  |  max time  |%varavg| %total
---------------------------------------------------------------
Pair    | 770.31     | 770.31     | 770.31     |   0.0 | 98.56
Neigh   | 0.13602    | 0.13602    | 0.13602    |   0.0 |  0.02
Comm    | 5.5626     | 5.5626     | 5.5626     |   0.0 |  0.71
Output  | 0.42492    | 0.42492    | 0.42492    |   0.0 |  0.05
Modify  | 0          | 0          | 0          |   0.0 |  0.00
Other   |            | 5.152      |            |       |  0.66

Nlocal:            523 ave         523 max         523 min
Histogram: 1 0 0 0 0 0 0 0 0 0
Nghost:           1928 ave        1928 max        1928 min
Histogram: 1 0 0 0 0 0 0 0 0 0
Neighs:              0 ave           0 max           0 min
Histogram: 1 0 0 0 0 0 0 0 0 0
FullNghs:        49588 ave       49588 max       49588 min
Histogram: 1 0 0 0 0 0 0 0 0 0

Total # of neighbors = 49588
Ave neighs/atom = 94.814532
Neighbor list builds = 93
Dangerous builds = 0
Initial density: 0.761960427262085 g/cm^3
Step 2: Heating 300K -> 500K (600 steps)
Setting up Verlet run ...
  Unit style    : metal
  Current step  : 4007
  Time step     : 0.001
Per MPI rank memory allocation (min/avg/max) = 125.4 | 125.4 | 125.4 Mbytes
   Step          CPU           S/CPU           Temp          Press          PotEng         KinEng         TotEng         Volume        Density          Fmax          Fnorm     
      4007   0              0              300            2620.6702     -2844.2309      20.242139     -2823.9888      8395.1837      0.76196043     1.8230524e-09  9.24216e-09  
      4100   9.1949657      10.114225      144.13881     -646.51599     -2833.3184      9.7255925     -2823.5928      8395.4283      0.76193823     2.8456865      20.236306    
      4200   19.140612      10.054649      136.51105     -338.45305     -2832.2568      9.2109189     -2823.0459      8396.3345      0.76185599     2.8869058      22.651804    
      4300   29.06722       10.073936      163.51414     -1415.7722     -2833.6239      11.032919     -2822.591       8397.3289      0.76176578     2.3661931      19.86748     
      4400   39.107739      9.9596444      165.60194      95.730589     -2833.1525      11.173791     -2821.9787      8398.662       0.76164487     3.5062484      22.737744    
      4500   49.162116      9.9459099      173.43203     -1637.9957     -2833.0138      11.702117     -2821.3116      8400.8983      0.76144212     2.294326       21.347262    
      4600   59.130589      10.031633      182.7849      -876.19854     -2832.8314      12.333191     -2820.4982      8403.024       0.76124949     2.4267894      22.070207    
      4607   59.838612      9.8866984      170.33259     -16.790631     -2831.9161      11.492987     -2820.4231      8403.166       0.76123663     2.875436       22.782831    
Loop time of 59.8396 on 1 procs for 600 steps with 523 atoms

Performance: 0.866 ns/day, 27.704 hours/ns, 10.027 timesteps/s, 5.244 katom-step/s
96.3% CPU use with 1 MPI tasks x 1 OpenMP threads

MPI task timing breakdown:
Section |  min time  |  avg time  |  max time  |%varavg| %total
---------------------------------------------------------------
Pair    | 57.705     | 57.705     | 57.705     |   0.0 | 96.43
Neigh   | 0.05201    | 0.05201    | 0.05201    |   0.0 |  0.09
Comm    | 0.44004    | 0.44004    | 0.44004    |   0.0 |  0.74
Output  | 0.081279   | 0.081279   | 0.081279   |   0.0 |  0.14
Modify  | 1.3352     | 1.3352     | 1.3352     |   0.0 |  2.23
Other   |            | 0.2264     |            |       |  0.38

Nlocal:            523 ave         523 max         523 min
Histogram: 1 0 0 0 0 0 0 0 0 0
Nghost:           1946 ave        1946 max        1946 min
Histogram: 1 0 0 0 0 0 0 0 0 0
Neighs:              0 ave           0 max           0 min
Histogram: 1 0 0 0 0 0 0 0 0 0
FullNghs:        49430 ave       49430 max       49430 min
Histogram: 1 0 0 0 0 0 0 0 0 0

Total # of neighbors = 49430
Ave neighs/atom = 94.512428
Neighbor list builds = 33
Dangerous builds = 0
Step 3: Compression 0 -> 5 GPa (2000 steps)
Setting up Verlet run ...
  Unit style    : metal
  Current step  : 4607
  Time step     : 0.001
Per MPI rank memory allocation (min/avg/max) = 127.8 | 127.8 | 127.8 Mbytes
   Step          CPU           S/CPU           Temp          Press          PotEng         KinEng         TotEng         Volume        Density          Fmax          Fnorm     
      4607   0              0              170.33259     -16.790631     -2831.9161      11.492987     -2820.4231      8403.166       0.76123663     2.875436       22.782831    
      4700   9.3055561      9.9940187      170.61642      619.68912     -2831.643       11.512138     -2820.1309      8402.977       0.76125376     3.43413        23.713259    
      4800   19.300513      10.00505       175.44789      2346.5709     -2831.3178      11.838135     -2819.4797      8401.8103      0.76135946     2.9050987      23.549095    
      4900   29.568112      9.7393588      182.55373     -1102.7047     -2831.1694      12.317593     -2818.8518      8398.3064      0.76167711     2.4863639      23.850263    
      5000   39.683481      9.8859639      188.24284      728.67273     -2830.8129      12.701459     -2818.1115      8391.25        0.76231763     2.7843121      24.381807    
      5100   49.860151      9.8263971      194.38775     -1885.9131     -2830.3738      13.116079     -2817.2577      8379.0846      0.76342442     2.6100484      23.455384    
      5200   59.938023      9.9227297      205.89785      2588.8078     -2830.1694      13.89271      -2816.2766      8360.2883      0.76514082     4.3153532      24.689821    
      5300   70.304583      9.6464014      216.92782      517.38954     -2829.8856      14.636943     -2815.2486      8333.8974      0.76756378     2.8454265      24.896031    
      5400   80.632068      9.6828995      223.11195      1405.3606     -2829.1822      15.05421      -2814.128       8298.0242      0.77088203     3.6566557      25.387772    
      5500   90.957236      9.6850717      229.95428      464.74952     -2828.4606      15.515888     -2812.9448      8251.8928      0.77519158     3.1383839      25.776399    
      5600   101.18698      9.7754173      240.57848      604.33696     -2827.9214      16.232744     -2811.6887      8194.6326      0.78060824     2.7931004      26.861749    
      5700   111.53552      9.6631853      251.16494     -728.38345     -2827.3322      16.947052     -2810.3852      8125.6831      0.787232       3.3934679      26.940775    
      5800   121.82128      9.7221938      257.57792      480.65262     -2826.3102      17.37976      -2808.9305      8045.6378      0.7950641      2.8900354      27.336793    
      5900   132.172        9.6611666      272.12582      971.06924     -2825.8036      18.361362     -2807.4423      7955.8418      0.80403783     3.5002776      27.653119    
      6000   142.52463      9.6593722      294.89991      1859.4874     -2825.791       19.898016     -2805.893       7857.6926      0.81408094     3.6583592      27.691881    
      6100   153.09049      9.464446       293.77705      1639.4996     -2824.0871      19.822253     -2804.2649      7753.6708      0.82500249     4.8421677      30.069657    
      6200   163.36769      9.7302481      327.49623      4302.9635     -2824.7094      22.097414     -2802.612       7646.6003      0.83655448     3.759744       28.602281    
      6300   173.78766      9.5969865      328.80875      2911.3802     -2823.0105      22.185975     -2800.8245      7539.2217      0.84846925     2.9826362      29.898317    
      6400   184.40805      9.4158496      327.02231      5214.8806     -2821.0015      22.065437     -2798.936       7433.6623      0.86051767     3.7202906      31.560941    
      6500   195.02751      9.4166775      355.83821     -567.34311     -2821.1598      24.009755     -2797.1501      7330.6391      0.8726112      3.9455179      30.634864    
      6600   205.76028      9.3172568      370.73395      4726.097      -2820.2072      25.014827     -2795.1923      7229.763       0.88478665     4.5870515      32.316679    
      6607   206.50026      9.4597406      371.56652      6406.3512     -2820.1216      25.071004     -2795.0506      7222.7839      0.88564159     3.7131673      31.80499     
Loop time of 206.501 on 1 procs for 2000 steps with 523 atoms

Performance: 0.837 ns/day, 28.681 hours/ns, 9.685 timesteps/s, 5.065 katom-step/s
96.2% CPU use with 1 MPI tasks x 1 OpenMP threads

MPI task timing breakdown:
Section |  min time  |  avg time  |  max time  |%varavg| %total
---------------------------------------------------------------
Pair    | 198.49     | 198.49     | 198.49     |   0.0 | 96.12
Neigh   | 0.30002    | 0.30002    | 0.30002    |   0.0 |  0.15
Comm    | 1.6857     | 1.6857     | 1.6857     |   0.0 |  0.82
Output  | 0.33957    | 0.33957    | 0.33957    |   0.0 |  0.16
Modify  | 4.8433     | 4.8433     | 4.8433     |   0.0 |  2.35
Other   |            | 0.839      |            |       |  0.41

Nlocal:            523 ave         523 max         523 min
Histogram: 1 0 0 0 0 0 0 0 0 0
Nghost:           2132 ave        2132 max        2132 min
Histogram: 1 0 0 0 0 0 0 0 0 0
Neighs:              0 ave           0 max           0 min
Histogram: 1 0 0 0 0 0 0 0 0 0
FullNghs:        55464 ave       55464 max       55464 min
Histogram: 1 0 0 0 0 0 0 0 0 0

Total # of neighbors = 55464
Ave neighs/atom = 106.04971
Neighbor list builds = 174
Dangerous builds = 0
Step 4a: Hold at 5 GPa - high temp (2000 steps)
Setting up Verlet run ...
  Unit style    : metal
  Current step  : 6607
  Time step     : 0.001
Per MPI rank memory allocation (min/avg/max) = 128.5 | 128.5 | 128.5 Mbytes
   Step          CPU           S/CPU           Temp          Press          PotEng         KinEng         TotEng         Volume        Density          Fmax          Fnorm     
      6607   0              0              371.56652      6406.3512     -2820.1216      25.071004     -2795.0506      7222.7839      0.88564159     3.7131673      31.80499     
      6700   9.6886095      9.5988962      360.8324      -230.6266      -2819.1446      24.346732     -2794.7979      7213.7771      0.88674736     4.1078045      31.871867    
      6800   20.129409      9.5777939      379.87011     -674.93903     -2819.6478      25.631278     -2794.0165      7183.986       0.89042459     3.6070155      32.780382    
      6900   30.837124      9.3390757      382.79837      132.91905     -2818.8154      25.828859     -2792.9866      7134.2919      0.89662686     3.8016903      32.819446    
      7000   41.62851       9.2666504      372.73456     -204.87629     -2817.1626      25.149815     -2792.0128      7065.7775      0.90532115     4.2202296      32.555971    
      7100   52.27965       9.3886665      393.50643      2263.6545     -2817.6785      26.551372     -2791.1272      6980.9481      0.91632221     3.7111275      32.523457    
      7200   62.869397      9.4430888      415.80908      2246.9208     -2818.1009      28.056217     -2790.0447      6883.5625      0.92928593     3.7928628      32.892571    
      7300   73.709907      9.2246656      416.91036      4748.6036     -2816.8638      28.130524     -2788.7333      6778.6244      0.94367195     4.6650826      33.56778     
      7400   84.470589      9.2930767      423.28739      7662.2605     -2815.8957      28.560807     -2787.3349      6671.7969      0.95878186     4.3496242      32.879175    
      7500   95.34724       9.1940065      421.60625      1377.4917     -2814.2674      28.447374     -2785.82        6568.0449      0.97392722     3.721141       35.541299    
      7600   106.42411      9.0278369      460.75049      5501.952      -2815.5266      31.088585     -2784.4381      6470.0562      0.98867731     4.2474277      33.31506     
      7700   117.4565       9.0642122      442.03454      5245.9455     -2812.7444      29.825748     -2782.9186      6379.2223      1.0027551      5.351547       34.170985    
      7800   128.61491      8.9618438      474.19599      4966.4149     -2813.4118      31.995804     -2781.416       6294.7184      1.0162167      5.833695       36.478089    
      7900   139.80866      8.9335691      472.6736       13403.191     -2811.9348      31.893082     -2780.0417      6215.3149      1.0291993      4.5581193      34.780956    
      8000   151.92765      8.2515027      486.41636      7869.6311     -2811.4422      32.820358     -2778.6218      6139.7973      1.0418581      4.8071776      35.908882    
      8100   175.64951      4.2155222      515.45486      14529.261     -2812.0649      34.779696     -2777.2852      6066.2528      1.0544891      4.1642253      35.952516    
      8200   210.45412      2.8731833      508.26365      11421.134     -2810.32        34.294478     -2776.0255      5994.2527      1.0671552      3.7972012      35.738036    
      8300   234.0767       4.2332367      530.42408      11663.758     -2810.6408      35.789726     -2774.8511      5923.6087      1.0798819      4.1175844      35.931635    
      8400   251.98026      5.585477       531.92201      14268.931     -2809.6474      35.890797     -2773.7566      5854.5205      1.0926254      3.9502093      36.435835    
      8500   278.81491      3.7265276      533.73822      18613.144     -2808.9508      36.013343     -2772.9374      5787.1723      1.1053408      4.8425266      36.651964    
      8600   306.4664       3.6164411      561.44618      16981.456     -2810.1534      37.882905     -2772.2705      5721.7572      1.1179778      4.0266083      35.271446    
      8607   307.3293       8.1122076      519.65216      16818.931     -2807.2164      35.062904     -2772.1535      5717.268       1.1188557      4.8505416      37.735456    
Loop time of 307.33 on 1 procs for 2000 steps with 523 atoms

Performance: 0.562 ns/day, 42.685 hours/ns, 6.508 timesteps/s, 3.404 katom-step/s
93.2% CPU use with 1 MPI tasks x 1 OpenMP threads

MPI task timing breakdown:
Section |  min time  |  avg time  |  max time  |%varavg| %total
---------------------------------------------------------------
Pair    | 298.79     | 298.79     | 298.79     |   0.0 | 97.22
Neigh   | 0.44459    | 0.44459    | 0.44459    |   0.0 |  0.14
Comm    | 1.8808     | 1.8808     | 1.8808     |   0.0 |  0.61
Output  | 0.29153    | 0.29153    | 0.29153    |   0.0 |  0.09
Modify  | 5.0057     | 5.0057     | 5.0057     |   0.0 |  1.63
Other   |            | 0.9148     |            |       |  0.30

Nlocal:            523 ave         523 max         523 min
Histogram: 1 0 0 0 0 0 0 0 0 0
Nghost:           2449 ave        2449 max        2449 min
Histogram: 1 0 0 0 0 0 0 0 0 0
Neighs:              0 ave           0 max           0 min
Histogram: 1 0 0 0 0 0 0 0 0 0
FullNghs:        68448 ave       68448 max       68448 min
Histogram: 1 0 0 0 0 0 0 0 0 0

Total # of neighbors = 68448
Ave neighs/atom = 130.87572
Neighbor list builds = 232
Dangerous builds = 0
Step 4b: Cool to 350K under pressure (1500 steps)
Setting up Verlet run ...
  Unit style    : metal
  Current step  : 8607
  Time step     : 0.001
Per MPI rank memory allocation (min/avg/max) = 136.7 | 136.7 | 136.7 Mbytes
   Step          CPU           S/CPU           Temp          Press          PotEng         KinEng         TotEng         Volume        Density          Fmax          Fnorm     
      8607   0              0              519.65216      16818.931     -2807.2164      35.062904     -2772.1535      5717.268       1.1188557      4.8505416      37.735456    
      8700   10.732475      8.6652856      547.27565      11894.081     -2809.1741      36.926765     -2772.2474      5713.3769      1.1196177      3.9886923      36.740322    
      8800   22.306488      8.6400449      526.45259      15827.225     -2808.1498      35.521755     -2772.628       5700.3322      1.1221798      4.751826       35.881687    
      8900   39.122375      5.9467572      529.1739       20032.336     -2808.8529      35.705372     -2773.1475      5678.5937      1.1264757      5.1289725      37.128765    
      9000   66.426456      3.6624562      547.37069      22071.6       -2810.6852      36.933178     -2773.752       5648.9716      1.1323827      3.8364562      36.076984    
      9100   94.131501      3.609451       544.26616      20103.317     -2810.9853      36.723704     -2774.2615      5611.8006      1.1398833      3.4249035      33.489392    
      9200   121.625        3.6372229      486.11011      23813.018     -2807.2708      32.799694     -2774.4711      5567.4841      1.1489566      3.8666521      36.780233    
      9300   152.33575      3.2561893      517.92525      21872.241     -2809.5809      34.946383     -2774.6346      5517.5097      1.1593632      3.4902934      34.294202    
      9400   168.58653      6.1535497      502.55314      29233.772     -2808.6586      33.909168     -2774.7495      5463.3645      1.1708532      4.1496484      36.64756     
      9500   197.30144      3.4825111      508.3232       23919.165     -2809.2923      34.298496     -2774.9938      5406.7894      1.1831047      3.6253609      35.908791    
      9600   232.91918      2.80759        494.87009      28437.597     -2808.6875      33.390763     -2775.2968      5349.3352      1.1958117      4.2684504      36.920468    
      9700   251.7983       5.2968558      495.72819      29872.397     -2809.1254      33.448663     -2775.6768      5292.6115      1.2086279      3.6270263      35.380655    
      9800   279.82136      3.5684898      481.44482      30265.128     -2808.4824      32.484909     -2775.9975      5237.7717      1.2212823      3.9829612      35.772528    
      9900   322.10988      2.3647081      477.51288      30542.34      -2808.5771      32.219607     -2776.3575      5185.9006      1.233498       4.1553145      34.546396    
     10000   338.7627       6.0049876      479.72759      31450.991     -2809.1344      32.369041     -2776.7654      5137.4586      1.2451288      4.1758024      34.338212    
     10100   368.43599      3.3700349      465.40483      37484.372     -2808.6307      31.40263      -2777.228       5092.6931      1.2560737      3.8275417      34.84013     
     10107   370.51062      3.3740644      469.74452      38958.799     -2808.9511      31.695446     -2777.2556      5089.7099      1.2568099      4.1926434      34.68003     
Loop time of 370.512 on 1 procs for 1500 steps with 523 atoms

Performance: 0.350 ns/day, 68.613 hours/ns, 4.048 timesteps/s, 2.117 katom-step/s
92.7% CPU use with 1 MPI tasks x 1 OpenMP threads

MPI task timing breakdown:
Section |  min time  |  avg time  |  max time  |%varavg| %total
---------------------------------------------------------------
Pair    | 363.81     | 363.81     | 363.81     |   0.0 | 98.19
Neigh   | 0.35755    | 0.35755    | 0.35755    |   0.0 |  0.10
Comm    | 1.5016     | 1.5016     | 1.5016     |   0.0 |  0.41
Output  | 0.24417    | 0.24417    | 0.24417    |   0.0 |  0.07
Modify  | 3.889      | 3.889      | 3.889      |   0.0 |  1.05
Other   |            | 0.7093     |            |       |  0.19

Nlocal:            523 ave         523 max         523 min
Histogram: 1 0 0 0 0 0 0 0 0 0
Nghost:           2583 ave        2583 max        2583 min
Histogram: 1 0 0 0 0 0 0 0 0 0
Neighs:              0 ave           0 max           0 min
Histogram: 1 0 0 0 0 0 0 0 0 0
FullNghs:        76958 ave       76958 max       76958 min
Histogram: 1 0 0 0 0 0 0 0 0 0

Total # of neighbors = 76958
Ave neighs/atom = 147.14723
Neighbor list builds = 183
Dangerous builds = 0
Step 4c: Hold at 350K under 5 GPa - LOCK STRUCTURE (1500 steps)
Setting up Verlet run ...
  Unit style    : metal
  Current step  : 10107
  Time step     : 0.001
Per MPI rank memory allocation (min/avg/max) = 147.4 | 147.4 | 147.4 Mbytes
   Step          CPU           S/CPU           Temp          Press          PotEng         KinEng         TotEng         Volume        Density          Fmax          Fnorm     
     10107   0              0              469.74452      38958.799     -2808.9511      31.695446     -2777.2556      5089.7099      1.2568099      4.1926434      34.68003     
     10200   27.593544      3.370351       463.42734      31967.445     -2808.7871      31.269202     -2777.5179      5087.3631      1.2573897      3.2347974      33.698578    
     10300   57.258076      3.3710309      432.50752      35075.741     -2807.5691      29.182924     -2778.3861      5080.4954      1.2590894      3.7876086      33.259893    
     10400   81.608241      4.1067477      432.60402      26376.9       -2808.4251      29.189435     -2779.2357      5069.3146      1.2618664      3.905988       33.371784    
     10500   107.54385      3.8557009      443.67407      36915.625     -2809.8164      29.936373     -2779.8801      5053.3564      1.2658513      3.4305551      32.255672    
     10600   120.02713      8.0107122      421.28021      26227.045     -2808.7677      28.425375     -2780.3424      5033.3644      1.2708791      3.4939687      32.58394     
     10700   134.96489      6.6944504      417.50557      33828.417     -2808.9597      28.170685     -2780.789       5009.204       1.2770088      3.5947849      32.656383    
     10800   164.50851      3.384826       422.78273      30170.393     -2809.8334      28.526756     -2781.3067      4981.6702      1.2840669      3.521332       31.229781    
     10900   194.94071      3.2859938      408.41435      38221.775     -2809.1756      27.557267     -2781.6184      4951.0703      1.292003       3.5673084      33.85482     
     11000   223.41079      3.5124586      399.05295      38503.719     -2808.8008      26.925617     -2781.8752      4918.6384      1.3005221      3.7419736      33.654394    
     11100   239.43457      6.2407194      390.80829      39165.526     -2808.4942      26.369319     -2782.1248      4884.8123      1.3095279      3.883757       33.353022    
     11200   282.23151      2.3366168      390.71544      43046.025     -2808.6216      26.363053     -2782.2586      4850.1554      1.3188851      3.7526371      32.114924    
     11300   326.45867      2.261054       385.09205      46076.448     -2808.2501      25.983622     -2782.2665      4816.0746      1.3282182      4.3521062      31.19249     
     11400   353.98734      3.6325766      398.45367      48374.851     -2809.2153      26.885181     -2782.3301      4782.9791      1.3374087      3.2081397      31.414915    
     11500   376.02723      4.5372263      366.11358      57379.998     -2806.976       24.703073     -2782.2729      4751.6653      1.3462223      3.5724861      32.344169    
     11600   408.43972      3.085231       390.33771      43304.671     -2808.7046      26.337567     -2782.367       4722.7781      1.3544566      3.6198162      29.199662    
     11607   410.81253      2.9500862      375.58198      45584.864     -2807.6834      25.341942     -2782.3415      4720.8256      1.3550168      2.8954664      29.917393    
Loop time of 410.814 on 1 procs for 1500 steps with 523 atoms

Performance: 0.315 ns/day, 76.077 hours/ns, 3.651 timesteps/s, 1.910 katom-step/s
93.4% CPU use with 1 MPI tasks x 1 OpenMP threads

MPI task timing breakdown:
Section |  min time  |  avg time  |  max time  |%varavg| %total
---------------------------------------------------------------
Pair    | 403.84     | 403.84     | 403.84     |   0.0 | 98.30
Neigh   | 0.33378    | 0.33378    | 0.33378    |   0.0 |  0.08
Comm    | 1.5503     | 1.5503     | 1.5503     |   0.0 |  0.38
Output  | 0.22977    | 0.22977    | 0.22977    |   0.0 |  0.06
Modify  | 4.112      | 4.112      | 4.112      |   0.0 |  1.00
Other   |            | 0.7518     |            |       |  0.18

Nlocal:            523 ave         523 max         523 min
Histogram: 1 0 0 0 0 0 0 0 0 0
Nghost:           2720 ave        2720 max        2720 min
Histogram: 1 0 0 0 0 0 0 0 0 0
Neighs:              0 ave           0 max           0 min
Histogram: 1 0 0 0 0 0 0 0 0 0
FullNghs:        82766 ave       82766 max       82766 min
Histogram: 1 0 0 0 0 0 0 0 0 0

Total # of neighbors = 82766
Ave neighs/atom = 158.25239
Neighbor list builds = 163
Dangerous builds = 0
Step 4d: Reheat to 400K for annealing (1000 steps)
Setting up Verlet run ...
  Unit style    : metal
  Current step  : 11607
  Time step     : 0.001
Per MPI rank memory allocation (min/avg/max) = 155.4 | 155.4 | 155.4 Mbytes
   Step          CPU           S/CPU           Temp          Press          PotEng         KinEng         TotEng         Volume        Density          Fmax          Fnorm     
     11607   0              0              375.58198      45584.864     -2807.6834      25.341942     -2782.3415      4720.8256      1.3550168      2.8954664      29.917393    
     11700   35.619456      2.6109314      394.4482       51675.971     -2809.0443      26.614917     -2782.4294      4720.8693      1.3550042      4.2256039      30.677845    
     11800   76.620171      2.4389826      381.61447      47441.196     -2808.423       25.748977     -2782.674       4721.1839      1.3549139      3.4172601      30.250484    
     11900   107.01149      3.2904132      372.98387      48360.008     -2808.1734      25.166637     -2783.0068      4721.5712      1.3548028      3.237775       30.165664    
     12000   150.56056      2.2962604      388.42782      47532.007     -2809.6481      26.208699     -2783.4394      4721.817       1.3547322      5.4180716      31.125251    
     12100   193.54157      2.3266089      374.46152      43566.504     -2809.0971      25.26634      -2783.8307      4722.004       1.3546786      5.0997976      30.992137    
     12200   235.50243      2.383173       362.97342      47253.005     -2808.6068      24.491194     -2784.1156      4722.0643      1.3546613      3.7502215      31.814634    
     12300   276.87622      2.4169896      388.11092      45902.165     -2810.6451      26.187317     -2784.4578      4721.8218      1.3547309      3.3133023      29.294139    
     12400   325.59256      2.0526994      377.62119      49095.37      -2810.0583      25.479535     -2784.5788      4721.1058      1.3549363      3.3874415      30.043253    
     12500   370.20182      2.2416867      378.77663      47636.522     -2810.1382      25.557497     -2784.5808      4720.3615      1.35515        3.5827698      31.642179    
     12600   414.81367      2.241557       372.97667      50645.731     -2809.6833      25.166151     -2784.5172      4719.2575      1.355467       3.4453256      31.55446     
     12607   417.98398      2.2079746      384.64433      54072.142     -2810.4893      25.953413     -2784.5359      4719.1682      1.3554926      5.3083146      31.150974    
Loop time of 417.985 on 1 procs for 1000 steps with 523 atoms

Performance: 0.207 ns/day, 116.107 hours/ns, 2.392 timesteps/s, 1.251 katom-step/s
98.9% CPU use with 1 MPI tasks x 1 OpenMP threads

MPI task timing breakdown:
Section |  min time  |  avg time  |  max time  |%varavg| %total
---------------------------------------------------------------
Pair    | 413.03     | 413.03     | 413.03     |   0.0 | 98.81
Neigh   | 0.22078    | 0.22078    | 0.22078    |   0.0 |  0.05
Comm    | 1.0819     | 1.0819     | 1.0819     |   0.0 |  0.26
Output  | 0.1439     | 0.1439     | 0.1439     |   0.0 |  0.03
Modify  | 2.975      | 2.975      | 2.975      |   0.0 |  0.71
Other   |            | 0.5373     |            |       |  0.13

Nlocal:            523 ave         523 max         523 min
Histogram: 1 0 0 0 0 0 0 0 0 0
Nghost:           2726 ave        2726 max        2726 min
Histogram: 1 0 0 0 0 0 0 0 0 0
Neighs:              0 ave           0 max           0 min
Histogram: 1 0 0 0 0 0 0 0 0 0
FullNghs:        82940 ave       82940 max       82940 min
Histogram: 1 0 0 0 0 0 0 0 0 0

Total # of neighbors = 82940
Ave neighs/atom = 158.58509
Neighbor list builds = 106
Dangerous builds = 0
Step 4e: Final hold at 5 GPa, 400K (2000 steps)
Setting up Verlet run ...
  Unit style    : metal
  Current step  : 12607
  Time step     : 0.001
Per MPI rank memory allocation (min/avg/max) = 156.3 | 156.3 | 156.3 Mbytes
   Step          CPU           S/CPU           Temp          Press          PotEng         KinEng         TotEng         Volume        Density          Fmax          Fnorm     
     12607   0              0              384.64433      54072.142     -2810.4893      25.953413     -2784.5359      4719.1682      1.3554926      5.3083146      31.150974    
     12700   41.523062      2.2397189      382.89902      46331.871     -2810.3108      25.83565      -2784.4751      4719.1655      1.3554934      3.8484495      31.120959    
     12800   85.092016      2.2952124      355.5967       50603.312     -2808.2621      23.993459     -2784.2686      4718.789       1.3556016      4.2332054      31.745394    
     12900   130.07399      2.2231129      374.00735      55634.877     -2809.1786      25.235695     -2783.9429      4718.3343      1.3557322      3.7074812      30.786061    
     13000   174.35833      2.2581343      365.35617      47605.144     -2808.1277      24.651968     -2783.4758      4718.5061      1.3556829      4.9356009      32.716069    
     13100   217.44041      2.3211505      386.24934      55942.64      -2809.0483      26.061709     -2782.9866      4718.7472      1.3556136      3.6794248      31.492318    
     13200   262.62046      2.2133563      386.45332      45739.515     -2808.5505      26.075472     -2782.475       4719.2842      1.3554593      3.8051704      31.460112    
     13300   306.61405      2.2730673      400.5313       53557.967     -2809.1253      27.025367     -2782.1         4719.9718      1.3552618      3.6963382      31.652812    
     13400   351.76536      2.214775       407.76328      52252.097     -2809.3373      27.513336     -2781.824       4720.913       1.3549917      4.4945168      31.640142    
     13500   398.34141      2.1470264      414.86762      50365.976     -2809.6472      27.992693     -2781.6545      4721.9424      1.3546963      3.5422389      31.928904    
     13600   443.34489      2.2220204      391.39594      45156.747     -2807.9129      26.40897      -2781.504       4723.1449      1.3543514      3.5725535      32.646145    
     13700   487.83361      2.2477919      410.14451      46219.793     -2809.058       27.674007     -2781.384       4724.22        1.3540432      4.1535691      32.703039    
     13800   532.21681      2.2531044      403.50812      53398.04      -2808.5245      27.226224     -2781.2982      4725.0163      1.353815       3.6504967      32.643366    
     13900   573.87825      2.4003014      399.90323      50090.527     -2808.2134      26.982989     -2781.2304      4725.485       1.3536807      4.1442132      32.850638    
     14000   616.70393      2.3350488      404.15116      48109.264     -2808.3166      27.269613     -2781.047       4725.5585      1.3536596      3.5905935      33.911753    
     14100   659.91152      2.3144073      389.23328      52403.471     -2807.2584      26.263047     -2780.9953      4725.5438      1.3536638      3.8077066      33.185153    
     14200   700.97443      2.435289       413.31776      47352.714     -2808.8132      27.888118     -2780.9251      4725.6251      1.3536405      3.2910403      31.689339    
     14300   740.95014      2.5015196      403.74801      51856.575     -2808.0699      27.242411     -2780.8275      4725.5505      1.3536619      4.4274175      33.974055    
     14400   774.85506      2.9494241      419.80336      52707.179     -2809.1366      28.325726     -2780.8108      4725.2448      1.3537495      3.4905927      33.500432    
     14500   818.19736      2.3072149      413.9268       48390.314     -2808.6859      27.929212     -2780.7567      4724.9419      1.3538363      3.3424366      32.696334    
     14600   860.06107      2.3887019      410.22332      48270.099     -2808.4057      27.679324     -2780.7264      4724.7607      1.3538882      3.405557       32.509588    
     14607   863.27077      2.1809109      414.41681      52819.766     -2808.6256      27.962275     -2780.6634      4724.7616      1.353888       3.4039293      33.51331     
Loop time of 863.272 on 1 procs for 2000 steps with 523 atoms

Performance: 0.200 ns/day, 119.899 hours/ns, 2.317 timesteps/s, 1.212 katom-step/s
99.2% CPU use with 1 MPI tasks x 1 OpenMP threads

MPI task timing breakdown:
Section |  min time  |  avg time  |  max time  |%varavg| %total
---------------------------------------------------------------
Pair    | 853.05     | 853.05     | 853.05     |   0.0 | 98.82
Neigh   | 0.49385    | 0.49385    | 0.49385    |   0.0 |  0.06
Comm    | 2.2012     | 2.2012     | 2.2012     |   0.0 |  0.25
Output  | 0.274      | 0.274      | 0.274      |   0.0 |  0.03
Modify  | 6.1232     | 6.1232     | 6.1232     |   0.0 |  0.71
Other   |            | 1.128      |            |       |  0.13

Nlocal:            523 ave         523 max         523 min
Histogram: 1 0 0 0 0 0 0 0 0 0
Nghost:           2715 ave        2715 max        2715 min
Histogram: 1 0 0 0 0 0 0 0 0 0
Neighs:              0 ave           0 max           0 min
Histogram: 1 0 0 0 0 0 0 0 0 0
FullNghs:        82804 ave       82804 max       82804 min
Histogram: 1 0 0 0 0 0 0 0 0 0

Total # of neighbors = 82804
Ave neighs/atom = 158.32505
Neighbor list builds = 223
Dangerous builds = 0
===========================================
Density after compression: 1.35388795657285 g/cm^3
===========================================
Step 5a: Pressure release 5 GPa -> 3 GPa (2000 steps)
Setting up Verlet run ...
  Unit style    : metal
  Current step  : 14607
  Time step     : 0.001
Per MPI rank memory allocation (min/avg/max) = 156 | 156 | 156 Mbytes
   Step          CPU           S/CPU           Temp          Press          PotEng         KinEng         TotEng         Volume        Density          Fmax          Fnorm     
     14607   0              0              414.41681      52819.766     -2808.6256      27.962275     -2780.6634      4724.7616      1.353888       3.4039293      33.51331     
     14700   34.204803      2.7189133      383.31581      46559.938     -2806.5529      25.863773     -2780.6892      4724.5107      1.3539598      5.8209443      34.524071    
     14800   72.605319      2.6041001      414.47665      49675.341     -2808.688       27.966313     -2780.7216      4724.0895      1.3540806      3.6449039      33.778351    
     14900   111.07761      2.5993045      406.08934      51573.497     -2808.2054      27.400389     -2780.805       4723.8741      1.3541423      4.5796666      33.580055    
     15000   150.66706      2.5259254      400.71504      51274.64      -2807.9347      27.037765     -2780.8969      4724.2344      1.354039       3.6514853      33.409192    
     15100   188.16476      2.666831       403.28472      49126.021     -2808.3354      27.211151     -2781.1243      4725.6278      1.3536398      4.4847039      32.955331    
     15200   219.74394      3.1666435      387.13839      51956.629     -2807.5217      26.121696     -2781.4         4728.1977      1.352904       4.232363       33.868419    
     15300   254.39265      2.8861099      418.35695      52412.389     -2810.1807      28.228131     -2781.9525      4732.42        1.351697       5.0289341      33.022751    
     15400   285.52079      3.212528       397.06074      48306.811     -2809.3446      26.791195     -2782.5534      4738.0346      1.3500952      4.5757394      33.260732    
     15500   310.37312      4.0237671      386.10013      53161.284     -2809.4254      26.051642     -2783.3737      4745.3937      1.3480015      3.7590614      32.246202    
     15600   338.13706      3.6017939      377.5602       48819.525     -2809.6997      25.47542      -2784.2243      4754.5204      1.3454139      3.5650943      32.118644    
     15700   374.82407      2.7257606      383.74713      48448.468     -2810.925       25.892876     -2785.0321      4765.6369      1.3422755      3.1457702      32.242316    
     15800   424.12805      2.028231       382.00437      47905.34      -2811.566       25.775285     -2785.7907      4778.6956      1.3386075      3.8970129      31.402416    
     15900   470.45771      2.1584484      388.40313      42529.226     -2812.6178      26.207034     -2786.4107      4793.738       1.334407       3.769486       31.49644     
     16000   515.66381      2.2120909      355.03801      42908.755     -2810.8859      23.955762     -2786.9302      4810.553       1.3297427      3.1376751      31.821931    
     16100   561.94333      2.1607835      379.86289      42902.285     -2813.1514      25.630791     -2787.5206      4829.0188      1.3246579      3.8149159      31.236793    
     16200   617.14995      1.8113767      361.61771      40994.549     -2812.3807      24.399719     -2787.9809      4849.1952      1.3191463      3.828227       33.159734    
     16300   667.47982      1.9868916      365.53227      40014.148     -2813.1256      24.66385      -2788.4617      4871.0107      1.3132383      4.6330383      32.644103    
     16400   715.72412      2.0727838      389.44737      37055.761     -2815.175       26.277493     -2788.8975      4894.4229      1.3069565      3.7795204      31.354303    
     16500   782.6808       1.4935032      378.00949      38195.202     -2814.7725      25.505735     -2789.2667      4919.2895      1.3003499      4.381878       32.942821    
     16600   913.90294      0.7620665      359.39576      33728.382     -2813.9536      24.249796     -2789.7038      4945.4336      1.2934756      4.0753062      32.682324    
     16607   921.38608      0.93543577     372.72772      31824.793     -2814.8811      25.149354     -2789.7317      4947.311       1.2929848      3.5923472      32.369235    
Loop time of 921.387 on 1 procs for 2000 steps with 523 atoms

Performance: 0.188 ns/day, 127.970 hours/ns, 2.171 timesteps/s, 1.135 katom-step/s
99.1% CPU use with 1 MPI tasks x 1 OpenMP threads

MPI task timing breakdown:
Section |  min time  |  avg time  |  max time  |%varavg| %total
---------------------------------------------------------------
Pair    | 911.43     | 911.43     | 911.43     |   0.0 | 98.92
Neigh   | 0.46465    | 0.46465    | 0.46465    |   0.0 |  0.05
Comm    | 2.1771     | 2.1771     | 2.1771     |   0.0 |  0.24
Output  | 0.26118    | 0.26118    | 0.26118    |   0.0 |  0.03
Modify  | 5.958      | 5.958      | 5.958      |   0.0 |  0.65
Other   |            | 1.098      |            |       |  0.12

Nlocal:            523 ave         523 max         523 min
Histogram: 1 0 0 0 0 0 0 0 0 0
Nghost:           2617 ave        2617 max        2617 min
Histogram: 1 0 0 0 0 0 0 0 0 0
Neighs:              0 ave           0 max           0 min
Histogram: 1 0 0 0 0 0 0 0 0 0
FullNghs:        79002 ave       79002 max       79002 min
Histogram: 1 0 0 0 0 0 0 0 0 0

Total # of neighbors = 79002
Ave neighs/atom = 151.05545
Neighbor list builds = 220
Dangerous builds = 0
Density at 3 GPa: 1.29298477892621 g/cm^3
Step 5b: Pressure release 3 GPa -> 1 GPa (2000 steps)
Setting up Verlet run ...
  Unit style    : metal
  Current step  : 16607
  Time step     : 0.001
Per MPI rank memory allocation (min/avg/max) = 155.8 | 155.8 | 155.8 Mbytes
   Step          CPU           S/CPU           Temp          Press          PotEng         KinEng         TotEng         Volume        Density          Fmax          Fnorm     
     16607   0              0              372.72772      31824.793     -2814.8811      25.149354     -2789.7317      4947.311       1.2929848      3.5923472      32.369235    
     16700   114.7162       0.81069625     366.99538      34148.108     -2814.4758      24.762572     -2789.7132      4948.1762      1.2927587      3.7677375      33.266008    
     16800   223.29267      0.92100982     373.61737      33271.009     -2814.988       25.209382     -2789.7786      4951.4066      1.2919153      3.6287072      31.015863    
     16900   329.89511      0.93806481     381.13563      39202.301     -2815.5103      25.716668     -2789.7937      4956.984       1.2904617      3.4953519      31.657867    
     17000   436.33809      0.93947014     364.41254      33987         -2814.4847      24.588297     -2789.8964      4965.1546      1.2883381      3.7326692      32.63151     
     17100   542.96527      0.93784726     397.45599      37167.95      -2816.9205      26.817864     -2790.1026      4976.0941      1.2855058      3.5684261      30.797489    
     17200   649.1619       0.94164947     386.41902      33078.581     -2816.2625      26.073158     -2790.1893      4989.5197      1.2820468      3.9101091      31.351561    
     17300   755.10865      0.94387037     389.36805      34135.171     -2816.6494      26.27214      -2790.3773      5005.6356      1.2779192      4.9010948      32.579109    
     17400   860.78117      0.94631984     375.62816      38811.895     -2816.0109      25.345058     -2790.6659      5024.4863      1.2731247      4.0105405      32.638482    
     17500   966.387        0.94691741     387.41051      35318.167     -2817.1689      26.140057     -2791.0289      5046.8698      1.2674783      4.7269761      33.073864    
     17600   1071.6432      0.95006298     377.05185      36418.777     -2816.7718      25.441119     -2791.3307      5072.3698      1.2611063      4.0186077      33.606141    
     17700   1176.1735      0.95666015     372.15789      33320.745     -2816.9011      25.110905     -2791.7901      5100.5577      1.2541369      3.8148993      34.231532    
     17800   1280.1261      0.96197715     357.51097      32733.647     -2816.391       24.122622     -2792.2684      5131.8979      1.246478       4.5916655      34.86517     
     17900   1383.6059      0.96637197     377.13652      27360.491     -2818.4141      25.446832     -2792.9673      5165.9042      1.2382726      3.3756585      32.486466    
     18000   1486.3342      0.97344164     374.94333      30431.987     -2818.9879      25.29885      -2793.6891      5202.2117      1.2296304      3.8615818      33.381296    
     18100   1588.4246      0.97952431     362.44685      25395.917     -2818.9993      24.455665     -2794.5436      5240.4456      1.2206591      3.7995731      33.788313    
     18200   1690.5669      0.97902582     368.1643       28754.674     -2820.3813      24.841443     -2795.5398      5280.0611      1.2115007      3.9368587      32.330077    
     18300   1792.6525      0.97957029     372.62592      23578.818     -2821.7587      25.142485     -2796.6162      5320.5496      1.2022814      3.6730356      31.8599      
     18400   1893.7264      0.98937494     363.11105      26637.519     -2822.1368      24.50048      -2797.6363      5361.3122      1.1931403      5.1556831      32.724625    
     18500   1994.4224      0.99308828     347.30433      24495.049     -2822.069       23.433942     -2798.6351      5401.9014      1.1841752      4.1059681      33.957013    
     18600   2094.3505      1.0007193      362.15626      23038.921     -2824.0383      24.436058     -2799.6022      5442.1243      1.1754229      3.3881581      31.058136    
     18607   2100.1474      1.2075457      345.85746      20954.258     -2822.9426      23.336316     -2799.6062      5444.9232      1.1748187      3.7604085      32.656088    
Loop time of 2100.15 on 1 procs for 2000 steps with 523 atoms

Performance: 0.082 ns/day, 291.687 hours/ns, 0.952 timesteps/s, 498.060 atom-step/s
99.6% CPU use with 1 MPI tasks x 1 OpenMP threads

MPI task timing breakdown:
Section |  min time  |  avg time  |  max time  |%varavg| %total
---------------------------------------------------------------
Pair    | 2090.1     | 2090.1     | 2090.1     |   0.0 | 99.52
Neigh   | 0.48399    | 0.48399    | 0.48399    |   0.0 |  0.02
Comm    | 2.2369     | 2.2369     | 2.2369     |   0.0 |  0.11
Output  | 0.25502    | 0.25502    | 0.25502    |   0.0 |  0.01
Modify  | 5.9813     | 5.9813     | 5.9813     |   0.0 |  0.28
Other   |            | 1.127      |            |       |  0.05

Nlocal:            523 ave         523 max         523 min
Histogram: 1 0 0 0 0 0 0 0 0 0
Nghost:           2459 ave        2459 max        2459 min
Histogram: 1 0 0 0 0 0 0 0 0 0
Neighs:              0 ave           0 max           0 min
Histogram: 1 0 0 0 0 0 0 0 0 0
FullNghs:        71844 ave       71844 max       71844 min
Histogram: 1 0 0 0 0 0 0 0 0 0

Total # of neighbors = 71844
Ave neighs/atom = 137.36902
Neighbor list builds = 218
Dangerous builds = 0
Density at 1 GPa: 1.17481873209826 g/cm^3
Step 5c: Pressure release 1 GPa -> 0 with deep cooling (3000 steps)
Setting up Verlet run ...
  Unit style    : metal
  Current step  : 18607
  Time step     : 0.001
Per MPI rank memory allocation (min/avg/max) = 155.2 | 155.2 | 155.2 Mbytes
   Step          CPU           S/CPU           Temp          Press          PotEng         KinEng         TotEng         Volume        Density          Fmax          Fnorm     
     18607   0              0              345.85746      20954.258     -2822.9426      23.336316     -2799.6062      5444.9232      1.1748187      3.7604085      32.656088    
     18700   65.718598      1.4151244      363.55304      21187.196     -2824.1842      24.530303     -2799.6539      5446.4997      1.1744787      3.6006882      31.603264    
     18800   165.52773      1.0019124      345.14371      26670.831     -2823.0432      23.288156     -2799.755       5451.7014      1.1733581      4.6846999      31.656944    
     18900   265.09984      1.0042972      363.90496      20418.865     -2824.5346      24.554049     -2799.9806      5460.2209      1.1715273      3.9491039      31.121134    
     19000   364.59098      1.0051147      369.4963       24292.466     -2825.207       24.931318     -2800.2757      5471.7726      1.169054       3.7274915      31.141046    
     19100   463.96108      1.0063389      354.59675      17581.984     -2824.5852      23.925989     -2800.6593      5486.6306      1.1658882      3.6387071      32.109098    
     19200   563.24262      1.0072366      340.46465      18507.73      -2824.1374      22.972443     -2801.1649      5504.6746      1.1620665      4.4641171      32.259626    
     19300   662.11828      1.0113713      337.18207      19339.028     -2824.5787      22.750954     -2801.8277      5526.1886      1.1575424      4.0335092      31.342869    
     19400   760.79452      1.0134151      334.56366      16499.355     -2825.1159      22.57428      -2802.5416      5551.2396      1.1523188      3.2056273      30.778204    
     19500   858.66143      1.0217959      338.80609      17714.476     -2826.2001      22.860533     -2803.3396      5579.5199      1.1464782      4.0984259      31.565863    
     19600   956.61381      1.0209042      341.33392      14566.518     -2827.1194      23.031095     -2804.0883      5611.254       1.1399943      3.2492723      30.194706    
     19700   1053.151       1.0358703      321.52851      12005.564     -2826.3391      21.694749     -2804.6444      5645.587       1.1330616      4.4442228      31.026222    
     19800   1149.2512      1.040581       330.68259      16647.98      -2827.4627      22.31241      -2805.1503      5681.6128      1.1258771      3.2680431      29.833208    
     19900   1244.8672      1.0458499      311.63618      13402.428     -2826.5493      21.027276     -2805.522       5719.5076      1.1184176      4.0070338      31.076362    
     20000   1339.7139      1.0543323      309.05306      16624.047     -2826.7492      20.852983     -2805.8962      5758.6752      1.1108107      4.0537764      31.3754      
     20100   1426.4845      1.1524644      336.23387      16619.867     -2828.9535      22.686976     -2806.2665      5798.9495      1.103096       3.6442856      30.141659    
     20200   1476.2115      2.010981       319.01844      11886.024     -2828.1132      21.525385     -2806.5878      5840.0093      1.0953403      3.2498994      30.314046    
     20300   1513.6376      2.671934       325.91152      13309.376     -2828.8407      21.990487     -2806.8502      5881.3612      1.087639       4.1995155      31.197788    
     20400   1551.0129      2.6755622      323.54383      12466.788     -2828.9542      21.830731     -2807.1234      5922.2893      1.0801225      3.1320593      29.717495    
     20500   1587.9784      2.7052239      315.92677      11524.689     -2828.7009      21.316778     -2807.3842      5962.2621      1.072881       4.0355021      31.793408    
     20600   1624.7129      2.7222342      316.50964      8348.6001     -2829.0027      21.356107     -2807.6466      6001.4129      1.065882       5.4526284      31.933739    
     20700   1661.4599      2.7213128      309.11886      9660.5402     -2828.7142      20.857423     -2807.8568      6038.9322      1.0592597      4.8450591      32.168524    
     20800   1698.1561      2.7250804      324.09144      9100.4025     -2830.0596      21.86768      -2808.192       6074.553       1.0530483      3.4160677      30.06906     
     20900   1734.6739      2.7383873      329.27489      5058.8679     -2830.7444      22.217427     -2808.527       6109.0789      1.0470969      3.972189       29.592282    
     21000   1771.3617      2.7257002      311.99476      1749.9702     -2829.9317      21.051471     -2808.8802      6142.561       1.0413894      3.0230629      29.525329    
     21100   1806.0715      2.8810349      325.60377      3236.4406     -2831.3071      21.969723     -2809.3374      6175.145       1.0358943      2.7232767      28.886927    
     21200   1836.326       3.305285       293.32336      5031.22       -2829.5481      19.79164      -2809.7564      6206.9783      1.0305816      2.7918707      30.36377     
     21300   1866.4912      3.3150796      301.24744      5651.0884     -2830.5502      20.326308     -2810.2239      6237.8386      1.0254831      3.4630409      30.190317    
     21400   1897.0976      3.2672934      312.40704      7787.8708     -2831.7831      21.079289     -2810.7038      6268.0162      1.0205458      3.4388821      28.378822    
     21500   1927.7912      3.258013       293.17362      7856.1643     -2830.8222      19.781537     -2811.0407      6297.8062      1.0157184      3.7429245      30.548356    
     21600   1958.1929      3.2892881      301.7275       6060.134      -2831.7485      20.358699     -2811.3898      6327.6539      1.0109273      3.8176961      30.360706    
     21607   1960.2659      3.3766267      297.20528     -232.35745     -2831.4842      20.053568     -2811.4306      6329.7413      1.0105939      3.8702177      29.307122    
Loop time of 1960.27 on 1 procs for 3000 steps with 523 atoms

Performance: 0.132 ns/day, 181.506 hours/ns, 1.530 timesteps/s, 800.401 atom-step/s
99.4% CPU use with 1 MPI tasks x 1 OpenMP threads

MPI task timing breakdown:
Section |  min time  |  avg time  |  max time  |%varavg| %total
---------------------------------------------------------------
Pair    | 1945.4     | 1945.4     | 1945.4     |   0.0 | 99.24
Neigh   | 0.61842    | 0.61842    | 0.61842    |   0.0 |  0.03
Comm    | 3.1828     | 3.1828     | 3.1828     |   0.0 |  0.16
Output  | 0.42698    | 0.42698    | 0.42698    |   0.0 |  0.02
Modify  | 9.0577     | 9.0577     | 9.0577     |   0.0 |  0.46
Other   |            | 1.622      |            |       |  0.08

Nlocal:            523 ave         523 max         523 min
Histogram: 1 0 0 0 0 0 0 0 0 0
Nghost:           2227 ave        2227 max        2227 min
Histogram: 1 0 0 0 0 0 0 0 0 0
Neighs:              0 ave           0 max           0 min
Histogram: 1 0 0 0 0 0 0 0 0 0
FullNghs:        61460 ave       61460 max       61460 min
Histogram: 1 0 0 0 0 0 0 0 0 0

Total # of neighbors = 61460
Ave neighs/atom = 117.51434
Neighbor list builds = 292
Dangerous builds = 0
Density at 0 GPa: 1.01059386804607 g/cm^3
Step 6: Final NPT equilibration at 300K (1500 steps)
Setting up Verlet run ...
  Unit style    : metal
  Current step  : 21607
  Time step     : 0.001
Per MPI rank memory allocation (min/avg/max) = 154.2 | 154.2 | 154.2 Mbytes
   Step          CPU           S/CPU           Temp          Press          PotEng         KinEng         TotEng         Volume        Density          Fmax          Fnorm     
     21607   0              0              297.20528     -232.35745     -2831.4842      20.053568     -2811.4306      6329.7413      1.0105939      3.8702177      29.307122    
     21700   27.445753      3.3885017      303.56384      6290.3257     -2831.9559      20.482605     -2811.4733      6330.6884      1.0104427      3.3394413      28.66828     
     21800   57.450854      3.3327667      314.00767      2170.8558     -2832.6578      21.187289     -2811.4705      6333.9013      1.0099301      3.2520059      29.674695    
     21900   87.474519      3.3307059      305.13992      5504.143      -2832.1122      20.588949     -2811.5232      6338.3864      1.0092155      3.3630799      29.232775    
     22000   117.20063      3.3640458      297.7829       563.44802     -2831.6114      20.092542     -2811.5188      6345.2262      1.0081276      3.6415033      29.851931    
     22100   147.13562      3.3405697      323.08948      7204.9015     -2833.3992      21.800074     -2811.5991      6354.4729      1.0066606      3.2976034      29.261239    
     22200   176.7151       3.3807243      299.06943      4689.4587     -2831.8087      20.17935      -2811.6293      6365.7757      1.0048733      3.5533237      29.515895    
     22300   206.58041      3.3483674      281.13596      3885.8285     -2830.6576      18.96931      -2811.6883      6379.5584      1.0027023      3.7329237      30.804094    
     22400   236.10012      3.3875664      287.76339      3211.8275     -2831.1962      19.416488     -2811.7798      6395.0869      1.0002675      3.550337       30.416397    
     22500   265.53885      3.3968856      307.57966      5151.5814     -2832.6734      20.753567     -2811.9198      6412.2945      0.99758328     3.8122872      28.828932    
     22600   295.04914      3.3886484      286.20561      2156.6652     -2831.3383      19.311379     -2812.027       6431.9775      0.99453049     3.2311606      31.177145    
     22700   324.57924      3.3863757      302.06159      7293.9083     -2832.617       20.381242     -2812.2358      6453.5726      0.99120257     3.2647613      29.794848    
     22800   354.44034      3.3488366      294.95441     -232.73262     -2832.2837      19.901694     -2812.382       6477.1499      0.98759453     3.7509454      30.745244    
     22900   384.82692      3.290928       292.08007      3405.4192     -2832.3984      19.707751     -2812.6906      6501.7383      0.98385962     3.1115539      28.411478    
     23000   420.04563      2.8393988      294.81655     -389.88974     -2832.7487      19.892392     -2812.8564      6527.5714      0.97996597     3.0363379      30.191915    
     23100   486.96035      1.4944399      290.84427      2573.1685     -2832.7297      19.624367     -2813.1054      6554.838       0.97588953     3.2313888      29.657071    
     23107   492.24431      1.3247637      286.30954      2967.8387     -2832.4708      19.318391     -2813.1524      6556.8336      0.97559251     3.0236324      28.774839    
Loop time of 492.245 on 1 procs for 1500 steps with 523 atoms

Performance: 0.263 ns/day, 91.157 hours/ns, 3.047 timesteps/s, 1.594 katom-step/s
98.8% CPU use with 1 MPI tasks x 1 OpenMP threads

MPI task timing breakdown:
Section |  min time  |  avg time  |  max time  |%varavg| %total
---------------------------------------------------------------
Pair    | 485.24     | 485.24     | 485.24     |   0.0 | 98.58
Neigh   | 0.27294    | 0.27294    | 0.27294    |   0.0 |  0.06
Comm    | 1.4885     | 1.4885     | 1.4885     |   0.0 |  0.30
Output  | 0.26814    | 0.26814    | 0.26814    |   0.0 |  0.05
Modify  | 4.2426     | 4.2426     | 4.2426     |   0.0 |  0.86
Other   |            | 0.7358     |            |       |  0.15

Nlocal:            523 ave         523 max         523 min
Histogram: 1 0 0 0 0 0 0 0 0 0
Nghost:           2224 ave        2224 max        2224 min
Histogram: 1 0 0 0 0 0 0 0 0 0
Neighs:              0 ave           0 max           0 min
Histogram: 1 0 0 0 0 0 0 0 0 0
FullNghs:        59288 ave       59288 max       59288 min
Histogram: 1 0 0 0 0 0 0 0 0 0

Total # of neighbors = 59288
Ave neighs/atom = 113.36138
Neighbor list builds = 137
Dangerous builds = 0
Step 7: Final NVT relaxation to stabilize structure (500 steps)
Setting up Verlet run ...
  Unit style    : metal
  Current step  : 23107
  Time step     : 0.001
Per MPI rank memory allocation (min/avg/max) = 154.2 | 154.2 | 154.2 Mbytes
   Step          CPU           S/CPU           Temp          Press          PotEng         KinEng         TotEng         Volume        Density          Fmax          Fnorm     
     23107   0              0              286.30954      2967.8387     -2832.4708      19.318391     -2813.1524      6556.8336      0.97559251     3.0236324      28.774839    
     23200   67.305753      1.381754       302.72876      676.20283     -2833.5762      20.426259     -2813.15        6556.8336      0.97559251     2.9009376      28.746716    
     23300   145.77045      1.2744584      299.02921      929.74124     -2833.2734      20.176636     -2813.0968      6556.8336      0.97559251     3.1677601      29.233604    
     23400   222.36296      1.3056107      291.75379      3132.8773     -2832.7338      19.685736     -2813.048       6556.8336      0.97559251     3.3770257      29.803828    
     23500   285.57354      1.5820137      295.36648      5194.4882     -2832.8836      19.929497     -2812.9541      6556.8336      0.97559251     3.3856263      30.026937    
     23600   342.38433      1.7602289      307.04096      2955.1106     -2833.5715      20.717219     -2812.8543      6556.8336      0.97559251     3.1449075      29.219437    
     23607   346.31587      1.7804641      304.09207      1254.3323     -2833.3413      20.518246     -2812.8231      6556.8336      0.97559251     4.0666336      29.696026    
Loop time of 346.318 on 1 procs for 500 steps with 523 atoms

Performance: 0.125 ns/day, 192.399 hours/ns, 1.444 timesteps/s, 755.087 atom-step/s
99.4% CPU use with 1 MPI tasks x 1 OpenMP threads

MPI task timing breakdown:
Section |  min time  |  avg time  |  max time  |%varavg| %total
---------------------------------------------------------------
Pair    | 344.75     | 344.75     | 344.75     |   0.0 | 99.55
Neigh   | 0.082051   | 0.082051   | 0.082051   |   0.0 |  0.02
Comm    | 0.52684    | 0.52684    | 0.52684    |   0.0 |  0.15
Output  | 0.06725    | 0.06725    | 0.06725    |   0.0 |  0.02
Modify  | 0.64073    | 0.64073    | 0.64073    |   0.0 |  0.19
Other   |            | 0.2556     |            |       |  0.07

Nlocal:            523 ave         523 max         523 min
Histogram: 1 0 0 0 0 0 0 0 0 0
Nghost:           2260 ave        2260 max        2260 min
Histogram: 1 0 0 0 0 0 0 0 0 0
Neighs:              0 ave           0 max           0 min
Histogram: 1 0 0 0 0 0 0 0 0 0
FullNghs:        59442 ave       59442 max       59442 min
Histogram: 1 0 0 0 0 0 0 0 0 0

Total # of neighbors = 59442
Ave neighs/atom = 113.65583
Neighbor list builds = 44
Dangerous builds = 0
System init for write_data ...
WARNING: No fixes with time integration, atoms won't move
For more information see https://docs.lammps.org/err0028 (src/verlet.cpp:60)
Setting up Verlet run ...
  Unit style    : metal
  Current step  : 23607
  Time step     : 0.001
Per MPI rank memory allocation (min/avg/max) = 149.8 | 149.8 | 149.8 Mbytes
   Step          CPU           S/CPU           Temp          Press          PotEng         KinEng         TotEng         Volume        Density          Fmax          Fnorm     
     23607   0              0              304.09207      1254.3323     -2833.3413      20.518246     -2812.8231      6556.8336      0.97559251     4.0666336      29.696026    
GPU information: NVIDIA RTX A6000, 8, 6, 45, 84, 300, 2100
Loop time of 0.000548141 on 1 procs for 0 steps with 523 atoms

99.2% CPU use with 1 MPI tasks x 1 OpenMP threads

MPI task timing breakdown:
Section |  min time  |  avg time  |  max time  |%varavg| %total
---------------------------------------------------------------
Pair    | 0          | 0          | 0          |   0.0 |  0.00
Neigh   | 0          | 0          | 0          |   0.0 |  0.00
Comm    | 0          | 0          | 0          |   0.0 |  0.00
Output  | 0          | 0          | 0          |   0.0 |  0.00
Modify  | 0          | 0          | 0          |   0.0 |  0.00
Other   |            | 0.0005481  |            |       |100.00

Nlocal:            523 ave         523 max         523 min
Histogram: 1 0 0 0 0 0 0 0 0 0
Nghost:           2260 ave        2260 max        2260 min
Histogram: 1 0 0 0 0 0 0 0 0 0
Neighs:              0 ave           0 max           0 min
Histogram: 1 0 0 0 0 0 0 0 0 0
FullNghs:        59402 ave       59402 max       59402 min
Histogram: 1 0 0 0 0 0 0 0 0 0

Total # of neighbors = 59402
Ave neighs/atom = 113.57935
Neighbor list builds = 0
Dangerous builds = 0
System init for write_restart ...
===========================================
OPTIMIZED v2 Melt-Quench Complete!
===========================================
Density Summary (Target: <5% error):
  Initial density:     0.975592506533098 g/cm^3
  After compression:   0.975592506533098 g/cm^3
  At 3 GPa:            0.975592506533098 g/cm^3
  At 1 GPa:            0.975592506533098 g/cm^3
  At 0 GPa:            0.975592506533098 g/cm^3
  Final density:       0.975592506533098 g/cm^3
  Target:              1.1 g/cm^3
  Relative error:      11.3097721333547%%
===========================================
Output files:
  - densified_pdms.lmpdat     (LAMMPS data format)
  - densified_pdms.xyz        (XYZ format)
  - densified_pdms.restart    (restart file)
  - full_trajectory.xyz       (complete XYZ trajectory)
  - full_trajectory.lammpstrj (complete LAMMPS trajectory)
  - trajectory.xyz            (MD XYZ trajectory)
  - trajectory.lammpstrj      (MD LAMMPS trajectory)
  - trajectory.dcd            (MD DCD trajectory)
  - melt_quench_log.lammps    (LAMMPS log file)
===========================================
Total: ~22000 steps (~60 min)
Strategy: 5 GPa + low-T lock + 3-stage release with cooling
===========================================
Total wall time: 2:34:43
 
Melt-quench simulation completed. 
========================================== 
Simulation completed 
Completed at: Sat 12/20/2025 20:50:16.94 
 
Output files: 
  - densified_pdms.lmpdat (LAMMPS data) 
  - densified_pdms.xyz (XYZ format) 
  - densified_pdms.restart (restart file) 
  - trajectory.xyz (full trajectory) 
  - melt_quench_log.lammps (LAMMPS log) 
========================================== 
