
units           metal
neighbor        1.0 bin
dimension       3
boundary        p p p
atom_style      atomic
atom_modify     map yes
newton          on

read_data       silicone_slab.lmpdat
Reading data file ...
  orthogonal box = (0 0 0) to (22 19.079963 20)
  1 by 1 by 1 MPI processor grid
  reading atoms ...
  523 atoms
  read_data CPU = 0.016 seconds

# Use dynamic model path passed from command line via -var MODEL_PT_PATH
pair_style      mliap unified ${MODEL_PT_PATH} 0
pair_style      mliap unified mace_pretained_models/mace-mh-1.model_omat_pbe.pt 0
pair_coeff      * * C H O Si

thermo          100
thermo_style    custom step cpu spcpu temp press pe ke etotal vol density fmax fnorm
thermo_modify   flush yes

# Optimized damping parameters from successful runs
variable        tdamp equal 0.5
variable        pdamp equal 10.0

# -----------------------------------------------------------------------------
# Master trajectory dump - captures entire simulation (minimization + MD)
# -----------------------------------------------------------------------------
dump            full_traj all xyz 500 full_trajectory.xyz
dump_modify     full_traj element C H O Si

dump            full_lmp all custom 500 full_trajectory.lammpstrj id type x y z
dump_modify     full_lmp sort id

# -----------------------------------------------------------------------------
# Step 1: Quick Minimization
# -----------------------------------------------------------------------------
print "Step 1: Quick Minimization"
Step 1: Quick Minimization
dump            min_xyz all xyz 100 minimize_traj.xyz
dump_modify     min_xyz element C H O Si

dump            min_lmp all custom 100 minimize_traj.lammpstrj id type x y z
dump_modify     min_lmp sort id

minimize        0.0 1.0e-8 5000 50000

CITE-CITE-CITE-CITE-CITE-CITE-CITE-CITE-CITE-CITE-CITE-CITE-CITE

Your simulation uses code contributions which should be cited:

- KOKKOS package: https://doi.org/10.1145/3731599.3767498

@inproceedings{Johansson25,
 author = {A. Johansson and E. Weinberg and C. Trott and M. McCarthy and S. Moore},
 title = {{LAMMPS-KOKKOS}: {P}erformance Portable Molecular Dynamics Across Exascale Architectures},
 year = 2025,
 booktitle = {Proceedings of the SC '25 Workshops of the International Conference for High Performance Computing,
  Networking, Storage and Analysis},
 pages = {1217–1232},
}

CITE-CITE-CITE-CITE-CITE-CITE-CITE-CITE-CITE-CITE-CITE-CITE-CITE

Neighbor list info ...
  update: every = 1 steps, delay = 0 steps, check = yes
  max neighbors/atom: 2000, page size: 100000
  master list distance cutoff = 7
  ghost atom cutoff = 7
  binsize = 7, bins = 4 3 3
  1 neighbor lists, perpetual/occasional/extra = 1 0 0
  (1) pair mliap/kk, perpetual
      attributes: full, newton on, kokkos_device
      pair build: full/bin/kk/device
      stencil: full/bin/3d
      bin: kk/device
WARNING: Fix MINIMIZE/kk not compatible with sending data in Kokkos communication (src/KOKKOS/comm_kokkos.cpp:744)
WARNING: Fix with atom-based arrays not compatible with sending data in Kokkos communication, switching to legacy exchange/border communication (src/KOKKOS/comm_kokkos.cpp:751)
WARNING: Fix MINIMIZE/kk not compatible with Kokkos sorting on device (src/KOKKOS/atom_kokkos.cpp:217)
WARNING: Fix with atom-based arrays not compatible with Kokkos sorting on device, switching to legacy host sorting (src/KOKKOS/atom_kokkos.cpp:223)
Per MPI rank memory allocation (min/avg/max) = 118.4 | 118.4 | 118.4 Mbytes
   Step          CPU           S/CPU           Temp          Press          PotEng         KinEng         TotEng         Volume        Density          Fmax          Fnorm     
         0   0              0              0              136453        -2358.8385      0             -2358.8385      8395.1837      0.76196043     14.075943      89.160992    
       100   16.596017      6.0255402      0              1931.5209     -2828.6054      0             -2828.6054      8395.1837      0.76196043     0.92904737     4.2117486    
       200   34.867835      5.4729095      0              1804.439      -2836.5687      0             -2836.5687      8395.1837      0.76196043     0.25935836     1.0486312    
       300   56.442389      4.6350896      0              1483.6695     -2837.8407      0             -2837.8407      8395.1837      0.76196043     0.14596988     0.6358528    
       308   63.487535      1.1355336      0              1462.6977     -2837.8825      0             -2837.8825      8395.1837      0.76196043     0.094765743    0.34017941   
Loop time of 63.4902 on 1 procs for 308 steps with 523 atoms

100.0% CPU use with 1 MPI tasks x 1 OpenMP threads

Minimization stats:
  Stopping criterion = linesearch alpha is zero
  Energy initial, next-to-last, final = 
     -2358.83848166638  -2837.88250141191  -2837.88250141191
  Force two-norm initial, final = 89.160992 0.34017941
  Force max component initial, final = 14.075943 0.094765743
  Final line search alpha, max atom move = 5.9604645e-08 5.6484784e-09
  Iterations, force evaluations = 308 659

MPI task timing breakdown:
Section |  min time  |  avg time  |  max time  |%varavg| %total
---------------------------------------------------------------
Pair    | 63.199     | 63.199     | 63.199     |   0.0 | 99.54
Neigh   | 0.020948   | 0.020948   | 0.020948   |   0.0 |  0.03
Comm    | 0.079465   | 0.079465   | 0.079465   |   0.0 |  0.13
Output  | 0.0049637  | 0.0049637  | 0.0049637  |   0.0 |  0.01
Modify  | 0          | 0          | 0          |   0.0 |  0.00
Other   |            | 0.1858     |            |       |  0.29

Nlocal:            523 ave         523 max         523 min
Histogram: 1 0 0 0 0 0 0 0 0 0
Nghost:           1822 ave        1822 max        1822 min
Histogram: 1 0 0 0 0 0 0 0 0 0
Neighs:              0 ave           0 max           0 min
Histogram: 1 0 0 0 0 0 0 0 0 0
FullNghs:        47596 ave       47596 max       47596 min
Histogram: 1 0 0 0 0 0 0 0 0 0

Total # of neighbors = 47596
Ave neighs/atom = 91.005736
Neighbor list builds = 26
Dangerous builds = 0

undump          min_xyz
undump          min_lmp

variable        init_density equal $(density)
variable        init_density equal 0.76196042726208512708
print "Initial density: ${init_density} g/cm^3"
Initial density: 0.761960427262085 g/cm^3

# -----------------------------------------------------------------------------
# Enable trajectory dumps for MD runs
# -----------------------------------------------------------------------------
dump            xyz_traj all xyz 100 trajectory.xyz
dump_modify     xyz_traj element C H O Si

dump            lmp_traj all custom 100 trajectory.lammpstrj id type x y z
dump_modify     lmp_traj sort id

dump            dcd_traj all dcd 100 trajectory.dcd

velocity        all create 300.0 12345 rot yes dist gaussian
timestep        0.001

# -----------------------------------------------------------------------------
# Step 2: Heating 300K -> 500K
# -----------------------------------------------------------------------------
print "Step 2: Heating 300K -> 500K (1000 steps)"
Step 2: Heating 300K -> 500K (1000 steps)

fix             heat all npt temp 300.0 500.0 ${tdamp} iso 1.0 1.0 ${pdamp}
fix             heat all npt temp 300.0 500.0 0.5 iso 1.0 1.0 ${pdamp}
fix             heat all npt temp 300.0 500.0 0.5 iso 1.0 1.0 10
run             1000
Per MPI rank memory allocation (min/avg/max) = 126.5 | 126.5 | 126.5 Mbytes
   Step          CPU           S/CPU           Temp          Press          PotEng         KinEng         TotEng         Volume        Density          Fmax          Fnorm     
       308   0              0              300            4052.482      -2837.8825      20.242139     -2817.6404      8395.1837      0.76196043     0.33761166     0.56231454   
       400   8.7011369      10.573325      151.36955      1372.2945     -2827.3188      10.213478     -2817.1053      8395.7898      0.76190542     2.3335413      20.555542    
       500   18.175487      10.554814      176.40339      3590.1343     -2828.3852      11.902606     -2816.4826      8397.9177      0.76171237     3.1238948      22.062382    
       600   27.589716      10.622219      164.08913      4503.603      -2826.7079      11.071716     -2815.6362      8401.9166      0.76134983     2.6189         23.603557    
       700   37.104346      10.51013       177.03021      5474.989      -2826.8592      11.9449       -2814.9143      8407.9271      0.76080557     3.066762       23.22673     
       800   46.656147      10.46923       199.47508      1954.6611     -2826.987       13.459341     -2813.5277      8416.0811      0.76006845     2.9429109      23.431954    
       900   56.419577      10.242302      213.13989      1987.3487     -2826.6688      14.381358     -2812.2874      8425.5517      0.75921411     3.3465252      24.383191    
      1000   65.81264       10.646155      212.62651      2330.0111     -2825.6187      14.346717     -2811.272       8436.1959      0.75825619     3.9870611      25.572037    
      1100   75.164385      10.69319       224.59516      3667.5988     -2824.9393      15.154288     -2809.785       8448.9959      0.75710746     3.0952038      25.727365    
      1200   84.471417      10.744565      235.6853       4261.9592     -2824.2723      15.902581     -2808.3697      8464.0815      0.75575805     3.6026912      26.42676     
      1300   93.752526      10.774574      242.92082      5453.8792     -2823.1994      16.390789     -2806.8086      8481.0446      0.75424645     4.4559594      27.894631    
      1308   94.509142      10.573399      252.34719      771.25893     -2823.9448      17.026823     -2806.918       8482.5093      0.75411621     3.0701894      26.23702     
Loop time of 94.5094 on 1 procs for 1000 steps with 523 atoms

Performance: 0.914 ns/day, 26.253 hours/ns, 10.581 timesteps/s, 5.534 katom-step/s
99.8% CPU use with 1 MPI tasks x 1 OpenMP threads

MPI task timing breakdown:
Section |  min time  |  avg time  |  max time  |%varavg| %total
---------------------------------------------------------------
Pair    | 93.153     | 93.153     | 93.153     |   0.0 | 98.57
Neigh   | 0.054315   | 0.054315   | 0.054315   |   0.0 |  0.06
Comm    | 0.12971    | 0.12971    | 0.12971    |   0.0 |  0.14
Output  | 0.032061   | 0.032061   | 0.032061   |   0.0 |  0.03
Modify  | 0.96655    | 0.96655    | 0.96655    |   0.0 |  1.02
Other   |            | 0.1734     |            |       |  0.18

Nlocal:            523 ave         523 max         523 min
Histogram: 1 0 0 0 0 0 0 0 0 0
Nghost:           1882 ave        1882 max        1882 min
Histogram: 1 0 0 0 0 0 0 0 0 0
Neighs:              0 ave           0 max           0 min
Histogram: 1 0 0 0 0 0 0 0 0 0
FullNghs:        48132 ave       48132 max       48132 min
Histogram: 1 0 0 0 0 0 0 0 0 0

Total # of neighbors = 48132
Ave neighs/atom = 92.030593
Neighbor list builds = 66
Dangerous builds = 0
unfix           heat

# -----------------------------------------------------------------------------
# Step 3: Gentle Compression to 0.5 GPa (5000 bar)
# -----------------------------------------------------------------------------
print "Step 3: Compression 1.0 bar -> 5000.0 bar (2000 steps)"
Step 3: Compression 1.0 bar -> 5000.0 bar (2000 steps)

fix             compress all npt temp 500.0 500.0 ${tdamp} iso 1.0 5000.0 ${pdamp}
fix             compress all npt temp 500.0 500.0 0.5 iso 1.0 5000.0 ${pdamp}
fix             compress all npt temp 500.0 500.0 0.5 iso 1.0 5000.0 10
run             2000
Per MPI rank memory allocation (min/avg/max) = 128.5 | 128.5 | 128.5 Mbytes
   Step          CPU           S/CPU           Temp          Press          PotEng         KinEng         TotEng         Volume        Density          Fmax          Fnorm     
      1308   0              0              252.34719      774.72021     -2823.9448      17.026823     -2806.918       8482.5093      0.75411621     3.0691053      26.237423    
      1400   8.5826085      10.719346      251.35968      2912.0971     -2823.727       16.960192     -2806.7668      8482.8319      0.75408753     3.4346662      26.79174     
      1500   17.985014      10.635577      255.36531      3178.271      -2822.4407      17.230466     -2805.2103      8484.0287      0.75398115     3.9181076      27.573581    
      1600   27.284541      10.753235      257.30226      3134.2365     -2821.4491      17.36116      -2804.0879      8486.2585      0.75378304     3.6807883      29.558105    
      1700   36.625645      10.705371      274.41779      1132.6803     -2821.9402      18.51601      -2803.4242      8489.8135      0.7534674      3.8380418      26.98345     
      1800   45.973647      10.697474      286.92294     -730.37534     -2821.4591      19.35978      -2802.0993      8493.6872      0.75312377     2.9351736      29.217312    
      1900   55.316377      10.703509      297.08279      1492.0897     -2821.1466      20.045304     -2801.1013      8497.785       0.75276061     3.7094549      29.024978    
      2000   64.669419      10.691709      322.03211      2277.4559     -2821.2294      21.728729     -2799.5006      8502.3562      0.75235589     2.8879148      28.254518    
      2100   74.143446      10.555174      317.38318      741.10507     -2819.3221      21.415048     -2797.9071      8507.2875      0.75191978     3.6387786      30.204924    
      2200   83.687669      10.477543      328.30055     -653.80189     -2818.5017      22.151684     -2796.35        8512.5711      0.75145308     3.8095231      30.134177    
      2300   93.08038       10.646553      377.38549      109.56721     -2819.8512      25.463632     -2794.3876      8517.3898      0.75102794     3.7551741      30.393395    
      2400   102.45624      10.665683      377.5022       2518.8422     -2817.9878      25.471507     -2792.5163      8521.7338      0.75064511     4.1301886      32.321112    
      2500   111.81078      10.690001      398.05718      3158.1678     -2817.2645      26.858429     -2790.406       8525.9274      0.75027589     5.1762378      33.48968     
      2600   121.13512      10.724624      408.89214      1375.0617     -2815.465       27.589505     -2787.8755      8529.5455      0.74995763     6.7167534      33.120427    
      2700   130.50929      10.667611      420.01574      1104.4721     -2814.1176      28.340056     -2785.7775      8532.7467      0.74967627     4.0836137      33.751879    
      2800   139.9489       10.593654      470.44597      6171.7315     -2815.4568      31.742775     -2783.714       8534.81        0.74949504     4.6152762      34.38359     
      2900   149.29269      10.702295      461.01074      2482.3791     -2812.8602      31.106145     -2781.7541      8536.1409      0.74937818     3.8119402      36.614745    
      3000   158.68114      10.651382      480.53982      2186.7852     -2811.5504      32.423845     -2779.1266      8536.517       0.74934517     5.394255       36.913558    
      3100   168.16657      10.542487      517.27484      4833.5138     -2811.0379      34.902497     -2776.1354      8535.7347      0.74941385     5.3250504      37.313068    
      3200   177.60238      10.59793       525.0764       3363.3697     -2809.2016      35.428898     -2773.7727      8534.0754      0.74955956     6.4178254      38.481033    
      3300   187.08858      10.541628      542.62925      812.51501     -2807.5418      36.613255     -2770.9285      8530.9932      0.74983037     6.2500716      38.389529    
      3308   187.8446       10.581709      537.03273      1862.2994     -2806.2514      36.235636     -2770.0158      8530.7131      0.74985499     22.597763      50.266842    
Loop time of 187.845 on 1 procs for 2000 steps with 523 atoms

Performance: 0.920 ns/day, 26.090 hours/ns, 10.647 timesteps/s, 5.568 katom-step/s
99.9% CPU use with 1 MPI tasks x 1 OpenMP threads

MPI task timing breakdown:
Section |  min time  |  avg time  |  max time  |%varavg| %total
---------------------------------------------------------------
Pair    | 185.04     | 185.04     | 185.04     |   0.0 | 98.51
Neigh   | 0.17501    | 0.17501    | 0.17501    |   0.0 |  0.09
Comm    | 0.31989    | 0.31989    | 0.31989    |   0.0 |  0.17
Output  | 0.042141   | 0.042141   | 0.042141   |   0.0 |  0.02
Modify  | 1.9012     | 1.9012     | 1.9012     |   0.0 |  1.01
Other   |            | 0.3618     |            |       |  0.19

Nlocal:            523 ave         523 max         523 min
Histogram: 1 0 0 0 0 0 0 0 0 0
Nghost:           1828 ave        1828 max        1828 min
Histogram: 1 0 0 0 0 0 0 0 0 0
Neighs:              0 ave           0 max           0 min
Histogram: 1 0 0 0 0 0 0 0 0 0
FullNghs:        48346 ave       48346 max       48346 min
Histogram: 1 0 0 0 0 0 0 0 0 0

Total # of neighbors = 48346
Ave neighs/atom = 92.439771
Neighbor list builds = 226
Dangerous builds = 0
unfix           compress

variable        compressed_density equal $(density)
variable        compressed_density equal 0.74985498733032307506
print "==========================================="
===========================================
print "Density after compression (5000 bar): ${compressed_density} g/cm^3"
Density after compression (5000 bar): 0.749854987330323 g/cm^3
print "==========================================="
===========================================

# -----------------------------------------------------------------------------
# Step 4: Hold and Cool to lock structure
# -----------------------------------------------------------------------------
print "Step 4a: Hold at 5000 bar - high temp (1000 steps)"
Step 4a: Hold at 5000 bar - high temp (1000 steps)
fix             hold1 all npt temp 500.0 500.0 ${tdamp} iso 5000.0 5000.0 ${pdamp}
fix             hold1 all npt temp 500.0 500.0 0.5 iso 5000.0 5000.0 ${pdamp}
fix             hold1 all npt temp 500.0 500.0 0.5 iso 5000.0 5000.0 10
run             1000
Per MPI rank memory allocation (min/avg/max) = 128.4 | 128.4 | 128.4 Mbytes
   Step          CPU           S/CPU           Temp          Press          PotEng         KinEng         TotEng         Volume        Density          Fmax          Fnorm     
      3308   0              0              537.03273      1875.3687     -2806.2514      36.235636     -2770.0158      8530.7131      0.74985499     22.666896      50.323722    
      3400   8.7644627      10.49693       588.73669      3188.9015     -2807.9085      39.724299     -2768.1842      8530.0384      0.7499143      8.9623481      41.53736     
      3500   18.264877      10.525856      566.39457      381.3346      -2803.6235      38.216791     -2765.4067      8527.4713      0.75014005     7.5892642      40.62832     
      3600   28.061498      10.207601      574.36897      1920.5704     -2805.4396      38.754855     -2766.6847      8523.1644      0.75051911     7.4532838      41.701771    
      3700   37.833435      10.233386      577.29511      1682.3443     -2805.3742      38.952293     -2766.4219      8517.6003      0.75100939     8.0251466      43.734339    
      3800   47.455523      10.392754      557.55814      436.49175     -2804.4243      37.620564     -2766.8038      8510.2284      0.75165994     6.195337       40.385218    
      3900   57.317015      10.140453      562.47511      3749.6599     -2803.8736      37.95233      -2765.9213      8501.8319      0.75240229     7.3738954      45.257764    
      4000   67.003763      10.323382      587.70761      707.60139     -2805.4831      39.654863     -2765.8282      8492.0829      0.75326605     6.8786361      42.627806    
      4100   76.59267       10.428718      565.10249     -1085.5736     -2802.9741      38.12961      -2764.8444      8480.9135      0.75425811     10.390843      44.90748     
      4200   86.182835      10.42735       590.1439       1219.1413     -2804.5644      39.819249     -2764.7451      8467.9048      0.75541683     8.0138072      42.349069    
      4300   95.859735      10.333887      582.9483       4215.4729     -2804.1646      39.333735     -2764.8309      8453.537       0.75670074     9.2032815      45.693493    
      4308   96.673813      9.8270751      555.06205      547.44757     -2802.4354      37.452144     -2764.9832      8452.3269      0.75680908     9.7424581      46.442825    
Loop time of 96.6741 on 1 procs for 1000 steps with 523 atoms

Performance: 0.894 ns/day, 26.854 hours/ns, 10.344 timesteps/s, 5.410 katom-step/s
99.6% CPU use with 1 MPI tasks x 1 OpenMP threads

MPI task timing breakdown:
Section |  min time  |  avg time  |  max time  |%varavg| %total
---------------------------------------------------------------
Pair    | 95.021     | 95.021     | 95.021     |   0.0 | 98.29
Neigh   | 0.17829    | 0.17829    | 0.17829    |   0.0 |  0.18
Comm    | 0.25726    | 0.25726    | 0.25726    |   0.0 |  0.27
Output  | 0.022283   | 0.022283   | 0.022283   |   0.0 |  0.02
Modify  | 0.98502    | 0.98502    | 0.98502    |   0.0 |  1.02
Other   |            | 0.2099     |            |       |  0.22

Nlocal:            523 ave         523 max         523 min
Histogram: 1 0 0 0 0 0 0 0 0 0
Nghost:           1903 ave        1903 max        1903 min
Histogram: 1 0 0 0 0 0 0 0 0 0
Neighs:              0 ave           0 max           0 min
Histogram: 1 0 0 0 0 0 0 0 0 0
FullNghs:        48078 ave       48078 max       48078 min
Histogram: 1 0 0 0 0 0 0 0 0 0

Total # of neighbors = 48078
Ave neighs/atom = 91.927342
Neighbor list builds = 221
Dangerous builds = 0
unfix           hold1

print "Step 4b: Cool to 300K under 5000 bar pressure (2000 steps)"
Step 4b: Cool to 300K under 5000 bar pressure (2000 steps)
fix             anneal1 all npt temp 500.0 300.0 ${tdamp} iso 5000.0 5000.0 ${pdamp}
fix             anneal1 all npt temp 500.0 300.0 0.5 iso 5000.0 5000.0 ${pdamp}
fix             anneal1 all npt temp 500.0 300.0 0.5 iso 5000.0 5000.0 10
run             2000
Per MPI rank memory allocation (min/avg/max) = 128.8 | 128.8 | 128.8 Mbytes
   Step          CPU           S/CPU           Temp          Press          PotEng         KinEng         TotEng         Volume        Density          Fmax          Fnorm     
      4308   0              0              555.06205      568.13444     -2802.4354      37.452144     -2764.9832      8452.3269      0.75680908     9.7423478      46.441431    
      4400   9.1250616      10.082118      582.57713     -1700.6627     -2802.8844      39.30869      -2763.5757      8451.4378      0.7568887      5.7705931      41.85724     
