========================================== 
PDMS MACE Automated Workflow Started 
Model: mp / mh-1 
Head:  omat_pbe 
Started at: 2026/04/10 周五 16:28:56.87 
========================================== 
[INFO] silicone_slab.lmpdat not found. Generating from XYZ... 

==========
== CUDA ==
==========

CUDA Version 12.9.0

Container image Copyright (c) 2016-2023, NVIDIA CORPORATION & AFFILIATES. All rights reserved.

This container image and its contents are governed by the NVIDIA Deep Learning Container License.
By pulling and using the container, you accept the terms and conditions of this license:
https://developer.nvidia.com/ngc/nvidia-deep-learning-container-license

A copy of this license is made available in this container at /NGC-DL-CONTAINER-LICENSE for your convenience.

Successfully converted /workspace/silicone_slab.xyz to /workspace/silicone_slab.lmpdat
Cell dimensions: 22.000 x 19.080 x 20.000 A
Elements found: ['C', 'H', 'O', 'Si']
Total atoms: 523
Initial density: 0.762 g/cm^3
Target density: 1.10 g/cm^3 (PDMS rubber)
[INFO] Raw model found at: mace_pretained_models/mace-mh-1.model 
[INFO] MLIAP PT model not found. Triggering conversion... 

==========
== CUDA ==
==========

CUDA Version 12.9.0

Container image Copyright (c) 2016-2023, NVIDIA CORPORATION & AFFILIATES. All rights reserved.

This container image and its contents are governed by the NVIDIA Deep Learning Container License.
By pulling and using the container, you accept the terms and conditions of this license:
https://developer.nvidia.com/ngc/nvidia-deep-learning-container-license

A copy of this license is made available in this container at /NGC-DL-CONTAINER-LICENSE for your convenience.

Failed to get GPU information from pynvml: Not Supported. Using default values for NVIDIA GeForce RTX 5090.
/workspace/convert_mace_to_mliap.py:59: UserWarning: Environment variable TORCH_FORCE_NO_WEIGHTS_ONLY_LOAD detected, since the`weights_only` argument was not explicitly passed to `torch.load`, forcing weights_only=False.
  model = torch.load(
/usr/local/lib/python3.10/dist-packages/mace/modules/models.py:85: UserWarning: To copy construct from a tensor, it is recommended to use sourceTensor.detach().clone() or sourceTensor.detach().clone().requires_grad_(True), rather than torch.tensor(sourceTensor).
  "atomic_numbers", torch.tensor(atomic_numbers, dtype=torch.int64)
/usr/local/lib/python3.10/dist-packages/torch/jit/_check.py:178: UserWarning: The TorchScript type system doesn't support instance-level annotations on empty non-base types in `__init__`. Instead, either 1) use a type annotation in the class body, or 2) wrap the type in `torch.jit.Attribute`.
  warnings.warn(
/usr/local/lib/python3.10/dist-packages/torch/jit/_check.py:178: UserWarning: The TorchScript type system doesn't support instance-level annotations on empty non-base types in `__init__`. Instead, either 1) use a type annotation in the class body, or 2) wrap the type in `torch.jit.Attribute`.
  warnings.warn(
/usr/local/lib/python3.10/dist-packages/torch/jit/_check.py:178: UserWarning: The TorchScript type system doesn't support instance-level annotations on empty non-base types in `__init__`. Instead, either 1) use a type annotation in the class body, or 2) wrap the type in `torch.jit.Attribute`.
  warnings.warn(
/usr/local/lib/python3.10/dist-packages/torch/jit/_check.py:178: UserWarning: The TorchScript type system doesn't support instance-level annotations on empty non-base types in `__init__`. Instead, either 1) use a type annotation in the class body, or 2) wrap the type in `torch.jit.Attribute`.
  warnings.warn(
GPU information: NVIDIA RTX A6000, 8, 6, 45, 84, 300, 2100
cuEquivariance conversion is available - GPU acceleration will be enabled!
Loading model from: /workspace/mace_pretained_models/mace-mh-1.model
Converting model to cuEquivariance format for GPU acceleration...
cuEquivariance conversion successful!
Model loaded and converted to float64
Using uniquely specified head: omat_pbe
Model saved to: /workspace/mace_pretained_models/mace-mh-1.model_omat_pbe.pt
Conversion successful!
[INFO] Starting LAMMPS simulation with model: mace_pretained_models/mace-mh-1.model_omat_pbe.pt 

==========
== CUDA ==
==========

CUDA Version 12.9.0

Container image Copyright (c) 2016-2023, NVIDIA CORPORATION & AFFILIATES. All rights reserved.

This container image and its contents are governed by the NVIDIA Deep Learning Container License.
By pulling and using the container, you accept the terms and conditions of this license:
https://developer.nvidia.com/ngc/nvidia-deep-learning-container-license

A copy of this license is made available in this container at /NGC-DL-CONTAINER-LICENSE for your convenience.

LAMMPS (10 Dec 2025)
Failed to get GPU information from pynvml: Not Supported. Using default values for NVIDIA GeForce RTX 5090.
W0410 08:29:24.426000 1 torch/fx/_symbolic_trace.py:52] is_fx_tracing will return true for both fx.symbolic_trace and torch.export. Please use is_fx_tracing_symbolic_tracing() for specifically fx.symbolic_trace or torch.compiler.is_compiling() for specifically torch.export/compile.
KOKKOS mode with Kokkos version 4.7.1 is enabled
  using double precision
  using view layout = legacy
  will use up to 1 GPU(s) per node
WARNING: When using a single thread, the Kokkos Serial backend (i.e. Makefile.kokkos_mpi_only) gives better performance than the OpenMP backend (src/KOKKOS/kokkos.cpp:266)
  using 1 OpenMP thread(s) per MPI task
Reading data file ...
  orthogonal box = (0 0 0) to (22 19.079963 20)
  1 by 1 by 1 MPI processor grid
  reading atoms ...
  523 atoms
  read_data CPU = 0.016 seconds
Step 1: Quick Minimization

CITE-CITE-CITE-CITE-CITE-CITE-CITE-CITE-CITE-CITE-CITE-CITE-CITE

Your simulation uses code contributions which should be cited:
- KOKKOS package: https://doi.org/10.1145/3731599.3767498
The log file lists these citations in BibTeX format.

CITE-CITE-CITE-CITE-CITE-CITE-CITE-CITE-CITE-CITE-CITE-CITE-CITE

Neighbor list info ...
  update: every = 1 steps, delay = 0 steps, check = yes
  max neighbors/atom: 2000, page size: 100000
  master list distance cutoff = 7
  ghost atom cutoff = 7
  binsize = 7, bins = 4 3 3
  1 neighbor lists, perpetual/occasional/extra = 1 0 0
  (1) pair mliap/kk, perpetual
      attributes: full, newton on, kokkos_device
      pair build: full/bin/kk/device
      stencil: full/bin/3d
      bin: kk/device
Setting up cg/kk style minimization ...
  Unit style    : metal
  Current step  : 0
WARNING: Fix MINIMIZE/kk not compatible with sending data in Kokkos communication (src/KOKKOS/comm_kokkos.cpp:744)
WARNING: Fix with atom-based arrays not compatible with sending data in Kokkos communication, switching to legacy exchange/border communication (src/KOKKOS/comm_kokkos.cpp:751)
WARNING: Fix MINIMIZE/kk not compatible with Kokkos sorting on device (src/KOKKOS/atom_kokkos.cpp:217)
WARNING: Fix with atom-based arrays not compatible with Kokkos sorting on device, switching to legacy host sorting (src/KOKKOS/atom_kokkos.cpp:223)
Per MPI rank memory allocation (min/avg/max) = 118.4 | 118.4 | 118.4 Mbytes
   Step          CPU           S/CPU           Temp          Press          PotEng         KinEng         TotEng         Volume        Density          Fmax          Fnorm     
         0   0              0              0              136453        -2358.8385      0             -2358.8385      8395.1837      0.76196043     14.075943      89.160992    
       100   16.596017      6.0255402      0              1931.5209     -2828.6054      0             -2828.6054      8395.1837      0.76196043     0.92904737     4.2117486    
       200   34.867835      5.4729095      0              1804.439      -2836.5687      0             -2836.5687      8395.1837      0.76196043     0.25935836     1.0486312    
       300   56.442389      4.6350896      0              1483.6695     -2837.8407      0             -2837.8407      8395.1837      0.76196043     0.14596988     0.6358528    
       308   63.487535      1.1355336      0              1462.6977     -2837.8825      0             -2837.8825      8395.1837      0.76196043     0.094765743    0.34017941   
Loop time of 63.4902 on 1 procs for 308 steps with 523 atoms

100.0% CPU use with 1 MPI tasks x 1 OpenMP threads

Minimization stats:
  Stopping criterion = linesearch alpha is zero
  Energy initial, next-to-last, final = 
     -2358.83848166638  -2837.88250141191  -2837.88250141191
  Force two-norm initial, final = 89.160992 0.34017941
  Force max component initial, final = 14.075943 0.094765743
  Final line search alpha, max atom move = 5.9604645e-08 5.6484784e-09
  Iterations, force evaluations = 308 659

MPI task timing breakdown:
Section |  min time  |  avg time  |  max time  |%varavg| %total
---------------------------------------------------------------
Pair    | 63.199     | 63.199     | 63.199     |   0.0 | 99.54
Neigh   | 0.020948   | 0.020948   | 0.020948   |   0.0 |  0.03
Comm    | 0.079465   | 0.079465   | 0.079465   |   0.0 |  0.13
Output  | 0.0049637  | 0.0049637  | 0.0049637  |   0.0 |  0.01
Modify  | 0          | 0          | 0          |   0.0 |  0.00
Other   |            | 0.1858     |            |       |  0.29

Nlocal:            523 ave         523 max         523 min
Histogram: 1 0 0 0 0 0 0 0 0 0
Nghost:           1822 ave        1822 max        1822 min
Histogram: 1 0 0 0 0 0 0 0 0 0
Neighs:              0 ave           0 max           0 min
Histogram: 1 0 0 0 0 0 0 0 0 0
FullNghs:        47596 ave       47596 max       47596 min
Histogram: 1 0 0 0 0 0 0 0 0 0

Total # of neighbors = 47596
Ave neighs/atom = 91.005736
Neighbor list builds = 26
Dangerous builds = 0
Initial density: 0.761960427262085 g/cm^3
Step 2: Heating 300K -> 500K (1000 steps)
Setting up Verlet run ...
  Unit style    : metal
  Current step  : 308
  Time step     : 0.001
Per MPI rank memory allocation (min/avg/max) = 126.5 | 126.5 | 126.5 Mbytes
   Step          CPU           S/CPU           Temp          Press          PotEng         KinEng         TotEng         Volume        Density          Fmax          Fnorm     
       308   0              0              300            4052.482      -2837.8825      20.242139     -2817.6404      8395.1837      0.76196043     0.33761166     0.56231454   
       400   8.7011369      10.573325      151.36955      1372.2945     -2827.3188      10.213478     -2817.1053      8395.7898      0.76190542     2.3335413      20.555542    
       500   18.175487      10.554814      176.40339      3590.1343     -2828.3852      11.902606     -2816.4826      8397.9177      0.76171237     3.1238948      22.062382    
       600   27.589716      10.622219      164.08913      4503.603      -2826.7079      11.071716     -2815.6362      8401.9166      0.76134983     2.6189         23.603557    
       700   37.104346      10.51013       177.03021      5474.989      -2826.8592      11.9449       -2814.9143      8407.9271      0.76080557     3.066762       23.22673     
       800   46.656147      10.46923       199.47508      1954.6611     -2826.987       13.459341     -2813.5277      8416.0811      0.76006845     2.9429109      23.431954    
       900   56.419577      10.242302      213.13989      1987.3487     -2826.6688      14.381358     -2812.2874      8425.5517      0.75921411     3.3465252      24.383191    
      1000   65.81264       10.646155      212.62651      2330.0111     -2825.6187      14.346717     -2811.272       8436.1959      0.75825619     3.9870611      25.572037    
      1100   75.164385      10.69319       224.59516      3667.5988     -2824.9393      15.154288     -2809.785       8448.9959      0.75710746     3.0952038      25.727365    
      1200   84.471417      10.744565      235.6853       4261.9592     -2824.2723      15.902581     -2808.3697      8464.0815      0.75575805     3.6026912      26.42676     
      1300   93.752526      10.774574      242.92082      5453.8792     -2823.1994      16.390789     -2806.8086      8481.0446      0.75424645     4.4559594      27.894631    
      1308   94.509142      10.573399      252.34719      771.25893     -2823.9448      17.026823     -2806.918       8482.5093      0.75411621     3.0701894      26.23702     
Loop time of 94.5094 on 1 procs for 1000 steps with 523 atoms

Performance: 0.914 ns/day, 26.253 hours/ns, 10.581 timesteps/s, 5.534 katom-step/s
99.8% CPU use with 1 MPI tasks x 1 OpenMP threads

MPI task timing breakdown:
Section |  min time  |  avg time  |  max time  |%varavg| %total
---------------------------------------------------------------
Pair    | 93.153     | 93.153     | 93.153     |   0.0 | 98.57
Neigh   | 0.054315   | 0.054315   | 0.054315   |   0.0 |  0.06
Comm    | 0.12971    | 0.12971    | 0.12971    |   0.0 |  0.14
Output  | 0.032061   | 0.032061   | 0.032061   |   0.0 |  0.03
Modify  | 0.96655    | 0.96655    | 0.96655    |   0.0 |  1.02
Other   |            | 0.1734     |            |       |  0.18

Nlocal:            523 ave         523 max         523 min
Histogram: 1 0 0 0 0 0 0 0 0 0
Nghost:           1882 ave        1882 max        1882 min
Histogram: 1 0 0 0 0 0 0 0 0 0
Neighs:              0 ave           0 max           0 min
Histogram: 1 0 0 0 0 0 0 0 0 0
FullNghs:        48132 ave       48132 max       48132 min
Histogram: 1 0 0 0 0 0 0 0 0 0

Total # of neighbors = 48132
Ave neighs/atom = 92.030593
Neighbor list builds = 66
Dangerous builds = 0
Step 3: Compression 1.0 bar -> 5000.0 bar (2000 steps)
Setting up Verlet run ...
  Unit style    : metal
  Current step  : 1308
  Time step     : 0.001
Per MPI rank memory allocation (min/avg/max) = 128.5 | 128.5 | 128.5 Mbytes
   Step          CPU           S/CPU           Temp          Press          PotEng         KinEng         TotEng         Volume        Density          Fmax          Fnorm     
      1308   0              0              252.34719      774.72021     -2823.9448      17.026823     -2806.918       8482.5093      0.75411621     3.0691053      26.237423    
      1400   8.5826085      10.719346      251.35968      2912.0971     -2823.727       16.960192     -2806.7668      8482.8319      0.75408753     3.4346662      26.79174     
      1500   17.985014      10.635577      255.36531      3178.271      -2822.4407      17.230466     -2805.2103      8484.0287      0.75398115     3.9181076      27.573581    
      1600   27.284541      10.753235      257.30226      3134.2365     -2821.4491      17.36116      -2804.0879      8486.2585      0.75378304     3.6807883      29.558105    
      1700   36.625645      10.705371      274.41779      1132.6803     -2821.9402      18.51601      -2803.4242      8489.8135      0.7534674      3.8380418      26.98345     
      1800   45.973647      10.697474      286.92294     -730.37534     -2821.4591      19.35978      -2802.0993      8493.6872      0.75312377     2.9351736      29.217312    
      1900   55.316377      10.703509      297.08279      1492.0897     -2821.1466      20.045304     -2801.1013      8497.785       0.75276061     3.7094549      29.024978    
      2000   64.669419      10.691709      322.03211      2277.4559     -2821.2294      21.728729     -2799.5006      8502.3562      0.75235589     2.8879148      28.254518    
      2100   74.143446      10.555174      317.38318      741.10507     -2819.3221      21.415048     -2797.9071      8507.2875      0.75191978     3.6387786      30.204924    
      2200   83.687669      10.477543      328.30055     -653.80189     -2818.5017      22.151684     -2796.35        8512.5711      0.75145308     3.8095231      30.134177    
      2300   93.08038       10.646553      377.38549      109.56721     -2819.8512      25.463632     -2794.3876      8517.3898      0.75102794     3.7551741      30.393395    
      2400   102.45624      10.665683      377.5022       2518.8422     -2817.9878      25.471507     -2792.5163      8521.7338      0.75064511     4.1301886      32.321112    
      2500   111.81078      10.690001      398.05718      3158.1678     -2817.2645      26.858429     -2790.406       8525.9274      0.75027589     5.1762378      33.48968     
      2600   121.13512      10.724624      408.89214      1375.0617     -2815.465       27.589505     -2787.8755      8529.5455      0.74995763     6.7167534      33.120427    
      2700   130.50929      10.667611      420.01574      1104.4721     -2814.1176      28.340056     -2785.7775      8532.7467      0.74967627     4.0836137      33.751879    
      2800   139.9489       10.593654      470.44597      6171.7315     -2815.4568      31.742775     -2783.714       8534.81        0.74949504     4.6152762      34.38359     
      2900   149.29269      10.702295      461.01074      2482.3791     -2812.8602      31.106145     -2781.7541      8536.1409      0.74937818     3.8119402      36.614745    
      3000   158.68114      10.651382      480.53982      2186.7852     -2811.5504      32.423845     -2779.1266      8536.517       0.74934517     5.394255       36.913558    
      3100   168.16657      10.542487      517.27484      4833.5138     -2811.0379      34.902497     -2776.1354      8535.7347      0.74941385     5.3250504      37.313068    
      3200   177.60238      10.59793       525.0764       3363.3697     -2809.2016      35.428898     -2773.7727      8534.0754      0.74955956     6.4178254      38.481033    
      3300   187.08858      10.541628      542.62925      812.51501     -2807.5418      36.613255     -2770.9285      8530.9932      0.74983037     6.2500716      38.389529    
      3308   187.8446       10.581709      537.03273      1862.2994     -2806.2514      36.235636     -2770.0158      8530.7131      0.74985499     22.597763      50.266842    
Loop time of 187.845 on 1 procs for 2000 steps with 523 atoms

Performance: 0.920 ns/day, 26.090 hours/ns, 10.647 timesteps/s, 5.568 katom-step/s
99.9% CPU use with 1 MPI tasks x 1 OpenMP threads

MPI task timing breakdown:
Section |  min time  |  avg time  |  max time  |%varavg| %total
---------------------------------------------------------------
Pair    | 185.04     | 185.04     | 185.04     |   0.0 | 98.51
Neigh   | 0.17501    | 0.17501    | 0.17501    |   0.0 |  0.09
Comm    | 0.31989    | 0.31989    | 0.31989    |   0.0 |  0.17
Output  | 0.042141   | 0.042141   | 0.042141   |   0.0 |  0.02
Modify  | 1.9012     | 1.9012     | 1.9012     |   0.0 |  1.01
Other   |            | 0.3618     |            |       |  0.19

Nlocal:            523 ave         523 max         523 min
Histogram: 1 0 0 0 0 0 0 0 0 0
Nghost:           1828 ave        1828 max        1828 min
Histogram: 1 0 0 0 0 0 0 0 0 0
Neighs:              0 ave           0 max           0 min
Histogram: 1 0 0 0 0 0 0 0 0 0
FullNghs:        48346 ave       48346 max       48346 min
Histogram: 1 0 0 0 0 0 0 0 0 0

Total # of neighbors = 48346
Ave neighs/atom = 92.439771
Neighbor list builds = 226
Dangerous builds = 0
===========================================
Density after compression (5000 bar): 0.749854987330323 g/cm^3
===========================================
Step 4a: Hold at 5000 bar - high temp (1000 steps)
Setting up Verlet run ...
  Unit style    : metal
  Current step  : 3308
  Time step     : 0.001
Per MPI rank memory allocation (min/avg/max) = 128.4 | 128.4 | 128.4 Mbytes
   Step          CPU           S/CPU           Temp          Press          PotEng         KinEng         TotEng         Volume        Density          Fmax          Fnorm     
      3308   0              0              537.03273      1875.3687     -2806.2514      36.235636     -2770.0158      8530.7131      0.74985499     22.666896      50.323722    
      3400   8.7644627      10.49693       588.73669      3188.9015     -2807.9085      39.724299     -2768.1842      8530.0384      0.7499143      8.9623481      41.53736     
      3500   18.264877      10.525856      566.39457      381.3346      -2803.6235      38.216791     -2765.4067      8527.4713      0.75014005     7.5892642      40.62832     
      3600   28.061498      10.207601      574.36897      1920.5704     -2805.4396      38.754855     -2766.6847      8523.1644      0.75051911     7.4532838      41.701771    
      3700   37.833435      10.233386      577.29511      1682.3443     -2805.3742      38.952293     -2766.4219      8517.6003      0.75100939     8.0251466      43.734339    
      3800   47.455523      10.392754      557.55814      436.49175     -2804.4243      37.620564     -2766.8038      8510.2284      0.75165994     6.195337       40.385218    
      3900   57.317015      10.140453      562.47511      3749.6599     -2803.8736      37.95233      -2765.9213      8501.8319      0.75240229     7.3738954      45.257764    
      4000   67.003763      10.323382      587.70761      707.60139     -2805.4831      39.654863     -2765.8282      8492.0829      0.75326605     6.8786361      42.627806    
      4100   76.59267       10.428718      565.10249     -1085.5736     -2802.9741      38.12961      -2764.8444      8480.9135      0.75425811     10.390843      44.90748     
      4200   86.182835      10.42735       590.1439       1219.1413     -2804.5644      39.819249     -2764.7451      8467.9048      0.75541683     8.0138072      42.349069    
      4300   95.859735      10.333887      582.9483       4215.4729     -2804.1646      39.333735     -2764.8309      8453.537       0.75670074     9.2032815      45.693493    
      4308   96.673813      9.8270751      555.06205      547.44757     -2802.4354      37.452144     -2764.9832      8452.3269      0.75680908     9.7424581      46.442825    
Loop time of 96.6741 on 1 procs for 1000 steps with 523 atoms

Performance: 0.894 ns/day, 26.854 hours/ns, 10.344 timesteps/s, 5.410 katom-step/s
99.6% CPU use with 1 MPI tasks x 1 OpenMP threads

MPI task timing breakdown:
Section |  min time  |  avg time  |  max time  |%varavg| %total
---------------------------------------------------------------
Pair    | 95.021     | 95.021     | 95.021     |   0.0 | 98.29
Neigh   | 0.17829    | 0.17829    | 0.17829    |   0.0 |  0.18
Comm    | 0.25726    | 0.25726    | 0.25726    |   0.0 |  0.27
Output  | 0.022283   | 0.022283   | 0.022283   |   0.0 |  0.02
Modify  | 0.98502    | 0.98502    | 0.98502    |   0.0 |  1.02
Other   |            | 0.2099     |            |       |  0.22

Nlocal:            523 ave         523 max         523 min
Histogram: 1 0 0 0 0 0 0 0 0 0
Nghost:           1903 ave        1903 max        1903 min
Histogram: 1 0 0 0 0 0 0 0 0 0
Neighs:              0 ave           0 max           0 min
Histogram: 1 0 0 0 0 0 0 0 0 0
FullNghs:        48078 ave       48078 max       48078 min
Histogram: 1 0 0 0 0 0 0 0 0 0

Total # of neighbors = 48078
Ave neighs/atom = 91.927342
Neighbor list builds = 221
Dangerous builds = 0
Step 4b: Cool to 300K under 5000 bar pressure (2000 steps)
Setting up Verlet run ...
  Unit style    : metal
  Current step  : 4308
  Time step     : 0.001
Per MPI rank memory allocation (min/avg/max) = 128.8 | 128.8 | 128.8 Mbytes
   Step          CPU           S/CPU           Temp          Press          PotEng         KinEng         TotEng         Volume        Density          Fmax          Fnorm     
      4308   0              0              555.06205      568.13444     -2802.4354      37.452144     -2764.9832      8452.3269      0.75680908     9.7423478      46.441431    
      4400   9.1250616      10.082118      582.57713     -1700.6627     -2802.8844      39.30869      -2763.5757      8451.4378      0.7568887      5.7705931      41.85724     
      4500   18.871097      10.260583      582.31374      5119.1461     -2801.5263      39.290918     -2762.2354      8448.6634      0.75713725     7.9832463      48.265269    
      4600   28.816378      10.05502       632.09949      1505.8669     -2805.2893      42.650152     -2762.6391      8444.4592      0.7575142      8.2054749      42.996955    
      4700   38.631753      10.188099      595.61189      1118.7709     -2801.8778      40.188195     -2761.6896      8438.4832      0.75805066     7.2699686      46.704876    
      4800   48.449868      10.185255      583.21879      1899.1718     -2800.9455      39.351986     -2761.5935      8430.0786      0.75880642     6.1878135      45.054944    
      4900   58.108306      10.35364       638.49736      1763.1345     -2804.1161      43.08184      -2761.0342      8420.3028      0.75968738     8.7084929      45.563795    
      5000   68.098269      10.010047      645.14736      4391.0198     -2803.9804      43.530541     -2760.4498      8408.6865      0.76073686     11.433245      48.627456    
      5100   77.649919      10.469396      596.5111       2033.0809     -2801.2524      40.248868     -2761.0035      8395.716       0.76191212     9.107747       45.73004     
      5200   87.380432      10.276951      595.33557      2524.5095     -2801.8297      40.169551     -2761.6602      8381.0233      0.76324782     17.592585      50.987064    
      5300   97.288742      10.092538      631.96479      5679.221      -2805.1529      42.641063     -2762.5119      8365.1489      0.76469623     9.2128057      47.273849    
      5400   106.92258      10.380076      593.46346     -120.29624     -2803.2927      40.043232     -2763.2495      8347.9746      0.76626944     10.26702       46.666357    
      5500   116.2984       10.66574       606.0003       5786.6566     -2803.6896      40.88914      -2762.8005      8328.8679      0.76802728     20.12065       60.09422     
      5600   125.79794      10.526823      614.75954      4481.1081     -2804.5611      41.480159     -2763.0809      8308.6038      0.76990044     9.2272821      49.096627    
      5700   135.19267      10.644268      599.05798     -2116.1591     -2804.7001      40.420716     -2764.2794      8287.4484      0.77186577     9.3330809      47.286588    
      5800   144.59523      10.635402      629.89191      4191.41       -2806.9875      42.501198     -2764.4863      8264.8089      0.77398011     10.237989      46.079595    
      5900   154.16664      10.447781      580.06268     -794.52086     -2806.0116      39.139031     -2766.8726      8240.7725      0.77623764     11.216605      49.052159    
      6000   163.59446      10.606902      584.90077      2429.7617     -2808.5743      39.465475     -2769.1088      8215.1344      0.77866015     10.685329      47.987921    
      6100   173.08957      10.53174       608.376        5707.4216     -2811.2676      41.049438     -2770.2181      8188.1996      0.78122153     8.6394903      43.863692    
      6200   182.59763      10.517389      513.39705     -362.79547     -2803.9561      34.640848     -2769.3153      8160.0963      0.78391205     15.049833      49.985224    
      6300   192.07454      10.55197       630.8874       4003.4564     -2812.8545      42.568367     -2770.2861      8130.4874      0.78676682     5.1934137      40.194983    
      6308   192.84082      10.440054      537.09839      2171.2684     -2806.1101      36.240067     -2769.8701      8128.0793      0.78699992     8.2355338      44.762464    
Loop time of 192.841 on 1 procs for 2000 steps with 523 atoms

Performance: 0.896 ns/day, 26.783 hours/ns, 10.371 timesteps/s, 5.424 katom-step/s
99.9% CPU use with 1 MPI tasks x 1 OpenMP threads

MPI task timing breakdown:
Section |  min time  |  avg time  |  max time  |%varavg| %total
---------------------------------------------------------------
Pair    | 189.59     | 189.59     | 189.59     |   0.0 | 98.31
Neigh   | 0.35475    | 0.35475    | 0.35475    |   0.0 |  0.18
Comm    | 0.50527    | 0.50527    | 0.50527    |   0.0 |  0.26
Output  | 0.040794   | 0.040794   | 0.040794   |   0.0 |  0.02
Modify  | 1.937      | 1.937      | 1.937      |   0.0 |  1.00
Other   |            | 0.4171     |            |       |  0.22

Nlocal:            523 ave         523 max         523 min
Histogram: 1 0 0 0 0 0 0 0 0 0
Nghost:           1858 ave        1858 max        1858 min
Histogram: 1 0 0 0 0 0 0 0 0 0
Neighs:              0 ave           0 max           0 min
Histogram: 1 0 0 0 0 0 0 0 0 0
FullNghs:        49724 ave       49724 max       49724 min
Histogram: 1 0 0 0 0 0 0 0 0 0

Total # of neighbors = 49724
Ave neighs/atom = 95.07457
Neighbor list builds = 448
Dangerous builds = 0
Step 4c: Hold at 300K under 5000 bar - LOCK STRUCTURE (1000 steps)
Setting up Verlet run ...
  Unit style    : metal
  Current step  : 6308
  Time step     : 0.001
Per MPI rank memory allocation (min/avg/max) = 128.9 | 128.9 | 128.9 Mbytes
   Step          CPU           S/CPU           Temp          Press          PotEng         KinEng         TotEng         Volume        Density          Fmax          Fnorm     
      6308   0              0              537.09839      2114.526      -2806.1101      36.240067     -2769.8701      8128.0793      0.78699992     8.2418455      45.1139      
      6400   8.7780015      10.48074       528.71657     -1219.7373     -2804.6355      35.674514     -2768.961       8127.2452      0.78708069     6.6380759      43.826114    
      6500   18.350895      10.446162      556.78992     -1108.8685     -2805.8778      37.568729     -2768.3091      8123.89        0.78740576     8.4325003      46.472494    
      6600   27.836002      10.542844      616.67674      4349.6582     -2808.4567      41.60952      -2766.8471      8117.4258      0.7880328      6.5458435      43.700697    
      6700   37.374624      10.483695      592.69463     -237.83744     -2806.5184      39.991356     -2766.527       8108.7236      0.7888785      9.8025577      44.143925    
      6800   46.904957      10.492812      578.2223      -2559.4174     -2808.3153      39.014854     -2769.3005      8096.7514      0.79004497     9.7510608      42.932628    
      6900   56.407387      10.523625      586.16577      5297.7469     -2809.1843      39.55083      -2769.6335      8081.566       0.79152948     7.6732711      45.212051    
      7000   65.931061      10.500149      544.56852     -212.61805     -2806.4625      36.744105     -2769.7184      8064.6411      0.79319063     7.5116726      44.788819    
      7100   75.471768      10.481404      528.17213      234.90948     -2804.3212      35.637778     -2768.6834      8044.8207      0.79514485     16.682352      52.693716    
      7200   85.045687      10.445042      547.13055     -2010.7522     -2807.5276      36.916975     -2770.6106      8021.9184      0.79741496     6.3889385      40.885918    
      7300   94.591969      10.475284      502.72762      4322.0836     -2805.8907      33.920941     -2771.9697      7996.9373      0.79990595     8.2167311      42.453414    
      7308   95.356007      10.470688      553.25982      3577.0321     -2808.711       37.33054      -2771.3804      7994.8472      0.80011508     5.2525062      39.858772    
Loop time of 95.3562 on 1 procs for 1000 steps with 523 atoms

Performance: 0.906 ns/day, 26.488 hours/ns, 10.487 timesteps/s, 5.485 katom-step/s
100.0% CPU use with 1 MPI tasks x 1 OpenMP threads

MPI task timing breakdown:
Section |  min time  |  avg time  |  max time  |%varavg| %total
---------------------------------------------------------------
Pair    | 93.668     | 93.668     | 93.668     |   0.0 | 98.23
Neigh   | 0.21402    | 0.21402    | 0.21402    |   0.0 |  0.22
Comm    | 0.28691    | 0.28691    | 0.28691    |   0.0 |  0.30
Output  | 0.020663   | 0.020663   | 0.020663   |   0.0 |  0.02
Modify  | 0.94853    | 0.94853    | 0.94853    |   0.0 |  0.99
Other   |            | 0.218      |            |       |  0.23

Nlocal:            523 ave         523 max         523 min
Histogram: 1 0 0 0 0 0 0 0 0 0
Nghost:           1945 ave        1945 max        1945 min
Histogram: 1 0 0 0 0 0 0 0 0 0
Neighs:              0 ave           0 max           0 min
Histogram: 1 0 0 0 0 0 0 0 0 0
FullNghs:        49962 ave       49962 max       49962 min
Histogram: 1 0 0 0 0 0 0 0 0 0

Total # of neighbors = 49962
Ave neighs/atom = 95.529637
Neighbor list builds = 270
Dangerous builds = 0
Density after cooling at 5000 bar: 0.800115075317775 g/cm^3
Step 5: Slow pressure release 5000 bar -> 1.0 bar at 300K (4000 steps)
Setting up Verlet run ...
  Unit style    : metal
  Current step  : 7308
  Time step     : 0.001
Per MPI rank memory allocation (min/avg/max) = 129.3 | 129.3 | 129.3 Mbytes
   Step          CPU           S/CPU           Temp          Press          PotEng         KinEng         TotEng         Volume        Density          Fmax          Fnorm     
      7308   0              0              553.25982      3576.0032     -2808.711       37.33054      -2771.3804      7994.8472      0.80011508     5.2531621      39.862927    
      7400   8.8019499      10.452224      525.06125     -3235.9398     -2803.7009      35.427876     -2768.2731      7993.6194      0.80023797     7.1737169      39.866285    
      7500   18.391199      10.428345      555.15488      2976.4902     -2803.4751      37.458407     -2766.0167      7989.3834      0.80066226     15.47264       48.99432     
      7600   28.00159       10.405405      583.4739       5359.0422     -2805.6551      39.369199     -2766.2859      7984.0496      0.80119715     9.7759315      46.690118    
      7700   37.584463      10.435284      563.41383      2100.1645     -2804.3741      38.01567      -2766.3585      7977.6667      0.80183818     6.4601119      39.677597    
      7800   47.234808      10.362324      539.186        3397.2243     -2803.444       36.380926     -2767.0631      7969.6519      0.80264456     7.3378797      42.34114     
      7900   56.787612      10.46813       528.85678      79.76499      -2802.8344      35.683974     -2767.1504      7959.7902      0.80363899     11.575299      45.681516    
      8000   66.355849      10.451247      523.77926      3190.117      -2803.227       35.341375     -2767.8857      7948.1319      0.80481777     9.3928574      46.356407    
      8100   75.930632      10.444101      488.59046      5100.5032     -2800.5315      32.967053     -2767.5644      7934.864       0.80616351     7.3686371      46.147643    
      8200   85.471394      10.481343      531.9178      -1022.9226     -2804.8609      35.890513     -2768.9704      7920.1583      0.80766034     6.1585796      42.589581    
      8300   95.037592      10.453475      541.66864      4465.4027     -2805.1498      36.548439     -2768.6014      7903.9178      0.80931988     14.206902      49.830234    
      8400   104.91868      10.120346      512.78631     -2716.0876     -2803.2589      34.599639     -2768.6593      7886.7928      0.81107719     8.513078       45.314376    
      8500   114.63901      10.287709      477.97667     -751.69741     -2802.0522      32.2509       -2769.8013      7868.4108      0.81297202     7.162047       44.902544    
      8600   124.43666      10.206532      483.90948      562.31283     -2803.0659      32.65121      -2770.4146      7848.7074      0.8150129      7.8631545      45.21267     
      8700   134.05167      10.400408      499.24066      3603.8496     -2805.8796      33.685662     -2772.194       7827.5732      0.81721341     9.9199751      45.14573     
      8800   143.61756      10.453803      512.28971     -2139.0198     -2807.2008      34.566131     -2772.6347      7806.3489      0.81943529     6.718219       40.031537    
      8900   153.20889      10.426082      452.12663      785.48934     -2803.9191      30.5067       -2773.4124      7784.6171      0.82172285     6.8182874      45.985872    
      9000   162.82106      10.403485      426.41599      7.7613635     -2801.9522      28.771905     -2773.1803      7762.3374      0.82408139     6.8214831      44.036224    
      9100   172.66038      10.163299      471.73897      3034.7436     -2803.8968      31.830019     -2772.0668      7739.7605      0.82648524     11.940544      47.837942    
      9200   182.56219      10.09917       477.60395      355.81363     -2802.5504      32.225751     -2770.3246      7717.0052      0.82892231     15.530846      45.176282    
      9300   192.49756      10.065048      399.97929     -3210.208      -2795.7236      26.988121     -2768.7355      7694.3277      0.83136539     6.3407832      42.305739    
      9400   202.49597      10.001587      474.82678      755.85042     -2802.0437      32.038365     -2770.0054      7671.875       0.83379849     15.822627      49.787889    
      9500   212.47451      10.021514      484.8683       6555.3442     -2803.0211      32.715904     -2770.3052      7649.5864      0.83622792     7.6226369      44.399886    
      9600   222.51198      9.9626647      524.06931      6037.8749     -2806.9378      35.360946     -2771.5769      7628.693       0.83851818     9.0959878      43.217093    
      9700   232.49463      10.017378      495.73503     -515.28953     -2806.738       33.449124     -2773.2889      7608.3466      0.84076056     16.343021      51.71507     
      9800   242.41655      10.078696      451.75731     -787.22463     -2804.5845      30.481781     -2774.1027      7588.4535      0.84296461     8.7227188      42.487666    
      9900   252.35286      10.064102      499.57918      157.66589     -2808.1957      33.708503     -2774.4872      7569.0868      0.84512147     11.920003      41.27048     
     10000   262.38099      9.9719436      442.19109      5479.6545     -2804.4692      29.836312     -2774.6329      7550.9848      0.84714748     9.546535       46.941496    
     10100   272.34807      10.033034      461.80847      2339.0554     -2805.711       31.15997      -2774.551       7534.394       0.84901291     18.793105      53.268821    
     10200   282.36144      9.9866419      448.00819     -650.38798     -2806.1247      30.228813     -2775.8959      7519.0141      0.85074954     11.0258        42.573232    
     10300   292.34524      10.01623       436.48149      569.49731     -2807.083       29.451063     -2777.6319      7505.0068      0.85233737     8.423201       42.673282    
     10400   302.33125      10.014008      421.1901       2726.49       -2806.9097      28.419295     -2778.4904      7492.1261      0.85380273     7.4841909      42.275512    
     10500   312.32521      10.006042      449.99458      2730.4109     -2808.4162      30.362843     -2778.0534      7481.0475      0.85506712     13.293797      44.089944    
     10600   322.27053      10.054982      459.50742      2789.2555     -2809.1708      31.00471      -2778.1661      7471.556       0.85615336     8.027829       45.438384    
     10700   332.23671      10.033933      463.15282      5992.0495     -2810.6331      31.250679     -2779.3825      7463.0403      0.85713027     11.104175      46.56407     
     10800   342.22909      10.007634      487.16854     -3398.6254     -2811.171       32.87111      -2778.2998      7456.4727      0.85788522     6.5256209      39.826891    
     10900   352.21662      10.012478      441.55323      67.832939     -2809.2368      29.793273     -2779.4435      7451.2923      0.85848166     8.400199       44.023961    
     11000   362.21463      10.001999      444.8852       3581.6        -2811.3057      30.018093     -2781.2876      7447.2385      0.85894896     8.0715856      44.121157    
     11100   372.22031      9.9943215      423.60354      1257.1105     -2810.4366      28.582139     -2781.8545      7444.4613      0.85926939     7.7814325      41.535983    
     11200   382.20467      10.015664      426.2229       3065.3679     -2811.5613      28.758877     -2782.8025      7443.2858      0.8594051      6.5495106      38.181301    
     11300   392.22295      9.9817551      416.00235      3105.104      -2811.1736      28.069258     -2783.1043      7444.4134      0.85927493     13.395282      45.576624    
     11308   393.04383      9.7455566      416.4647      -562.7978      -2812.0438      28.100454     -2783.9434      7444.5964      0.8592538      9.2426771      40.253518    
Loop time of 393.044 on 1 procs for 4000 steps with 523 atoms

Performance: 0.879 ns/day, 27.295 hours/ns, 10.177 timesteps/s, 5.323 katom-step/s
99.9% CPU use with 1 MPI tasks x 1 OpenMP threads

MPI task timing breakdown:
Section |  min time  |  avg time  |  max time  |%varavg| %total
---------------------------------------------------------------
Pair    | 386.45     | 386.45     | 386.45     |   0.0 | 98.32
Neigh   | 0.79435    | 0.79435    | 0.79435    |   0.0 |  0.20
Comm    | 1.0638     | 1.0638     | 1.0638     |   0.0 |  0.27
Output  | 0.084175   | 0.084175   | 0.084175   |   0.0 |  0.02
Modify  | 3.8056     | 3.8056     | 3.8056     |   0.0 |  0.97
Other   |            | 0.8442     |            |       |  0.21

Nlocal:            523 ave         523 max         523 min
Histogram: 1 0 0 0 0 0 0 0 0 0
Nghost:           1986 ave        1986 max        1986 min
Histogram: 1 0 0 0 0 0 0 0 0 0
Neighs:              0 ave           0 max           0 min
Histogram: 1 0 0 0 0 0 0 0 0 0
FullNghs:        53582 ave       53582 max       53582 min
Histogram: 1 0 0 0 0 0 0 0 0 0

Total # of neighbors = 53582
Ave neighs/atom = 102.45124
Neighbor list builds = 992
Dangerous builds = 0
Density at 1.0 bar: 0.859253798336847 g/cm^3
Step 6: Final NPT equilibration at 300K (2000 steps)
Setting up Verlet run ...
  Unit style    : metal
  Current step  : 11308
  Time step     : 0.001
Per MPI rank memory allocation (min/avg/max) = 129.3 | 129.3 | 129.3 Mbytes
   Step          CPU           S/CPU           Temp          Press          PotEng         KinEng         TotEng         Volume        Density          Fmax          Fnorm     
     11308   0              0              416.4647      -540.41108     -2812.0438      28.100454     -2783.9434      7444.5964      0.8592538      9.2285897      40.271569    
     11400   9.2325906      9.9646959      409.92673     -534.19302     -2809.1953      27.659312     -2781.536       7445.2741      0.85917559     11.817178      44.648063    
     11500   19.277566      9.9552252      441.41087      4102.0198     -2811.8555      29.783667     -2782.0719      7447.3331      0.85893805     8.1525059      42.327243    
     11600   29.290885      9.986699       412.48881      654.84525     -2808.7148      27.832186     -2780.8826      7451.1614      0.85849673     11.768158      45.965236    
     11700   39.303231      9.9876686      457.51164      2208.8274     -2810.37        30.870047     -2779.5         7457.0237      0.85782183     10.11667       44.769337    
     11800   49.268966      10.034383      491.70576      8191.0048     -2812.3918      33.177254     -2779.2146      7465.094       0.85689447     8.3828242      44.199279    
     11900   59.276533      9.9924394      482.21614     -981.22928     -2798.7555      32.536953     -2766.2185      7475.3802      0.85571538     10.362279      45.902669    
     12000   69.32446       9.9523         519.29898      3714.9763     -2800.3634      35.039074     -2765.3243      7487.5995      0.8543189      10.10504       41.527835    
     12100   79.376255      9.9484726      517.2086       166.15867     -2801.1373      34.898027     -2766.2392      7502.3132      0.85264339     6.7986671      41.174681    
     12200   89.411535      9.964844       491.49551      4938.6065     -2799.4804      33.163067     -2766.3173      7519.2444      0.85072349     11.031582      48.578008    
     12300   99.420103      9.9914395      477.26463      2274.8063     -2798.4357      32.202856     -2766.2328      7538.5922      0.8485401      7.6339028      40.677878    
     12400   109.43233      9.9877861      540.0596      -645.43355     -2803.5273      36.439871     -2767.0875      7560.7666      0.84605148     6.9582928      38.072882    
     12500   119.42108      10.011263      504.97963      7639.6276     -2800.9829      34.072892     -2766.91        7584.6665      0.8433855      11.874463      44.059991    
     12600   129.4061       10.015         497.21712      1355.84       -2797.3649      33.549126     -2763.8157      7611.1506      0.84045083     10.975874      42.184898    
     12700   139.42196      9.9841651      549.45367      2492.38       -2800.2024      37.073724     -2763.1287      7639.8366      0.8372951      10.926255      41.406943    
     12800   149.34967      10.07282       551.74083      4610.8069     -2802.3514      37.228048     -2765.1234      7670.3187      0.83396766     7.4575268      43.056379    
     12900   159.28369      10.06642       491.94543      1489.9685     -2798.6464      33.193426     -2765.453       7703.0052      0.83042885     6.7849261      40.350913    
     13000   169.16717      10.117896      500.49111      3722.7438     -2801.0628      33.770035     -2767.2927      7737.1457      0.82676454     13.937445      49.810652    
     13100   179.02119      10.148137      492.35797      4134.6602     -2803.1942      33.221261     -2769.9729      7772.8084      0.82297124     13.473101      45.930067    
     13200   188.6328       10.404083      438.8378       1443.6761     -2800.6175      29.610052     -2771.0074      7809.6362      0.81909036     11.145323      44.993627    
     13300   198.26846      10.378126      466.80484      2956.9886     -2803.2065      31.497094     -2771.7094      7847.6423      0.81512352     7.4634253      40.790043    
     13308   199.05621      10.155375      491.08379      5272.6868     -2804.4125      33.135287     -2771.2772      7850.7137      0.81480461     7.9550818      42.290716    
Loop time of 199.056 on 1 procs for 2000 steps with 523 atoms

Performance: 0.868 ns/day, 27.647 hours/ns, 10.047 timesteps/s, 5.255 katom-step/s
100.2% CPU use with 1 MPI tasks x 1 OpenMP threads

MPI task timing breakdown:
Section |  min time  |  avg time  |  max time  |%varavg| %total
---------------------------------------------------------------
Pair    | 195.73     | 195.73     | 195.73     |   0.0 | 98.33
Neigh   | 0.40531    | 0.40531    | 0.40531    |   0.0 |  0.20
Comm    | 0.54977    | 0.54977    | 0.54977    |   0.0 |  0.28
Output  | 0.044102   | 0.044102   | 0.044102   |   0.0 |  0.02
Modify  | 1.9066     | 1.9066     | 1.9066     |   0.0 |  0.96
Other   |            | 0.4245     |            |       |  0.21

Nlocal:            523 ave         523 max         523 min
Histogram: 1 0 0 0 0 0 0 0 0 0
Nghost:           1981 ave        1981 max        1981 min
Histogram: 1 0 0 0 0 0 0 0 0 0
Neighs:              0 ave           0 max           0 min
Histogram: 1 0 0 0 0 0 0 0 0 0
FullNghs:        50916 ave       50916 max       50916 min
Histogram: 1 0 0 0 0 0 0 0 0 0

Total # of neighbors = 50916
Ave neighs/atom = 97.353728
Neighbor list builds = 505
Dangerous builds = 0
Step 7: Final NVT relaxation to stabilize structure (1000 steps)
Setting up Verlet run ...
  Unit style    : metal
  Current step  : 13308
  Time step     : 0.001
Per MPI rank memory allocation (min/avg/max) = 129.1 | 129.1 | 129.1 Mbytes
   Step          CPU           S/CPU           Temp          Press          PotEng         KinEng         TotEng         Volume        Density          Fmax          Fnorm     
     13308   0              0              491.08379      5069.8387     -2804.4125      33.135287     -2771.2772      7850.7137      0.81480461     7.9507823      42.628276    
     13400   8.7822476      10.475673      485.34009      2914.2065     -2800.9898      32.747738     -2768.242       7850.7137      0.81480461     6.6119148      41.312727    
     13500   18.345118      10.457111      593.29141      1010.7991     -2807.4412      40.031623     -2767.4096      7850.7137      0.81480461     6.8090348      39.622599    
     13600   27.900979      10.464782      566.03385      2769.8778     -2803.7683      38.192452     -2765.5758      7850.7137      0.81480461     7.1441675      44.202059    
     13700   37.438039      10.485412      556.24499      2138.4251     -2798.5796      37.531961     -2761.0476      7850.7137      0.81480461     14.967704      49.386597    
     13800   47.005568      10.452019      542.27166      1422.9038     -2797.0446      36.589127     -2760.4555      7850.7137      0.81480461     6.4934172      41.16286     
     13900   56.775232      10.235766      501.36088     -2681.4275     -2793.9886      33.828721     -2760.1599      7850.7137      0.81480461     7.8642731      42.469735    
     14000   66.646861      10.130032      563.48077      6412.1756     -2796.843       38.020186     -2758.8228      7850.7137      0.81480461     22.31523       53.177877    
     14100   76.416249      10.236065      557.41809      1902.9722     -2797.0228      37.611114     -2759.4116      7850.7137      0.81480461     6.0399483      41.80481     
     14200   85.951377      10.487536      584.26353      3260.9646     -2798.541       39.422478     -2759.1186      7850.7137      0.81480461     8.2943573      44.98883     
     14300   95.494343      10.478922      541.87613     -776.75344     -2795.278       36.562439     -2758.7156      7850.7137      0.81480461     7.6924258      42.686812    
     14308   96.274342      10.256427      621.85855      2317.2596     -2800.2509      41.959157     -2758.2917      7850.7137      0.81480461     16.539007      51.784205    
Loop time of 96.2746 on 1 procs for 1000 steps with 523 atoms

Performance: 0.897 ns/day, 26.743 hours/ns, 10.387 timesteps/s, 5.432 katom-step/s
99.9% CPU use with 1 MPI tasks x 1 OpenMP threads

MPI task timing breakdown:
Section |  min time  |  avg time  |  max time  |%varavg| %total
---------------------------------------------------------------
Pair    | 95.059     | 95.059     | 95.059     |   0.0 | 98.74
Neigh   | 0.2286     | 0.2286     | 0.2286     |   0.0 |  0.24
Comm    | 0.32375    | 0.32375    | 0.32375    |   0.0 |  0.34
Output  | 0.022087   | 0.022087   | 0.022087   |   0.0 |  0.02
Modify  | 0.43854    | 0.43854    | 0.43854    |   0.0 |  0.46
Other   |            | 0.2029     |            |       |  0.21

Nlocal:            523 ave         523 max         523 min
Histogram: 1 0 0 0 0 0 0 0 0 0
Nghost:           1952 ave        1952 max        1952 min
Histogram: 1 0 0 0 0 0 0 0 0 0
Neighs:              0 ave           0 max           0 min
Histogram: 1 0 0 0 0 0 0 0 0 0
FullNghs:        50844 ave       50844 max       50844 min
Histogram: 1 0 0 0 0 0 0 0 0 0

Total # of neighbors = 50844
Ave neighs/atom = 97.216061
Neighbor list builds = 293
Dangerous builds = 0
System init for write_data ...
WARNING: No fixes with time integration, atoms won't move
For more information see https://docs.lammps.org/err0028 (src/verlet.cpp:60)
Setting up Verlet run ...
  Unit style    : metal
  Current step  : 14308
  Time step     : 0.001
Per MPI rank memory allocation (min/avg/max) = 124.7 | 124.7 | 124.7 Mbytes
   Step          CPU           S/CPU           Temp          Press          PotEng         KinEng         TotEng         Volume        Density          Fmax          Fnorm     
     14308   0              0              621.85855      2325.604      -2800.2509      41.959157     -2758.2917      7850.7137      0.81480461     16.524039      51.77606     
GPU information: NVIDIA RTX A6000, 8, 6, 45, 84, 300, 2100
Loop time of 0.000100223 on 1 procs for 0 steps with 523 atoms

0.0% CPU use with 1 MPI tasks x 1 OpenMP threads

MPI task timing breakdown:
Section |  min time  |  avg time  |  max time  |%varavg| %total
---------------------------------------------------------------
Pair    | 0          | 0          | 0          |   0.0 |  0.00
Neigh   | 0          | 0          | 0          |   0.0 |  0.00
Comm    | 0          | 0          | 0          |   0.0 |  0.00
Output  | 0          | 0          | 0          |   0.0 |  0.00
Modify  | 0          | 0          | 0          |   0.0 |  0.00
Other   |            | 0.0001002  |            |       |100.00

Nlocal:            523 ave         523 max         523 min
Histogram: 1 0 0 0 0 0 0 0 0 0
Nghost:           1952 ave        1952 max        1952 min
Histogram: 1 0 0 0 0 0 0 0 0 0
Neighs:              0 ave           0 max           0 min
Histogram: 1 0 0 0 0 0 0 0 0 0
FullNghs:        50844 ave       50844 max       50844 min
Histogram: 1 0 0 0 0 0 0 0 0 0

Total # of neighbors = 50844
Ave neighs/atom = 97.216061
Neighbor list builds = 0
Dangerous builds = 0
System init for write_restart ...
===========================================
OPTIMIZED Melt-Quench Complete!
===========================================
Density Summary (Target: 1.10 g/cm^3):
  Initial density:     0.761960427262085 g/cm^3
  After compression:   0.749854987330323 g/cm^3
  After cooling (5kbar): 0.800115075317775 g/cm^3
  After release (1bar):  0.859253798336847 g/cm^3
  Final density:       0.814804614804469 g/cm^3
  Target:              1.1 g/cm^3
  Relative error:      25.9268531995937%%
===========================================
Output files:
  - densified_pdms.lmpdat     (LAMMPS data format)
  - densified_pdms.xyz        (XYZ format)
  - densified_pdms.restart    (restart file)
  - full_trajectory.xyz       (complete XYZ trajectory)
  - full_trajectory.lammpstrj (complete LAMMPS trajectory)
  - trajectory.xyz            (MD XYZ trajectory)
  - trajectory.lammpstrj      (MD LAMMPS trajectory)
  - trajectory.dcd            (MD DCD trajectory)
  - melt_quench_log.lammps    (LAMMPS log file)
===========================================
Total: ~15,000 steps (High Performance)
Strategy: 500K Peak, 0.5 GPa (5000 bar) Compression, Slow Release
===========================================
Total wall time: 0:24:11
 
[SUCCESS] Workflow completed at: 2026/04/10 周五 16:54:32.15 
Final density should be checked in melt_quench_log.lammps 
