 DBCSR| CPU Multiplication driver                                           BLAS (U)
 DBCSR| Multrec recursion limit                                              512 (U)
 DBCSR| Multiplication stack size                                           1000 (D)
 DBCSR| Maximum elements for images                                    UNLIMITED (U)
 DBCSR| Multiplicative factor virtual images                                   1 (U)
 DBCSR| Use multiplication densification                                       T (D)
 DBCSR| Multiplication size stacks                                             3 (U)
 DBCSR| Use memory pool for CPU allocation                                     F (U)
 DBCSR| Number of 3D layers                                               SINGLE (U)
 DBCSR| Use MPI memory allocation                                              F (U)
 DBCSR| Use RMA algorithm                                                      F (U)
 DBCSR| Use Communication thread                                               T (U)
 DBCSR| Communication thread load                                             87 (D)
 DBCSR| MPI: My process id                                                     0
 DBCSR| MPI: Number of processes                                             192
 DBCSR| OMP: Current number of threads                                         1
 DBCSR| OMP: Max number of threads                                             1
 DBCSR| Split modifier for TAS multiplication algorithm                  1.0E+00 (U)


  **** **** ******  **  PROGRAM STARTED AT               2026-02-28 11:48:05.489
 ***** ** ***  *** **   PROGRAM STARTED ON                                 n0505
 **    ****   ******    PROGRAM STARTED BY                             baihaiyan
 ***** **    ** ** **   PROGRAM PROCESS ID                                279254
  **** **  *******  **  PROGRAM STARTED IN /project/baihaiyan/cp2k/cp2k_GeoOpt_T
                                           askScript20260224_field

 CP2K| version string:                                       CP2K version 2025.2
 CP2K| source code revision number:                                  git:3158929
 CP2K| cp2kflags: omp libint fftw3 libxc libgrpp elpa parallel scalapack mpi_f08
 CP2K|             cosma xsmm spglib sirius libvori libbqb libvdwxc hdf5
 CP2K| is freely available from                            https://www.cp2k.org/
 CP2K| Program compiled at                       Tue Dec 30 07:58:23 PM CST 2025
 CP2K| Program compiled on                                               swarm02
 CP2K| Program compiled for                                                local
 CP2K| Data directory path              /project/baihaiyan/cp2k/cp2k-2025.2/data
 CP2K| Input file name                                               geo_opt.inp

 GLOBAL| Force Environment number                                              1
 GLOBAL| Basis set file name                                    BASIS_MOLOPT_UZH
 GLOBAL| Potential file name                                       POTENTIAL_UZH
 GLOBAL| MM Potential file name                                     MM_POTENTIAL
 GLOBAL| Coordinate file name                   silicone_water_box_optimized.xyz
 GLOBAL| Method name                                                        CP2K
 GLOBAL| Project name                                  silicone_water_50_geo_opt
 GLOBAL| Run type                                                        GEO_OPT
 GLOBAL| FFT library                                                       FFTW3
 GLOBAL| Diagonalization library                                            ELPA
 GLOBAL| Cholesky decomposition library                                ScaLAPACK
 GLOBAL| DGEMM library                                                      BLAS
 GLOBAL| Minimum number of eigenvectors for ELPA usage                        16
 GLOBAL| Orthonormality check for eigenvectors                          DISABLED
 GLOBAL| Matrix multiplication library                                     COSMA
 GLOBAL| All-to-all communication in single precision                          F
 GLOBAL| FFTs using library dependent lengths                                  F
 GLOBAL| Grid backend                                                       AUTO
 GLOBAL| Global print level                                               MEDIUM
 GLOBAL| MPI I/O enabled                                                       T
 GLOBAL| Total number of message passing processes                           192
 GLOBAL| Number of threads for this process                                    1
 GLOBAL| This output is from process                                           0
 GLOBAL| OpenMP stack size per thread (OMP_STACKSIZE)                    default
 GLOBAL| CPU model name                          AMD EPYC 9A14 96-Core Processor
 GLOBAL| CPUID                                                              1003
 GLOBAL| Compiled for CPUID                                                 1002

 *** HINT in environment.F:955 :: The compiler target flags (x86_avx2)     ***
 *** used to build this binary cannot exploit all extensions of this CPU   ***
 *** model (x86_avx512). Consider compiler target flags as part of FCFLAGS ***
 *** and CFLAGS (ARCH file).                                               ***


 MEMORY| system memory details [Kb]
 MEMORY|                        rank 0           min           max       average
 MEMORY| MemTotal            791724152     791724152     791724152     791724152
 MEMORY| MemFree             764171256     764156640     764171256     764169363
 MEMORY| Buffers                108360        108360        108360        108360
 MEMORY| Cached                2949756       2949624       2949756       2949734
 MEMORY| Slab                  1654760       1654756       1654760       1654759
 MEMORY| SReclaimable           522932        522932        522932        522932
 MEMORY| MemLikelyFree       767752304     767737556     767752304     767750389


 *** Fundamental physical constants (SI units) ***

 *** Literature: B. J. Mohr and B. N. Taylor,
 ***             CODATA recommended values of the fundamental physical
 ***             constants: 2006, Web Version 5.1
 ***             http://physics.nist.gov/constants

 Speed of light in vacuum [m/s]                             2.99792458000000E+08
 Magnetic constant or permeability of vacuum [N/A**2]       1.25663706143592E-06
 Electric constant or permittivity of vacuum [F/m]          8.85418781762039E-12
 Planck constant (h) [J*s]                                  6.62606896000000E-34
 Planck constant (h-bar) [J*s]                              1.05457162825177E-34
 Elementary charge [C]                                      1.60217648700000E-19
 Electron mass [kg]                                         9.10938215000000E-31
 Electron g factor [ ]                                     -2.00231930436220E+00
 Proton mass [kg]                                           1.67262163700000E-27
 Fine-structure constant                                    7.29735253760000E-03
 Rydberg constant [1/m]                                     1.09737315685270E+07
 Avogadro constant [1/mol]                                  6.02214179000000E+23
 Boltzmann constant [J/K]                                   1.38065040000000E-23
 Atomic mass unit [kg]                                      1.66053878200000E-27
 Bohr radius [m]                                            5.29177208590000E-11

 *** Conversion factors ***

 [u] -> [a.u.]                                              1.82288848426455E+03
 [Angstrom] -> [Bohr] = [a.u.]                              1.88972613288564E+00
 [a.u.] = [Bohr] -> [Angstrom]                              5.29177208590000E-01
 [a.u.] -> [s]                                              2.41888432650478E-17
 [a.u.] -> [fs]                                             2.41888432650478E-02
 [a.u.] -> [J]                                              4.35974393937059E-18
 [a.u.] -> [N]                                              8.23872205491840E-08
 [a.u.] -> [K]                                              3.15774647902944E+05
 [a.u.] -> [kJ/mol]                                         2.62549961709828E+03
 [a.u.] -> [kcal/mol]                                       6.27509468713739E+02
 [a.u.] -> [Pa]                                             2.94210107994716E+13
 [a.u.] -> [bar]                                            2.94210107994716E+08
 [a.u.] -> [atm]                                            2.90362800883016E+08
 [a.u.] -> [eV]                                             2.72113838565563E+01
 [a.u.] -> [Hz]                                             6.57968392072181E+15
 [a.u.] -> [1/cm] (wave numbers)                            2.19474631370540E+05
 [a.u./Bohr**2] -> [1/cm]                                   5.14048714338585E+03
 

 CELL_TOP| Volume [angstrom^3]:                                     19456.517818
 CELL_TOP| Vector a [angstrom    22.000     0.000     0.000   |a| =    22.000000
 CELL_TOP| Vector b [angstrom     0.000    19.080     0.000   |b| =    19.079963
 CELL_TOP| Vector c [angstrom     0.000     0.000    46.352   |c| =    46.351620
 CELL_TOP| Angle (b,c), alpha [degree]:                                90.000000
 CELL_TOP| Angle (a,c), beta  [degree]:                                90.000000
 CELL_TOP| Angle (a,b), gamma [degree]:                                90.000000
 CELL_TOP| Numerically orthorhombic:                                         YES
 CELL_TOP| Periodicity                                                       XYZ

 GENERATE|  Preliminary Number of Bonds generated:                             0
 GENERATE|  Achieved consistency in connectivity generation.

 CELL| Volume [angstrom^3]:                                         19456.517818
 CELL| Vector a [angstrom]:      22.000     0.000     0.000   |a| =    22.000000
 CELL| Vector b [angstrom]:       0.000    19.080     0.000   |b| =    19.079963
 CELL| Vector c [angstrom]:       0.000     0.000    46.352   |c| =    46.351620
 CELL| Angle (b,c), alpha [degree]:                                    90.000000
 CELL| Angle (a,c), beta  [degree]:                                    90.000000
 CELL| Angle (a,b), gamma [degree]:                                    90.000000
 CELL| Numerically orthorhombic:                                             YES
 CELL| Periodicity                                                           XYZ

 CELL_REF| Volume [angstrom^3]:                                     19456.517818
 CELL_REF| Vector a [angstrom    22.000     0.000     0.000   |a| =    22.000000
 CELL_REF| Vector b [angstrom     0.000    19.080     0.000   |b| =    19.079963
 CELL_REF| Vector c [angstrom     0.000     0.000    46.352   |c| =    46.351620
 CELL_REF| Angle (b,c), alpha [degree]:                                90.000000
 CELL_REF| Angle (a,c), beta  [degree]:                                90.000000
 CELL_REF| Angle (a,b), gamma [degree]:                                90.000000
 CELL_REF| Numerically orthorhombic:                                         YES
 CELL_REF| Periodicity                                                       XYZ

 *******************************************************************************
 *******************************************************************************
 **                                                                           **
 **     #####                         ##              ##                      **
 **    ##   ##            ##          ##              ##                      **
 **   ##     ##                       ##            ######                    **
 **   ##     ##  ##   ##  ##   #####  ##  ##   ####   ##    #####    #####    **
 **   ##     ##  ##   ##  ##  ##      ## ##   ##      ##   ##   ##  ##   ##   **
 **   ##  ## ##  ##   ##  ##  ##      ####     ###    ##   ######   ######    **
 **    ##  ###   ##   ##  ##  ##      ## ##      ##   ##   ##       ##        **
 **     #######   #####   ##   #####  ##  ##  ####    ##    #####   ##        **
 **           ##                                                    ##        **
 **                                                                           **
 **                                                ... make the atoms dance   **
 **                                                                           **
 **            Copyright (C) by CP2K developers group (2000-2025)             **
 **                      J. Chem. Phys. 152, 194103 (2020)                    **
 **                                                                           **
 *******************************************************************************

 DFT| Spin restricted Kohn-Sham (RKS) calculation                            RKS
 DFT| Multiplicity                                                             1
 DFT| Number of spin states                                                    1
 DFT| Charge                                                                   0
 DFT| Self-interaction correction (SIC)                                       NO
 DFT| Cutoffs: density                                              1.000000E-10
 DFT|          gradient                                             1.000000E-10
 DFT|          tau                                                  1.000000E-10
 DFT|          cutoff_smoothing_range                               0.000000E+00
 DFT| XC density smoothing                                                  NONE
 DFT| XC derivatives                                                          PW

 FUNCTIONAL| MGGA_X_R2SCAN:
 FUNCTIONAL| [1] J. W. Furness, A. D. Kaplan, J. Ning, J. P. Perdew, and J. Sun.
 FUNCTIONAL| ,  J. Phys. Chem. Lett. 11, 8208-8215 (2020), doi: 10.1021/acs.jpcl
 FUNCTIONAL| ett.0c02405                                                        
 FUNCTIONAL| Optional external parameters:                                      
 FUNCTIONAL|  * c1 parameter                                                    
 FUNCTIONAL|  * c2 parameter                                                    
 FUNCTIONAL|  * d parameter                                                     
 FUNCTIONAL|  * k1 parameter                                                    
 FUNCTIONAL|  * eta parameter                                                   
 FUNCTIONAL|  * dp2 parameter                                                   
 FUNCTIONAL| {scale=1.000, spin-unpolarized}                                    
 FUNCTIONAL| MGGA_C_R2SCAN:
 FUNCTIONAL| [1] J. W. Furness, A. D. Kaplan, J. Ning, J. P. Perdew, and J. Sun.
 FUNCTIONAL| ,  J. Phys. Chem. Lett. 11, 8208-8215 (2020), doi: 10.1021/acs.jpcl
 FUNCTIONAL| ett.0c02405                                                        
 FUNCTIONAL| Optional external parameters:                                      
 FUNCTIONAL|  * Regularization parameter                                        
 FUNCTIONAL| {scale=1.000, spin-unpolarized}                                    

 PERIODIC_EFIELD| Use displacement field formulation
 PERIODIC_EFIELD| Displacement field filter: x                      1.000000E+00
 PERIODIC_EFIELD|                            y                      1.000000E+00
 PERIODIC_EFIELD|                            z                      1.000000E+00
 PERIODIC_EFIELD| Polarisation vector:       x                      0.000000E+00
 PERIODIC_EFIELD|                            y                      0.000000E+00
 PERIODIC_EFIELD|                            z                      1.000000E+00
 PERIODIC_EFIELD| Start Frame:                                                 0
 PERIODIC_EFIELD| End Frame:                                                  -1
 PERIODIC_EFIELD| Intensity [a.u.]:                                 7.000000E-03

 vdW POTENTIAL|                                             Non-local Functional
 vdW POTENTIAL| Implementation: G. Roman-Perez, J. Soler, PRL 103: 096102 (2009)
 vdW POTENTIAL|                       T. Thonhauser et al, PRB 76: 125112 (2007)
 vdW POTENTIAL|       R. Sabatini et al, J.Phys:Condens Matter 24: 424209 (2012)
 vdW POTENTIAL| Based on QE implementation by Brian Kolb, Timo Thonhauser (2009)
 vdW POTENTIAL| RVV10 Functional:    R. Sabatini et al, PRB 87: 041108(R) (2013)

 QS| Method:                                                                 GPW
 QS| Density plane wave grid type                        NON-SPHERICAL FULLSPACE
 QS| Number of grid levels:                                                    5
 QS| Density cutoff [a.u.]:                                                300.0
 QS| Multi grid cutoff [a.u.]: 1) grid level                               300.0
 QS|                           2) grid level                               100.0
 QS|                           3) grid level                                33.3
 QS|                           4) grid level                                11.1
 QS|                           5) grid level                                 3.7
 QS| Grid level progression factor:                                          3.0
 QS| Relative density cutoff [a.u.]:                                        30.0
 QS| Interaction thresholds: eps_pgf_orb:                                1.0E-06
 QS|                         eps_filter_matrix:                          0.0E+00
 QS|                         eps_core_charge:                            1.0E-14
 QS|                         eps_rho_gspace:                             1.0E-12
 QS|                         eps_rho_rspace:                             1.0E-12
 QS|                         eps_gvg_rspace:                             1.0E-06
 QS|                         eps_ppl:                                    1.0E-02
 QS|                         eps_ppnl:                                   1.0E-08


 ATOMIC KIND INFORMATION

  1. Atomic kind: Si                                    Number of atoms:      54

     Orbital Basis Set                                   TZVP-MOLOPT-MGGA-GTH-q4

       Number of orbital shell sets:                                           1
       Number of orbital shells:                                               7
       Number of primitive Cartesian functions:                                4
       Number of Cartesian basis functions:                                   18
       Number of spherical basis functions:                                   17
       Norm type:                                                              2

       Normalised Cartesian orbitals:

                        Set   Shell   Orbital            Exponent    Coefficient

                          1       1    2s                1.216446      -0.038800
                                                         0.423729       0.012286
                                                         0.168790      -0.118260
                                                         0.049081      -0.032419

                          1       2    3s                1.216446      -1.082535
                                                         0.423729       0.416470
                                                         0.168790       0.158843
                                                         0.049081      -0.074133

                          1       3    4s                1.216446      -0.718969
                                                         0.423729       0.062528
                                                         0.168790      -0.100256
                                                         0.049081       0.065253

                          1       4    3px               1.216446       0.165950
                                                         0.423729      -0.266417
                                                         0.168790      -0.084079
                                                         0.049081      -0.001268
                          1       4    3py               1.216446       0.165950
                                                         0.423729      -0.266417
                                                         0.168790      -0.084079
                                                         0.049081      -0.001268
                          1       4    3pz               1.216446       0.165950
                                                         0.423729      -0.266417
                                                         0.168790      -0.084079
                                                         0.049081      -0.001268

                          1       5    4px               1.216446       0.199186
                                                         0.423729      -0.338029
                                                         0.168790       0.102334
                                                         0.049081       0.023456
                          1       5    4py               1.216446       0.199186
                                                         0.423729      -0.338029
                                                         0.168790       0.102334
                                                         0.049081       0.023456
                          1       5    4pz               1.216446       0.199186
                                                         0.423729      -0.338029
                                                         0.168790       0.102334
                                                         0.049081       0.023456

                          1       6    5px               1.216446      -1.660648
                                                         0.423729       0.095224
                                                         0.168790      -0.061358
                                                         0.049081       0.023083
                          1       6    5py               1.216446      -1.660648
                                                         0.423729       0.095224
                                                         0.168790      -0.061358
                                                         0.049081       0.023083
                          1       6    5pz               1.216446      -1.660648
                                                         0.423729       0.095224
                                                         0.168790      -0.061358
                                                         0.049081       0.023083

                          1       7    4dx2              1.216446       0.430800
                                                         0.423729       0.205344
                                                         0.168790       0.028687
                                                         0.049081       0.000332
                          1       7    4dxy              1.216446       0.746167
                                                         0.423729       0.355666
                                                         0.168790       0.049687
                                                         0.049081       0.000576
                          1       7    4dxz              1.216446       0.746167
                                                         0.423729       0.355666
                                                         0.168790       0.049687
                                                         0.049081       0.000576
                          1       7    4dy2              1.216446       0.430800
                                                         0.423729       0.205344
                                                         0.168790       0.028687
                                                         0.049081       0.000332
                          1       7    4dyz              1.216446       0.746167
                                                         0.423729       0.355666
                                                         0.168790       0.049687
                                                         0.049081       0.000576
                          1       7    4dz2              1.216446       0.430800
                                                         0.423729       0.205344
                                                         0.168790       0.028687
                                                         0.049081       0.000332

       Atomic covalent radius [Angstrom]:                                  1.110

       Atomic van der Waals radius [Angstrom]:                             2.100

     GTH Potential information for                                   GTH-MGGA-q4

       Description:                       Goedecker-Teter-Hutter pseudopotential
                                           Goedecker et al., PRB 54, 1703 (1996)
                                          Hartwigsen et al., PRB 58, 3641 (1998)
                                                      Krack, TCA 114, 145 (2005)

       Gaussian exponent of the core charge distribution:               2.565716
       Electronic configuration (s p d ...):                       2   2   0   0

       Parameters of the local part of the GTH pseudopotential:

                          rloc        C1          C2          C3          C4
                        0.441449   -6.125207

       Parameters of the non-local part of the GTH pseudopotential:

                   l      r(l)      h(i,j,l)

                   0    0.435533    8.953533   -2.706271
                                   -2.706271    3.510709
                   1    0.495410    2.431366

  2. Atomic kind: O                                     Number of atoms:      95

     Orbital Basis Set                                   TZVP-MOLOPT-MGGA-GTH-q6

       Number of orbital shell sets:                                           1
       Number of orbital shells:                                               7
       Number of primitive Cartesian functions:                                5
       Number of Cartesian basis functions:                                   18
       Number of spherical basis functions:                                   17
       Norm type:                                                              2

       Normalised Cartesian orbitals:

                        Set   Shell   Orbital            Exponent    Coefficient

                          1       1    2s               10.257817      -0.419073
                                                         3.644287      -0.215759
                                                         1.402225       0.311285
                                                         0.522057       0.263821
                                                         0.168189       0.045116

                          1       2    3s               10.257817       0.362459
                                                         3.644287       0.180656
                                                         1.402225      -0.203664
                                                         0.522057      -0.159611
                                                         0.168189       0.244682

                          1       3    4s               10.257817      -2.413417
                                                         3.644287      -0.850901
                                                         1.402225       0.170654
                                                         0.522057      -0.131214
                                                         0.168189       0.003984

                          1       4    3px              10.257817      -1.672017
                                                         3.644287      -1.345385
                                                         1.402225      -0.751048
                                                         0.522057      -0.276645
                                                         0.168189      -0.033014
                          1       4    3py              10.257817      -1.672017
                                                         3.644287      -1.345385
                                                         1.402225      -0.751048
                                                         0.522057      -0.276645
                                                         0.168189      -0.033014
                          1       4    3pz              10.257817      -1.672017
                                                         3.644287      -1.345385
                                                         1.402225      -0.751048
                                                         0.522057      -0.276645
                                                         0.168189      -0.033014

                          1       5    4px              10.257817       1.559903
                                                         3.644287       0.989060
                                                         1.402225       0.672543
                                                         0.522057       0.141420
                                                         0.168189      -0.167208
                          1       5    4py              10.257817       1.559903
                                                         3.644287       0.989060
                                                         1.402225       0.672543
                                                         0.522057       0.141420
                                                         0.168189      -0.167208
                          1       5    4pz              10.257817       1.559903
                                                         3.644287       0.989060
                                                         1.402225       0.672543
                                                         0.522057       0.141420
                                                         0.168189      -0.167208

                          1       6    5px              10.257817       5.420840
                                                         3.644287       0.742781
                                                         1.402225       2.786765
                                                         0.522057      -0.733751
                                                         0.168189       0.023040
                          1       6    5py              10.257817       5.420840
                                                         3.644287       0.742781
                                                         1.402225       2.786765
                                                         0.522057      -0.733751
                                                         0.168189       0.023040
                          1       6    5pz              10.257817       5.420840
                                                         3.644287       0.742781
                                                         1.402225       2.786765
                                                         0.522057      -0.733751
                                                         0.168189       0.023040

                          1       7    4dx2             10.257817      -1.249026
                                                         3.644287       1.475740
                                                         1.402225       0.993741
                                                         0.522057       0.395456
                                                         0.168189      -0.006736
                          1       7    4dxy             10.257817      -2.163376
                                                         3.644287       2.556057
                                                         1.402225       1.721210
                                                         0.522057       0.684950
                                                         0.168189      -0.011667
                          1       7    4dxz             10.257817      -2.163376
                                                         3.644287       2.556057
                                                         1.402225       1.721210
                                                         0.522057       0.684950
                                                         0.168189      -0.011667
                          1       7    4dy2             10.257817      -1.249026
                                                         3.644287       1.475740
                                                         1.402225       0.993741
                                                         0.522057       0.395456
                                                         0.168189      -0.006736
                          1       7    4dyz             10.257817      -2.163376
                                                         3.644287       2.556057
                                                         1.402225       1.721210
                                                         0.522057       0.684950
                                                         0.168189      -0.011667
                          1       7    4dz2             10.257817      -1.249026
                                                         3.644287       1.475740
                                                         1.402225       0.993741
                                                         0.522057       0.395456
                                                         0.168189      -0.006736

       Atomic covalent radius [Angstrom]:                                  0.730

       Atomic van der Waals radius [Angstrom]:                             1.520

     GTH Potential information for                                   GTH-MGGA-q6

       Description:                       Goedecker-Teter-Hutter pseudopotential
                                           Goedecker et al., PRB 54, 1703 (1996)
                                          Hartwigsen et al., PRB 58, 3641 (1998)
                                                      Krack, TCA 114, 145 (2005)

       Gaussian exponent of the core charge distribution:               8.656553
       Electronic configuration (s p d ...):                       2   4   0   0

       Parameters of the local part of the GTH pseudopotential:

                          rloc        C1          C2          C3          C4
                        0.240333  -16.794986    2.452457

       Parameters of the non-local part of the GTH pseudopotential:

                   l      r(l)      h(i,j,l)

                   0    0.221500   18.441562

  3. Atomic kind: C                                     Number of atoms:     108

     Orbital Basis Set                                   TZVP-MOLOPT-MGGA-GTH-q4

       Number of orbital shell sets:                                           1
       Number of orbital shells:                                               7
       Number of primitive Cartesian functions:                                5
       Number of Cartesian basis functions:                                   18
       Number of spherical basis functions:                                   17
       Norm type:                                                              2

       Normalised Cartesian orbitals:

                        Set   Shell   Orbital            Exponent    Coefficient

                          1       1    2s                5.623460      -0.349209
                                                         2.098559      -0.253875
                                                         0.820511       0.248209
                                                         0.317331       0.216287
                                                         0.111116       0.012850

                          1       2    3s                5.623460       0.160090
                                                         2.098559       0.144150
                                                         0.820511      -0.103023
                                                         0.317331       0.001075
                                                         0.111116       0.142208

                          1       3    4s                5.623460      -1.207693
                                                         2.098559      -1.266789
                                                         0.820511       0.734368
                                                         0.317331      -0.329587
                                                         0.111116       0.046451

                          1       4    3px               5.623460      -0.717953
                                                         2.098559      -0.559659
                                                         0.820511      -0.405261
                                                         0.317331      -0.145150
                                                         0.111116      -0.020126
                          1       4    3py               5.623460      -0.717953
                                                         2.098559      -0.559659
                                                         0.820511      -0.405261
                                                         0.317331      -0.145150
                                                         0.111116      -0.020126
                          1       4    3pz               5.623460      -0.717953
                                                         2.098559      -0.559659
                                                         0.820511      -0.405261
                                                         0.317331      -0.145150
                                                         0.111116      -0.020126

                          1       5    4px               5.623460       0.831730
                                                         2.098559       0.877901
                                                         0.820511       0.415963
                                                         0.317331       0.032156
                                                         0.111116      -0.090730
                          1       5    4py               5.623460       0.831730
                                                         2.098559       0.877901
                                                         0.820511       0.415963
                                                         0.317331       0.032156
                                                         0.111116      -0.090730
                          1       5    4pz               5.623460       0.831730
                                                         2.098559       0.877901
                                                         0.820511       0.415963
                                                         0.317331       0.032156
                                                         0.111116      -0.090730

                          1       6    5px               5.623460       1.619151
                                                         2.098559       2.412091
                                                         0.820511       0.659876
                                                         0.317331      -0.314050
                                                         0.111116       0.028213
                          1       6    5py               5.623460       1.619151
                                                         2.098559       2.412091
                                                         0.820511       0.659876
                                                         0.317331      -0.314050
                                                         0.111116       0.028213
                          1       6    5pz               5.623460       1.619151
                                                         2.098559       2.412091
                                                         0.820511       0.659876
                                                         0.317331      -0.314050
                                                         0.111116       0.028213

                          1       7    4dx2              5.623460      -2.005729
                                                         2.098559       1.064556
                                                         0.820511       0.464044
                                                         0.317331       0.120863
                                                         0.111116       0.003311
                          1       7    4dxy              5.623460      -3.474025
                                                         2.098559       1.843865
                                                         0.820511       0.803748
                                                         0.317331       0.209340
                                                         0.111116       0.005735
                          1       7    4dxz              5.623460      -3.474025
                                                         2.098559       1.843865
                                                         0.820511       0.803748
                                                         0.317331       0.209340
                                                         0.111116       0.005735
                          1       7    4dy2              5.623460      -2.005729
                                                         2.098559       1.064556
                                                         0.820511       0.464044
                                                         0.317331       0.120863
                                                         0.111116       0.003311
                          1       7    4dyz              5.623460      -3.474025
                                                         2.098559       1.843865
                                                         0.820511       0.803748
                                                         0.317331       0.209340
                                                         0.111116       0.005735
                          1       7    4dz2              5.623460      -2.005729
                                                         2.098559       1.064556
                                                         0.820511       0.464044
                                                         0.317331       0.120863
                                                         0.111116       0.003311

       Atomic covalent radius [Angstrom]:                                  0.770

       Atomic van der Waals radius [Angstrom]:                             1.700

     GTH Potential information for                                   GTH-MGGA-q4

       Description:                       Goedecker-Teter-Hutter pseudopotential
                                           Goedecker et al., PRB 54, 1703 (1996)
                                          Hartwigsen et al., PRB 58, 3641 (1998)
                                                      Krack, TCA 114, 145 (2005)

       Gaussian exponent of the core charge distribution:               4.454624
       Electronic configuration (s p d ...):                       2   2   0   0

       Parameters of the local part of the GTH pseudopotential:

                          rloc        C1          C2          C3          C4
                        0.335027   -8.822616    1.299117

       Parameters of the non-local part of the GTH pseudopotential:

                   l      r(l)      h(i,j,l)

                   0    0.303798    9.625763

  4. Atomic kind: H                                     Number of atoms:     416

     Orbital Basis Set                                   TZVP-MOLOPT-MGGA-GTH-q1

       Number of orbital shell sets:                                           1
       Number of orbital shells:                                               4
       Number of primitive Cartesian functions:                                5
       Number of Cartesian basis functions:                                    6
       Number of spherical basis functions:                                    6
       Norm type:                                                              2

       Normalised Cartesian orbitals:

                        Set   Shell   Orbital            Exponent    Coefficient

                          1       1    2s                9.168765       0.095357
                                                         2.161194       0.125778
                                                         0.619868       0.162183
                                                         0.161316       0.074849
                                                         0.412255       0.090962

                          1       2    3s                9.168765      -0.435739
                                                         2.161194      -0.868971
                                                         0.619868      -0.406683
                                                         0.161316      -0.142964
                                                         0.412255       0.978336

                          1       3    4s                9.168765       0.385896
                                                         2.161194       1.113624
                                                         0.619868       0.043366
                                                         0.161316      -0.067676
                                                         0.412255       0.053421

                          1       4    3px               9.168765      -1.788640
                                                         2.161194       0.906920
                                                         0.619868       0.273605
                                                         0.161316       0.091389
                                                         0.412255       0.008094
                          1       4    3py               9.168765      -1.788640
                                                         2.161194       0.906920
                                                         0.619868       0.273605
                                                         0.161316       0.091389
                                                         0.412255       0.008094
                          1       4    3pz               9.168765      -1.788640
                                                         2.161194       0.906920
                                                         0.619868       0.273605
                                                         0.161316       0.091389
                                                         0.412255       0.008094

       Atomic covalent radius [Angstrom]:                                  0.320

       Atomic van der Waals radius [Angstrom]:                             1.090

     GTH Potential information for                                   GTH-MGGA-q1

       Description:                       Goedecker-Teter-Hutter pseudopotential
                                           Goedecker et al., PRB 54, 1703 (1996)
                                          Hartwigsen et al., PRB 58, 3641 (1998)
                                                      Krack, TCA 114, 145 (2005)

       Gaussian exponent of the core charge distribution:              12.429142
       Electronic configuration (s p d ...):                       1   0   0   0

       Parameters of the local part of the GTH pseudopotential:

                          rloc        C1          C2          C3          C4
                        0.200569   -4.177243    0.723816


 MOLECULE KIND INFORMATION


 All atoms are their own molecule, skipping detailed information


 TOTAL NUMBERS AND MAXIMUM NUMBERS

  Total number of            - Atomic kinds:                                   4
                             - Atoms:                                        673
                             - Shell sets:                                   673
                             - Shells:                                      3463
                             - Primitive Cartesian functions:               3311
                             - Cartesian basis functions:                   7122
                             - Spherical basis functions:                   6865

  Maximum angular momentum of- Orbital basis functions:                        2
                             - Local part of the GTH pseudopotential:          2
                             - Non-local part of the GTH pseudopotential:      2


 MODULE QUICKSTEP: ATOMIC COORDINATES IN ANGSTROM

   Atom Kind Element         X             Y             Z       Z(eff)     Mass
      1    1 Si   14      1.598758     11.549749     18.541400   4.0000  28.0855
      2    2 O     8     20.642489      9.994576      1.349144   6.0000  15.9994
      3    3 C     6      0.813185     13.223107     18.115924   4.0000  12.0107
      4    4 H     1      1.464913     13.988443     18.569353   1.0000   1.0079
      5    4 H     1      0.766945     13.448202     17.041314   1.0000   1.0079
      6    4 H     1     21.822705     13.358046     18.559764   1.0000   1.0079
      7    3 C     6      2.643155     13.292368      1.877750   4.0000  12.0107
      8    4 H     1      1.578007     13.511666      1.785243   1.0000   1.0079
      9    4 H     1      2.794688     12.518508      2.632588   1.0000   1.0079
     10    4 H     1      3.176828     14.200775      2.165469   1.0000   1.0079
     11    1 Si   14     21.152789      9.154004      2.674752   4.0000  28.0855
     12    2 O     8      0.671467      8.615680      2.707525   6.0000  15.9994
     13    3 C     6     19.953842      8.618671      1.436311   4.0000  12.0107
     14    4 H     1     18.873112      8.722310      1.546899   1.0000   1.0079
     15    4 H     1     18.782493      5.941219     17.106770   1.0000   1.0079
     16    4 H     1     20.239550      7.998054      0.585218   1.0000   1.0079
     17    3 C     6     20.660164      9.880401      4.306028   4.0000  12.0107
     18    4 H     1     19.576819      9.815751      4.444222   1.0000   1.0079
     19    4 H     1     21.162725      9.384039      5.143808   1.0000   1.0079
     20    4 H     1     20.930570     10.944147      4.320072   1.0000   1.0079
     21    1 Si   14      1.520892      7.177710      2.686408   4.0000  28.0855
     22    2 O     8      0.364675      5.966357      2.578604   6.0000  15.9994
     23    3 C     6      2.204208      6.958675      4.407063   4.0000  12.0107
     24    4 H     1      2.832207      6.061318      4.454813   1.0000   1.0079
     25    4 H     1      2.820626      7.821309      4.681810   1.0000   1.0079
     26    4 H     1      1.400193      6.853175      5.148017   1.0000   1.0079
     27    3 C     6      2.704625      7.190098      1.352662   4.0000  12.0107
     28    4 H     1      6.264451      9.286592     18.425447   1.0000   1.0079
     29    4 H     1      2.933365      8.083845      0.781241   1.0000   1.0079
     30    4 H     1      3.268360      6.303486      1.067141   1.0000   1.0079
     31    1 Si   14     21.629216      5.288031      1.251339   4.0000  28.0855
     32    2 O     8      0.247151      3.183818     16.932069   6.0000  15.9994
     33    3 C     6     19.513467      5.382474     17.697392   4.0000  12.0107
     34    4 H     1     20.470445      5.343610     17.175555   1.0000   1.0079
     35    4 H     1     19.158133      4.361172     17.843574   1.0000   1.0079
     36    4 H     1     19.641889      5.855943     18.672562   1.0000   1.0079
     37    3 C     6     20.195015      4.453879      2.181987   4.0000  12.0107
     38    4 H     1     19.442642      4.006393      1.524320   1.0000   1.0079
     39    4 H     1     20.611073      3.657074      2.817236   1.0000   1.0079
     40    4 H     1     19.715199      5.178663      2.854483   1.0000   1.0079
     41    1 Si   14      0.207668      1.661732     16.932078   4.0000  28.0855
     42    2 O     8      1.474471      0.727054     16.608994   6.0000  15.9994
     43    3 C     6     20.718739      0.650167     17.253218   4.0000  12.0107
     44    4 H     1     21.015477     18.714352     17.548809   1.0000   1.0079
     45    4 H     1     19.137005     16.959502      2.986214   1.0000   1.0079
     46    4 H     1     20.183673      1.118248     18.089253   1.0000   1.0079
     47    3 C     6      3.118077      1.417766      2.301333   4.0000  12.0107
     48    4 H     1      3.171086     19.420895      2.390634   1.0000   1.0079
     49    4 H     1      3.847728      1.943787      1.700137   1.0000   1.0079
     50    4 H     1      2.259980      1.948601      2.691089   1.0000   1.0079
     51    1 Si   14      3.153204      1.025422     16.596476   4.0000  28.0855
     52    3 C     6      3.521509      2.267738     17.929836   4.0000  12.0107
     53    4 H     1      4.587229      2.518172     17.943926   1.0000   1.0079
     54    4 H     1      2.945455      3.186767     17.777794   1.0000   1.0079
     55    4 H     1      3.260538      1.858153     18.914348   1.0000   1.0079
     56    3 C     6      3.919571     18.449470     16.989453   4.0000  12.0107
     57    4 H     1      3.615981     18.101637     17.984489   1.0000   1.0079
     58    4 H     1      3.613460     17.692274     16.258203   1.0000   1.0079
     59    4 H     1      5.016094     18.507480     16.973631   1.0000   1.0079
     60    1 Si   14      9.906681     17.402960      2.245417   4.0000  28.0855
     61    2 O     8      9.160747     16.689804      3.544630   6.0000  15.9994
     62    3 C     6      9.135895     16.488790      1.031109   4.0000  12.0107
     63    4 H     1      9.124085     16.407027     -0.044882   1.0000   1.0079
     64    4 H     1     11.718685     16.105372     18.398502   1.0000   1.0079
     65    4 H     1     12.396608     15.854893     18.223959   1.0000   1.0079
     66    3 C     6     10.976741     -0.215019      2.596314   4.0000  12.0107
     67    4 H     1     10.440574      0.709472      2.350864   1.0000   1.0079
     68    4 H     1     11.234413     -0.200155      3.659619   1.0000   1.0079
     69    4 H     1     11.895647     -0.244440      2.000335   1.0000   1.0079
     70    1 Si   14      8.242073     15.729450      2.439403   4.0000  28.0855
     71    2 O     8      8.494680     14.126950      2.773084   6.0000  15.9994
     72    3 C     6      7.411606     15.041180     18.706112   4.0000  12.0107
     73    4 H     1      6.787672     15.594120     17.996884   1.0000   1.0079
     74    4 H     1      7.217928     15.449856     19.701549   1.0000   1.0079
     75    4 H     1      8.458776     15.243863     18.460720   1.0000   1.0079
     76    3 C     6      6.442080     16.102169      2.682735   4.0000  12.0107
     77    4 H     1      5.825800     15.573127      1.945406   1.0000   1.0079
     78    4 H     1      6.116952     15.792441      3.684027   1.0000   1.0079
     79    4 H     1      6.251307     17.174107      2.572505   1.0000   1.0079
     80    1 Si   14      7.684707     12.817005      2.153041   4.0000  28.0855
     81    2 O     8      8.682936     11.535115      2.260249   6.0000  15.9994
     82    3 C     6      7.105938     13.542895     18.653199   4.0000  12.0107
     83    4 H     1      7.322075     13.122512     17.663371   1.0000   1.0079
     84    4 H     1      7.705366     12.988523     19.384318   1.0000   1.0079
     85    4 H     1      6.050103     13.349505     18.876107   1.0000   1.0079
     86    3 C     6      6.203259     12.427519      3.250321   4.0000  12.0107
     87    4 H     1      6.578417     12.201174      4.259850   1.0000   1.0079
     88    4 H     1      5.506344     13.266663      3.300860   1.0000   1.0079
     89    4 H     1      5.671095     11.555648      2.859974   1.0000   1.0079
     90    1 Si   14      9.868585     10.560303      2.849336   4.0000  28.0855
     91    2 O     8      9.358778      9.003384      2.572600   6.0000  15.9994
     92    3 C     6      9.982039     10.718337      4.697454   4.0000  12.0107
     93    4 H     1     10.859055     10.177593      5.076183   1.0000   1.0079
     94    4 H     1     10.060306     11.761710      5.023628   1.0000   1.0079
     95    4 H     1      9.088605     10.279303      5.157505   1.0000   1.0079
     96    3 C     6     11.465671     10.867329      1.956415   4.0000  12.0107
     97    4 H     1     11.240938     10.894086      0.877144   1.0000   1.0079
     98    4 H     1     11.818804     11.879003      2.210301   1.0000   1.0079
     99    1 Si   14      9.063440      8.112895      1.200352   4.0000  28.0855
    100    2 O     8     10.456937      6.823447     20.023935   6.0000  15.9994
    101    3 C     6      7.250534      8.857488     18.614495   4.0000  12.0107
    102    4 H     1      7.192655      7.768545     18.600866   1.0000   1.0079
    103    4 H     1      7.615863      9.175984     19.593087   1.0000   1.0079
    104    4 H     1      7.950474      9.191682     17.847086   1.0000   1.0079
    105    3 C     6      8.291513      6.601334      2.044035   4.0000  12.0107
    106    4 H     1      7.333602      6.908146      2.493234   1.0000   1.0079
    107    4 H     1      8.095864      5.767806      1.359755   1.0000   1.0079
    108    4 H     1      8.935167      6.256488      2.867142   1.0000   1.0079
    109    1 Si   14     11.124337      5.613436     19.357709   4.0000  28.0855
    110    3 C     6     10.401042      3.911957     19.401114   4.0000  12.0107
    111    4 H     1     10.539547      3.391450     18.446401   1.0000   1.0079
    112    4 H     1     10.907635      3.310276     20.167376   1.0000   1.0079
    113    4 H     1      9.336571      3.949919     19.645759   1.0000   1.0079
    114    3 C     6     12.696209      5.688880     18.416229   4.0000  12.0107
    115    4 H     1     13.955023      4.823301      0.958421   1.0000   1.0079
    116    4 H     1     12.670820      5.108333     17.481662   1.0000   1.0079
    117    4 H     1     12.962813      6.733359     18.216206   1.0000   1.0079
    118    1 Si   14     18.065796     16.107759      5.963102   4.0000  28.0855
    119    2 O     8     17.169091     15.298015      4.833535   6.0000  15.9994
    120    3 C     6     19.839466     15.605551      5.736072   4.0000  12.0107
    121    4 H     1     20.174367     15.946120      4.746866   1.0000   1.0079
    122    4 H     1     20.491450     16.046113      6.502405   1.0000   1.0079
    123    4 H     1     19.942111     14.512756      5.775906   1.0000   1.0079
    124    3 C     6     17.844856     17.950305      5.784415   4.0000  12.0107
    125    4 H     1     18.437014     -0.591290      6.532644   1.0000   1.0079
    126    4 H     1     18.189936     -0.828769      4.785766   1.0000   1.0079
    127    4 H     1     16.792179     -0.834140      5.900307   1.0000   1.0079
    128    1 Si   14     15.794467     15.331825      3.944685   4.0000  28.0855
    129    2 O     8     15.516159     13.788408      3.409926   6.0000  15.9994
    130    3 C     6     17.479365     15.571640      7.660954   4.0000  12.0107
    131    4 H     1     18.001957     16.125850      8.451405   1.0000   1.0079
    132    4 H     1     16.402476     15.736710      7.795007   1.0000   1.0079
    133    4 H     1     17.671633     14.504121      7.823125   1.0000   1.0079
    134    3 C     6     15.971110     16.474633      2.493579   4.0000  12.0107
    135    4 H     1     16.010354     17.522541      2.817697   1.0000   1.0079
    136    4 H     1     16.916243     16.275198      1.971929   1.0000   1.0079
    137    4 H     1     15.137854     16.357137      1.787448   1.0000   1.0079
    138    1 Si   14     16.043820     12.644589      2.343374   4.0000  28.0855
    139    2 O     8     14.968665     11.398394      2.571968   6.0000  15.9994
    140    3 C     6     15.074133     14.271200     18.247496   4.0000  12.0107
    141    4 H     1     14.109867     13.959874     18.627472   1.0000   1.0079
    142    4 H     1     15.802736     14.694316     18.926144   1.0000   1.0079
    143    4 H     1     15.334990     14.086223     17.212891   1.0000   1.0079
    144    3 C     6     17.748967     12.058653      2.866644   4.0000  12.0107
    145    4 H     1     17.666080     11.653702      3.885362   1.0000   1.0079
    146    4 H     1     18.149024     11.297249      2.190944   1.0000   1.0079
    147    4 H     1     18.432010     12.915686      2.876599   1.0000   1.0079
    148    1 Si   14     14.163128     10.021615      2.563856   4.0000  28.0855
    149    2 O     8     15.161656      8.811039      2.965512   6.0000  15.9994
    150    3 C     6     12.503500      9.815055      2.295766   4.0000  12.0107
    151    4 H     1     13.768902      9.641430     19.131396   1.0000   1.0079
    152    4 H     1     12.187092      8.769269      2.265480   1.0000   1.0079
    153    3 C     6     13.967150      9.690173     18.059644   4.0000  12.0107
    154    4 H     1     13.037383      9.503346     17.517677   1.0000   1.0079
    155    4 H     1     14.349194     10.679087     17.796694   1.0000   1.0079
    156    4 H     1     14.706445      8.931706     17.791782   1.0000   1.0079
    157    1 Si   14     15.117966      7.219293      3.362980   4.0000  28.0855
    158    2 O     8     14.421106      6.484565      2.064685   6.0000  15.9994
    159    3 C     6     14.085456      6.984413      4.897412   4.0000  12.0107
    160    4 H     1     13.084758      7.415830      4.764483   1.0000   1.0079
    161    4 H     1     13.961617      5.917617      5.130494   1.0000   1.0079
    162    4 H     1     14.547356      7.478520      5.763090   1.0000   1.0079
    163    3 C     6     16.865866      6.663161      3.627273   4.0000  12.0107
    164    4 H     1     16.933593      5.615877      3.949416   1.0000   1.0079
    165    4 H     1     17.449515      6.761381      2.703561   1.0000   1.0079
    166    4 H     1     17.354341      7.279243      4.392081   1.0000   1.0079
    167    1 Si   14     13.980428      4.941202     19.629531   4.0000  28.0855
    168    3 C     6     15.714965      5.332552     19.001512   4.0000  12.0107
    169    4 H     1     15.810780      4.974542     17.966027   1.0000   1.0079
    170    4 H     1     15.922934      6.406566     19.010372   1.0000   1.0079
    171    4 H     1     16.481290      4.834024     19.603130   1.0000   1.0079
    172    3 C     6     14.458687      5.059509      1.898575   4.0000  12.0107
    173    4 H     1     13.931547      4.545107      2.715461   1.0000   1.0079
    174    4 H     1     13.776260      3.465290     19.578403   1.0000   1.0079
    175    4 H     1     15.492340      4.690553      1.848180   1.0000   1.0079
    176    1 Si   14      3.945179     11.041027      7.194653   4.0000  28.0855
    177    2 O     8      4.804353      9.668414      7.534932   6.0000  15.9994
    178    3 C     6      5.076794     12.500246      7.434485   4.0000  12.0107
    179    4 H     1      5.919089     12.463037      6.732011   1.0000   1.0079
    180    4 H     1      4.559266     13.453444      7.269158   1.0000   1.0079
    181    4 H     1      5.489083     12.514372      8.451745   1.0000   1.0079
    182    3 C     6      3.279170     10.937875      5.467304   4.0000  12.0107
    183    4 H     1      2.527112     10.144461      5.374148   1.0000   1.0079
    184    4 H     1      2.810940     11.883255      5.164025   1.0000   1.0079
    185    4 H     1      4.078465     10.727492      4.744800   1.0000   1.0079
    186    1 Si   14      6.017344      8.657511      7.199141   4.0000  28.0855
    187    2 O     8      5.747610      7.352829      8.240704   6.0000  15.9994
    188    3 C     6      7.630818      9.392078      7.702646   4.0000  12.0107
    189    4 H     1      7.677689      9.529721      8.790086   1.0000   1.0079
    190    4 H     1      8.478732      8.770517      7.394695   1.0000   1.0079
    191    4 H     1      7.772962     10.377752      7.242619   1.0000   1.0079
    192    3 C     6      6.007415      7.989748      5.484328   4.0000  12.0107
    193    4 H     1      6.203103      8.783197      4.750992   1.0000   1.0079
    194    4 H     1      6.791689      7.231987      5.357735   1.0000   1.0079
    195    4 H     1      5.046949      7.526016      5.231478   1.0000   1.0079
    196    1 Si   14      5.726041      6.113245      9.185690   4.0000  28.0855
    197    2 O     8      5.130559      4.766496      8.697633   6.0000  15.9994
    198    3 C     6      6.110638      6.292499     10.952411   4.0000  12.0107
    199    4 H     1      6.874112      7.058377     11.129617   1.0000   1.0079
    200    4 H     1      5.195405      6.586885     11.491527   1.0000   1.0079
    201    4 H     1      6.435180      5.327210     11.359819   1.0000   1.0079
    202    3 C     6      8.587891      5.608515      8.524983   4.0000  12.0107
    203    4 H     1      7.700660      5.115488      8.091712   1.0000   1.0079
    204    4 H     1      8.505697      6.706782      8.525364   1.0000   1.0079
    205    4 H     1      8.714307      5.234388      9.549072   1.0000   1.0079
    206    1 Si   14      4.256328      3.613476      7.788302   4.0000  28.0855
    207    2 O     8      5.187259      3.316590      6.494389   6.0000  15.9994
    208    3 C     6      4.071694      2.127611      8.875004   4.0000  12.0107
    209    4 H     1      3.640647      2.386891      9.850102   1.0000   1.0079
    210    4 H     1      3.410988      1.390207      8.398714   1.0000   1.0079
    211    4 H     1      5.048645      1.655206      9.048314   1.0000   1.0079
    212    3 C     6      2.694598      4.480815      7.341741   4.0000  12.0107
    213    4 H     1      2.114518      4.776041      8.225783   1.0000   1.0079
    214    4 H     1      2.910799      5.395120      6.775592   1.0000   1.0079
    215    4 H     1      2.058096      3.850460      6.708446   1.0000   1.0079
    216    1 Si   14      5.904788      2.011289      5.740673   4.0000  28.0855
    217    2 O     8      7.093037      1.452705      6.700914   6.0000  15.9994
    218    3 C     6      4.676246      0.648055      5.485154   4.0000  12.0107
    219    4 H     1      4.285023     19.349771      6.437847   1.0000   1.0079
    220    4 H     1      3.842080      0.977402      4.848729   1.0000   1.0079
    221    4 H     1      5.162192     18.885948      4.972908   1.0000   1.0079
    222    3 C     6      6.563979      2.655617      4.131085   4.0000  12.0107
    223    4 H     1      5.734685      2.954835      3.475874   1.0000   1.0079
    224    4 H     1      7.215205      3.527648      4.274499   1.0000   1.0079
    225    4 H     1      7.139227      1.879229      3.610617   1.0000   1.0079
    226    1 Si   14      8.123347      2.018756      7.916776   4.0000  28.0855
    227    3 C     6      8.414539     19.563309      8.996291   4.0000  12.0107
    228    4 H     1      8.679285     18.709430      8.353086   1.0000   1.0079
    229    4 H     1      9.240435     19.735464      9.702215   1.0000   1.0079
    230    4 H     1      7.530876     19.290493      9.585993   1.0000   1.0079
    231    3 C     6      9.811992      2.251848      6.998928   4.0000  12.0107
    232    4 H     1      9.590178      2.492138      5.947284   1.0000   1.0079
    233    4 H     1     10.355638      1.290201      6.989231   1.0000   1.0079
    234    1 Si   14     13.822292     15.817751      5.119038   4.0000  28.0855
    235    2 O     8     13.509758     14.638908      6.244489   6.0000  15.9994
    236    3 C     6     13.840618     17.481782      5.998137   4.0000  12.0107
    237    4 H     1     14.131337     18.287481      5.309716   1.0000   1.0079
    238    4 H     1     12.845563     17.724147      6.397841   1.0000   1.0079
    239    4 H     1     14.549901     17.481906      6.835332   1.0000   1.0079
    240    3 C     6     12.458998     15.831229      3.834308   4.0000  12.0107
    241    4 H     1     12.385720     14.863770      3.324432   1.0000   1.0079
    242    4 H     1     11.478301     16.054008      4.274119   1.0000   1.0079
    243    4 H     1     12.687828     16.586663      3.069319   1.0000   1.0079
    244    1 Si   14     12.394064     14.122339      7.330906   4.0000  28.0855
    245    2 O     8     12.705544     12.524418      7.599937   6.0000  15.9994
    246    3 C     6     12.619797     15.058741      8.916142   4.0000  12.0107
    247    4 H     1     13.637460     14.921973      9.303513   1.0000   1.0079
    248    4 H     1     12.457857     16.133812      8.768204   1.0000   1.0079
    249    4 H     1     11.913766     14.718281      9.682594   1.0000   1.0079
    250    3 C     6     10.677623     14.280011      6.654422   4.0000  12.0107
    251    4 H     1      9.962163     13.720419      7.269843   1.0000   1.0079
    252    4 H     1     10.345442     15.325100      6.621811   1.0000   1.0079
    253    4 H     1     10.622882     13.891341      5.631037   1.0000   1.0079
    254    1 Si   14     14.061130     11.591220      7.525040   4.0000  28.0855
    255    2 O     8     13.638021     10.134458      8.174906   6.0000  15.9994
    256    3 C     6     15.410760     12.344821      8.546343   4.0000  12.0107
    257    4 H     1     16.323279     11.738030      8.505537   1.0000   1.0079
    258    4 H     1     15.656144     13.342935      8.164761   1.0000   1.0079
    259    4 H     1     15.116992     12.447502      9.598661   1.0000   1.0079
    260    3 C     6     14.559061     11.284433      5.778919   4.0000  12.0107
    261    4 H     1     13.717529     10.841859      5.225555   1.0000   1.0079
    262    4 H     1     14.833092     12.217163      5.272869   1.0000   1.0079
    263    4 H     1     15.409638     10.592919      5.716060   1.0000   1.0079
    264    1 Si   14     12.636316      9.403605      9.212192   4.0000  28.0855
    265    2 O     8     13.025059      7.771883      9.070181   6.0000  15.9994
    266    3 C     6     10.879666      9.610526      8.684337   4.0000  12.0107
    267    4 H     1     10.573660     10.661709      8.749800   1.0000   1.0079
    268    4 H     1     10.765524      9.303759      7.638013   1.0000   1.0079
    269    4 H     1     10.188289      9.018008      9.295965   1.0000   1.0079
    270    3 C     6     12.962681      9.887173     10.962733   4.0000  12.0107
    271    4 H     1     12.772650     10.958354     11.111943   1.0000   1.0079
    272    4 H     1     12.324579      9.344839     11.673476   1.0000   1.0079
    273    4 H     1     14.011457      9.691283     11.222041   1.0000   1.0079
    274    1 Si   14     12.322882      6.344894      9.071496   4.0000  28.0855
    275    2 O     8     11.307993      6.102709      7.857783   6.0000  15.9994
    276    3 C     6     11.717004      5.806351     10.709420   4.0000  12.0107
    277    4 H     1     12.503134      5.892805     11.469626   1.0000   1.0079
    278    4 H     1     10.892508      6.452151     11.039620   1.0000   1.0079
    279    4 H     1     11.352505      4.772605     10.714569   1.0000   1.0079
    280    3 C     6     13.943019      5.107532      8.677899   4.0000  12.0107
    281    4 H     1     13.212949      4.298981      8.572251   1.0000   1.0079
    282    4 H     1     14.194905      5.728367      7.812809   1.0000   1.0079
    283    4 H     1     14.302318      5.411410      9.665201   1.0000   1.0079
    284    1 Si   14     10.028881      5.096716      7.415963   4.0000  28.0855
    285    3 C     6     10.692415      3.360231      7.625110   4.0000  12.0107
    286    4 H     1     10.845737      3.161792      8.702148   1.0000   1.0079
    287    4 H     1     11.700364      3.368769      7.162013   1.0000   1.0079
    288    3 C     6      9.667838      5.517952      5.649088   4.0000  12.0107
    289    4 H     1      9.467813      6.591747      5.529366   1.0000   1.0079
    290    4 H     1     10.529660      5.272081      5.013767   1.0000   1.0079
    291    4 H     1      8.799681      4.967050      5.265397   1.0000   1.0079
    292    1 Si   14      0.847142     14.414310     10.707046   4.0000  28.0855
    293    2 O     8      0.551627     12.756234     10.494617   6.0000  15.9994
    294    3 C     6     21.246983     15.307393     10.398985   4.0000  12.0107
    295    4 H     1     21.371271     16.383676     10.576963   1.0000   1.0079
    296    4 H     1     20.897255     15.181031      9.366627   1.0000   1.0079
    297    4 H     1     20.460402     14.953029     11.075968   1.0000   1.0079
    298    3 C     6      2.161980     14.880554      9.475133   4.0000  12.0107
    299    4 H     1      3.062689     14.266126      9.603778   1.0000   1.0079
    300    4 H     1      1.819034     14.771095      8.438266   1.0000   1.0079
    301    4 H     1      2.461351     15.929212      9.608747   1.0000   1.0079
    302    1 Si   14     -0.018006     11.542293      9.659105   4.0000  28.0855
    303    2 O     8     -0.053835     10.133181     10.302772   6.0000  15.9994
    304    3 C     6     21.081529     11.921542      8.111765   4.0000  12.0107
    305    4 H     1     20.965402     11.010707      7.515651   1.0000   1.0079
    306    4 H     1     20.080796     12.290242      8.372018   1.0000   1.0079
    307    4 H     1     21.587840     12.699153      7.527433   1.0000   1.0079
    308    3 C     6      2.520390     11.125365      8.414622   4.0000  12.0107
    309    4 H     1      1.903589     11.976681      8.080488   1.0000   1.0079
    310    4 H     1      2.880287     11.310484      9.434529   1.0000   1.0079
    311    4 H     1      1.967652     10.166631      8.395561   1.0000   1.0079
    312    1 Si   14     21.719468      8.400458      9.869068   4.0000  28.0855
    313    2 O     8     20.234203      8.613565      9.132228   6.0000  15.9994
    314    3 C     6      0.963724      7.671066      8.921111   4.0000  12.0107
    315    4 H     1      1.858709      7.276682      9.402857   1.0000   1.0079
    316    4 H     1     21.522560      7.917409     11.254347   1.0000   1.0079
    317    4 H     1      1.010060      7.712100      7.834232   1.0000   1.0079
    318    3 C     6     18.210381      9.680529     11.761675   4.0000  12.0107
    319    4 H     1     18.153232      8.730677     11.216161   1.0000   1.0079
    320    4 H     1     19.228894     10.064289     11.627047   1.0000   1.0079
    321    4 H     1     17.517031     10.387331     11.287222   1.0000   1.0079
    322    1 Si   14     19.141330      7.708162      8.321652   4.0000  28.0855
    323    2 O     8     18.390851      6.696862      9.398470   6.0000  15.9994
    324    3 C     6     17.832774      8.866513      7.692091   4.0000  12.0107
    325    4 H     1     18.246076      9.602266      6.990993   1.0000   1.0079
    326    4 H     1     17.025881      8.329893      7.177011   1.0000   1.0079
    327    4 H     1     17.385861      9.412598      8.531334   1.0000   1.0079
    328    3 C     6     19.917244      6.694254      6.974941   4.0000  12.0107
    329    4 H     1     20.292314      7.331046      6.163587   1.0000   1.0079
    330    4 H     1     20.774846      6.132979      7.367842   1.0000   1.0079
    331    4 H     1     19.201170      5.989092      6.532184   1.0000   1.0079
    332    1 Si   14     18.088356      5.197846      9.930089   4.0000  28.0855
    333    2 O     8     16.759100      4.639250      9.074145   6.0000  15.9994
    334    3 C     6     19.510601      4.061830      9.615572   4.0000  12.0107
    335    4 H     1     19.349147      3.067999     10.049691   1.0000   1.0079
    336    4 H     1     19.697385      3.942811      8.541861   1.0000   1.0079
    337    4 H     1     20.423455      4.481179     10.058056   1.0000   1.0079
    338    3 C     6     17.578061      5.293364     11.703257   4.0000  12.0107
    339    4 H     1     18.397577      5.682381     12.318556   1.0000   1.0079
    340    4 H     1     16.726181      5.975395     11.823451   1.0000   1.0079
    341    4 H     1     17.295308      4.313929     12.108500   1.0000   1.0079
    342    1 Si   14     15.504207      3.817778      8.516286   4.0000  28.0855
    343    3 C     6     15.634884      3.436191      6.713430   4.0000  12.0107
    344    4 H     1     15.899949      4.333852      6.140600   1.0000   1.0079
    345    4 H     1     16.422577      2.688556      6.544341   1.0000   1.0079
    346    4 H     1     14.697231      3.028862      6.312195   1.0000   1.0079
    347    3 C     6     15.019192      2.391760      9.587074   4.0000  12.0107
    348    4 H     1     14.830971      2.712500     10.618978   1.0000   1.0079
    349    4 H     1     14.118324      1.888809      9.214084   1.0000   1.0079
    350    4 H     1     15.824459      1.647033      9.613251   1.0000   1.0079
    351    1 Si   14      2.571063     11.320317     15.387463   4.0000  28.0855
    352    2 O     8      3.307456      9.874245     15.066094   6.0000  15.9994
    353    3 C     6      2.976806     11.541799     17.233021   4.0000  12.0107
    354    4 H     1      3.021833     12.936512      0.920531   1.0000   1.0079
    355    4 H     1      3.345910     12.587702     17.233626   1.0000   1.0079
    356    4 H     1      3.776992     10.845146     17.506939   1.0000   1.0079
    357    3 C     6      1.436951     14.604828     12.448361   4.0000  12.0107
    358    4 H     1      2.355371     14.033489     12.625587   1.0000   1.0079
    359    4 H     1      0.690478     14.249766     13.168782   1.0000   1.0079
    360    4 H     1      1.647556     15.658322     12.673384   1.0000   1.0079
    361    1 Si   14      4.456616      9.093797     14.165983   4.0000  28.0855
    362    2 O     8      4.155590      7.491098     14.220342   6.0000  15.9994
    363    3 C     6      6.122058      9.457995     14.913130   4.0000  12.0107
    364    4 H     1      6.217821     10.508805     15.216350   1.0000   1.0079
    365    4 H     1      6.285669      8.840303     15.804031   1.0000   1.0079
    366    4 H     1      6.940068      9.241614     14.215366   1.0000   1.0079
    367    3 C     6      4.320660      9.655588     12.398469   4.0000  12.0107
    368    4 H     1      4.469412     10.739776     12.318141   1.0000   1.0079
    369    4 H     1      5.069499      9.176403     11.754797   1.0000   1.0079
    370    4 H     1      3.324548      9.423905     11.997988   1.0000   1.0079
    371    1 Si   14      3.582450      6.300312     15.223460   4.0000  28.0855
    372    2 O     8      3.302216      5.036279     14.226366   6.0000  15.9994
    373    3 C     6      2.029476      6.840331     16.067064   4.0000  12.0107
    374    4 H     1      1.294943      7.230573     15.352732   1.0000   1.0079
    375    4 H     1      1.569613      5.996780     16.597192   1.0000   1.0079
    376    4 H     1      2.235993      7.630759     16.798004   1.0000   1.0079
    377    3 C     6      4.913425      5.827953     16.414789   4.0000  12.0107
    378    4 H     1      5.763715      5.384882     15.886085   1.0000   1.0079
    379    4 H     1      5.269991      6.693836     16.984107   1.0000   1.0079
    380    4 H     1      4.545338      5.084584     17.130039   1.0000   1.0079
    381    1 Si   14      2.271318      4.114790     13.358130   4.0000  28.0855
    382    2 O     8      2.668945      2.544809     13.660252   6.0000  15.9994
    383    3 C     6      2.569947      4.466199     11.553778   4.0000  12.0107
    384    4 H     1      3.632214      4.343520     11.309417   1.0000   1.0079
    385    4 H     1      1.997027      3.780286     10.916440   1.0000   1.0079
    386    4 H     1      2.265184      5.487507     11.292784   1.0000   1.0079
    387    3 C     6     22.502654      4.397423     13.814379   4.0000  12.0107
    388    4 H     1      0.341201      4.227807     14.885623   1.0000   1.0079
    389    4 H     1     22.186930      5.418838     13.566055   1.0000   1.0079
    390    4 H     1     21.856159      3.705721     13.258190   1.0000   1.0079
    391    1 Si   14      3.818646      1.640658     14.428419   4.0000  28.0855
    392    2 O     8      5.250320      2.451126     14.546672   6.0000  15.9994
    393    3 C     6      4.000511     19.175994     13.392699   4.0000  12.0107
    394    4 H     1      4.017909     19.425559     12.324936   1.0000   1.0079
    395    4 H     1      4.921649     18.631381     13.636063   1.0000   1.0079
    396    4 H     1      3.149130     18.503932     13.563422   1.0000   1.0079
    397    3 C     6      6.261843      2.389958     11.860248   4.0000  12.0107
    398    4 H     1      5.954985      1.373307     11.592191   1.0000   1.0079
    399    4 H     1      5.429626      3.065832     11.615574   1.0000   1.0079
    400    4 H     1      7.110831      2.645174     11.211627   1.0000   1.0079
    401    1 Si   14      6.683595      2.488240     13.696804   4.0000  28.0855
    402    3 C     6      7.797896      1.228569     14.306730   4.0000  12.0107
    403    4 H     1      7.903746     17.952376     12.718630   1.0000   1.0079
    404    4 H     1      8.811340      1.087361     13.934291   1.0000   1.0079
    405    4 H     1      7.544065     19.662301     15.146170   1.0000   1.0079
    406    3 C     6      7.555241      4.194178     13.908226   4.0000  12.0107
    407    4 H     1      7.848067      4.280203     14.962810   1.0000   1.0079
    408    4 H     1      6.890481      5.047815     13.695312   1.0000   1.0079
    409    1 Si   14      8.959056     16.947842     12.992828   4.0000  28.0855
    410    2 O     8      8.314144     15.445100     12.742766   6.0000  15.9994
    411    3 C     6     10.356642     17.161320     11.779048   4.0000  12.0107
    412    4 H     1     11.158391     16.434796     11.960101   1.0000   1.0079
    413    4 H     1     10.005571     17.030545     10.748062   1.0000   1.0079
    414    4 H     1     10.789586     18.166915     11.859887   1.0000   1.0079
    415    3 C     6      9.573400     17.089296     14.744776   4.0000  12.0107
    416    4 H     1     10.267978     16.269163     14.972404   1.0000   1.0079
    417    4 H     1     10.106312     18.034410     14.907269   1.0000   1.0079
    418    4 H     1      8.752115     17.047402     15.469935   1.0000   1.0079
    419    1 Si   14      7.327026     14.274230     13.308538   4.0000  28.0855
    420    2 O     8      8.237409     12.906478     13.391768   6.0000  15.9994
    421    3 C     6      6.696820     14.655666     15.003911   4.0000  12.0107
    422    4 H     1      6.142606     15.603122     15.017972   1.0000   1.0079
    423    4 H     1      6.022607     13.868512     15.364405   1.0000   1.0079
    424    4 H     1      7.523134     14.736326     15.719940   1.0000   1.0079
    425    3 C     6      5.942547     14.032019     12.086823   4.0000  12.0107
    426    4 H     1      6.333888     13.838769     11.079774   1.0000   1.0079
    427    4 H     1      5.303277     13.187410     12.373853   1.0000   1.0079
    428    4 H     1      5.313182     14.928592     12.029272   1.0000   1.0079
    429    1 Si   14      9.205243     12.060302     12.371403   4.0000  28.0855
    430    2 O     8     10.395211     11.396107     13.256029   6.0000  15.9994
    431    3 C     6     10.001323     13.175354     11.116553   4.0000  12.0107
    432    4 H     1     10.605200     13.933189     11.630808   1.0000   1.0079
    433    4 H     1     10.663591     12.606613     10.449668   1.0000   1.0079
    434    4 H     1      9.268435     13.710647     10.499762   1.0000   1.0079
    435    3 C     6      8.211892     10.714527     11.555203   4.0000  12.0107
    436    4 H     1      7.736021     10.075680     12.307990   1.0000   1.0079
    437    4 H     1      7.421330     11.130940     10.917296   1.0000   1.0079
    438    4 H     1      8.862979     10.085217     10.935694   1.0000   1.0079
    439    1 Si   14     11.082994     10.694133     14.562769   4.0000  28.0855
    440    2 O     8     10.942022      9.070613     14.286645   6.0000  15.9994
    441    3 C     6     10.171212     11.165629     16.101339   4.0000  12.0107
    442    4 H     1     10.609781     10.713178     16.999504   1.0000   1.0079
    443    4 H     1     10.176382     12.254280     16.236160   1.0000   1.0079
    444    4 H     1      9.123296     10.845644     16.036556   1.0000   1.0079
    445    3 C     6     12.872851     11.225946     14.542843   4.0000  12.0107
    446    4 H     1     13.462121     10.667690     15.283270   1.0000   1.0079
    447    4 H     1     13.268407     10.918256     13.562802   1.0000   1.0079
    448    1 Si   14     11.093104      7.566827     14.922323   4.0000  28.0855
    449    2 O     8     10.386639      6.494179     13.850328   6.0000  15.9994
    450    3 C     6     10.112550      7.420717     16.481598   4.0000  12.0107
    451    4 H     1     10.071794      6.370908     16.797941   1.0000   1.0079
    452    4 H     1     10.471870      8.009487     17.331478   1.0000   1.0079
    453    4 H     1      9.079923      7.724051     16.270568   1.0000   1.0079
    454    3 C     6     12.907940      7.189131     15.036911   4.0000  12.0107
    455    4 H     1     13.119368      6.171830     15.380857   1.0000   1.0079
    456    4 H     1     13.373843      7.323832     14.052001   1.0000   1.0079
    457    4 H     1     13.409463      7.878788     15.724778   1.0000   1.0079
    458    1 Si   14     10.401710      4.846868     13.668234   4.0000  28.0855
    459    3 C     6      8.791831      4.175963     12.960849   4.0000  12.0107
    460    4 H     1      9.055047      3.146507     12.672966   1.0000   1.0079
    461    4 H     1      8.566972      4.682873     12.011627   1.0000   1.0079
    462    3 C     6     10.923159      3.941234     15.226208   4.0000  12.0107
    463    4 H     1     10.394765      4.279398     16.123988   1.0000   1.0079
    464    4 H     1     10.716435      2.872678     15.104194   1.0000   1.0079
    465    4 H     1     11.995561      4.061208     15.398599   1.0000   1.0079
    466    1 Si   14     19.500366      0.530933     15.816987   4.0000  28.0855
    467    2 O     8     18.133965     -0.208473     16.349191   6.0000  15.9994
    468    3 C     6     20.299497     18.619268     14.458592   4.0000  12.0107
    469    4 H     1     19.580642     18.402179     13.659368   1.0000   1.0079
    470    4 H     1     21.144154      0.082844     14.016206   1.0000   1.0079
    471    4 H     1     20.681888     17.663356     14.836853   1.0000   1.0079
    472    3 C     6     19.043589      2.241713     15.251456   4.0000  12.0107
    473    4 H     1     18.437767      2.210226     14.338678   1.0000   1.0079
    474    4 H     1     18.459599      2.755579     16.019436   1.0000   1.0079
    475    4 H     1     19.931469      2.854917     15.058440   1.0000   1.0079
    476    1 Si   14     17.240888     17.524390     16.674429   4.0000  28.0855
    477    2 O     8     16.686771     16.895881     15.255450   6.0000  15.9994
    478    3 C     6     18.323509     16.248540     17.470366   4.0000  12.0107
    479    4 H     1     19.299450     16.181851     16.977244   1.0000   1.0079
    480    4 H     1     18.499086     16.483145     18.524465   1.0000   1.0079
    481    4 H     1     17.854624     15.259543     17.421729   1.0000   1.0079
    482    3 C     6     15.817459     18.036578     17.737627   4.0000  12.0107
    483    4 H     1     15.155676     17.182228     17.944099   1.0000   1.0079
    484    4 H     1     16.170208     -0.647768     18.698698   1.0000   1.0079
    485    4 H     1     15.224584     18.823486     17.255271   1.0000   1.0079
    486    1 Si   14     15.413733     16.468595     14.317429   4.0000  28.0855
    487    2 O     8     15.025435     14.904453     14.616575   6.0000  15.9994
    488    3 C     6     13.928102     17.507816     14.712878   4.0000  12.0107
    489    4 H     1     13.094388     17.272219     14.039419   1.0000   1.0079
    490    4 H     1     13.589341     17.318708     15.738633   1.0000   1.0079
    491    4 H     1     14.146165     -0.501119     14.620348   1.0000   1.0079
    492    3 C     6     15.960683     16.646015     12.550582   4.0000  12.0107
    493    4 H     1     16.862123     16.047648     12.367961   1.0000   1.0079
    494    4 H     1     15.185156     16.315857     11.847957   1.0000   1.0079
    495    4 H     1     16.204279     17.690863     12.320795   1.0000   1.0079
    496    1 Si   14     14.790506     13.326871     14.239134   4.0000  28.0855
    497    2 O     8     15.891532     12.445106     15.066845   6.0000  15.9994
    498    3 C     6     13.091866     12.753247     14.757861   4.0000  12.0107
    499    4 H     1     12.924737     13.017900     15.812242   1.0000   1.0079
    500    4 H     1     12.351078     13.331461     14.181011   1.0000   1.0079
    501    3 C     6     15.025946     13.076392     12.406839   4.0000  12.0107
    502    4 H     1     15.044922     12.007532     12.160136   1.0000   1.0079
    503    4 H     1     14.213657     13.540459     11.831864   1.0000   1.0079
    504    4 H     1     15.970102     13.512520     12.058918   1.0000   1.0079
    505    1 Si   14     17.527793     12.250943     15.160387   4.0000  28.0855
    506    2 O     8     17.966734     10.938072     14.292375   6.0000  15.9994
    507    3 C     6     18.380073     13.718017     14.398351   4.0000  12.0107
    508    4 H     1     19.469827     13.631816     14.501994   1.0000   1.0079
    509    4 H     1     18.155784     13.766830     13.324051   1.0000   1.0079
    510    4 H     1     18.065733     14.665445     14.852912   1.0000   1.0079
    511    3 C     6     17.971707     11.980220     16.934345   4.0000  12.0107
    512    4 H     1     19.047941     11.798339     17.045697   1.0000   1.0079
    513    4 H     1     17.695703     12.839239     17.556986   1.0000   1.0079
    514    4 H     1     17.438474     11.106198     17.329808   1.0000   1.0079
    515    1 Si   14     17.818755      9.469319     13.570119   4.0000  28.0855
    516    3 C     6     19.034814      8.312342     14.371801   4.0000  12.0107
    517    4 H     1     18.989786      7.304573     13.944059   1.0000   1.0079
    518    4 H     1     20.059834      8.682841     14.237355   1.0000   1.0079
    519    4 H     1     18.850358      8.223412     15.449794   1.0000   1.0079
    520    3 C     6     16.064343      8.866872     13.778251   4.0000  12.0107
    521    4 H     1     15.898591      7.924381     13.240741   1.0000   1.0079
    522    4 H     1     15.817879      8.696370     14.833786   1.0000   1.0079
    523    4 H     1     15.351543      9.608095     13.394246   1.0000   1.0079
    524    2 O     8      7.817453     18.092650     24.658130   6.0000  15.9994
    525    4 H     1      8.132394     17.856335     25.549172   1.0000   1.0079
    526    4 H     1      7.425587     18.982327     24.790018   1.0000   1.0079
    527    2 O     8      4.091253      1.191084     26.077635   6.0000  15.9994
    528    4 H     1      3.838850      0.534056     26.746767   1.0000   1.0079
    529    4 H     1      3.400119      1.102537     25.400854   1.0000   1.0079
    530    2 O     8      1.710722     18.485745     25.680431   6.0000  15.9994
    531    4 H     1     22.800480     18.440302     25.346216   1.0000   1.0079
    532    4 H     1      1.680319     18.426377     26.655097   1.0000   1.0079
    533    2 O     8      3.835198      5.700272     24.189467   6.0000  15.9994
    534    4 H     1      4.754425      5.496128     24.447441   1.0000   1.0079
    535    4 H     1      3.705584      6.566252     24.619112   1.0000   1.0079
    536    2 O     8     13.446068      2.650927     22.853488   6.0000  15.9994
    537    4 H     1     13.091274      1.750733     22.892146   1.0000   1.0079
    538    4 H     1     14.391872      2.541105     23.023616   1.0000   1.0079
    539    2 O     8     17.296159      3.776592     24.070772   6.0000  15.9994
    540    4 H     1     17.780202      3.582277     24.885044   1.0000   1.0079
    541    4 H     1     17.200584      4.740996     24.075507   1.0000   1.0079
    542    2 O     8      6.655178      1.593750     25.233645   6.0000  15.9994
    543    4 H     1      5.739212      1.465388     25.590887   1.0000   1.0079
    544    4 H     1      6.657965      2.487189     24.870446   1.0000   1.0079
    545    2 O     8     11.051086     -0.207277     27.344841   6.0000  15.9994
    546    4 H     1     10.457363      0.407118     26.882393   1.0000   1.0079
    547    4 H     1     11.616015      0.393256     27.888816   1.0000   1.0079
    548    2 O     8      6.845096      8.861753     24.595602   6.0000  15.9994
    549    4 H     1      6.592151      8.948472     23.665499   1.0000   1.0079
    550    4 H     1      7.084582      7.916069     24.679649   1.0000   1.0079
    551    2 O     8     17.053255     17.955204     26.524236   6.0000  15.9994
    552    4 H     1     17.750849     17.378181     26.190042   1.0000   1.0079
    553    4 H     1     17.156547     17.921784     27.496292   1.0000   1.0079
    554    2 O     8      2.692742      3.442405     23.113488   6.0000  15.9994
    555    4 H     1      1.997788      3.663965     22.478276   1.0000   1.0079
    556    4 H     1      3.020684      4.307515     23.464260   1.0000   1.0079
    557    2 O     8      6.293526     15.837290     23.241002   6.0000  15.9994
    558    4 H     1      5.511611     16.183371     22.787201   1.0000   1.0079
    559    4 H     1      6.698778     16.620902     23.658431   1.0000   1.0079
    560    2 O     8      3.183845     15.372139     21.633301   6.0000  15.9994
    561    4 H     1      3.024425     16.132733     22.228761   1.0000   1.0079
    562    4 H     1      3.517239     14.683278     22.223832   1.0000   1.0079
    563    2 O     8     15.453582     13.184299     26.846349   6.0000  15.9994
    564    4 H     1     14.832393     13.858933     26.520760   1.0000   1.0079
    565    4 H     1     14.916963     12.369924     26.941472   1.0000   1.0079
    566    2 O     8      2.878075     17.693195     23.290401   6.0000  15.9994
    567    4 H     1      2.654373     17.790793     24.237334   1.0000   1.0079
    568    4 H     1      3.359658     18.526072     23.071670   1.0000   1.0079
    569    2 O     8      6.427328      6.007995     25.387821   6.0000  15.9994
    570    4 H     1      6.727255      5.359077     26.060986   1.0000   1.0079
    571    4 H     1      5.765626      6.573180     25.850173   1.0000   1.0079
    572    2 O     8     17.347589     10.795056     26.466930   6.0000  15.9994
    573    4 H     1     16.682660     10.785204     27.174335   1.0000   1.0079
    574    4 H     1     17.312304     11.714091     26.155769   1.0000   1.0079
    575    2 O     8      9.409893      0.527551     21.828979   6.0000  15.9994
    576    4 H     1      8.738005      1.220579     21.882418   1.0000   1.0079
    577    4 H     1      9.105717     18.949913     22.477325   1.0000   1.0079
    578    2 O     8      4.155133      1.061565     22.793273   6.0000  15.9994
    579    4 H     1      3.704652      1.937486     22.874103   1.0000   1.0079
    580    4 H     1      4.993455      1.151327     23.273136   1.0000   1.0079
    581    2 O     8     12.042017     15.102368     26.461228   6.0000  15.9994
    582    4 H     1     11.170642     14.793422     26.765523   1.0000   1.0079
    583    4 H     1     11.920111     16.041005     26.257808   1.0000   1.0079
    584    2 O     8      4.504632      7.937657     25.883812   6.0000  15.9994
    585    4 H     1      5.163562      8.595120     25.576439   1.0000   1.0079
    586    4 H     1      4.006268      8.319447     26.649263   1.0000   1.0079
    587    2 O     8     12.039328      7.818139     22.207232   6.0000  15.9994
    588    4 H     1     11.440171      7.626585     21.450964   1.0000   1.0079
    589    4 H     1     12.520517      6.982723     22.300706   1.0000   1.0079
    590    2 O     8     20.656672      6.028359     24.399026   6.0000  15.9994
    591    4 H     1     21.625168      6.002107     24.369103   1.0000   1.0079
    592    4 H     1     20.446872      6.975407     24.368850   1.0000   1.0079
    593    2 O     8     22.128704     18.351447     22.734483   6.0000  15.9994
    594    4 H     1     23.065129     18.066642     22.712499   1.0000   1.0079
    595    4 H     1     22.164051      0.185311     22.417771   1.0000   1.0079
    596    2 O     8     19.977552      4.503960     21.957475   6.0000  15.9994
    597    4 H     1     19.222586      3.960249     22.230090   1.0000   1.0079
    598    4 H     1     20.150299      5.044265     22.750725   1.0000   1.0079
    599    2 O     8      2.687948     11.599752     27.613383   6.0000  15.9994
    600    4 H     1      3.009857     11.876086     26.743615   1.0000   1.0079
    601    4 H     1      1.796741     11.994484     27.669256   1.0000   1.0079
    602    2 O     8     14.543564     10.468656     27.226953   6.0000  15.9994
    603    4 H     1     13.658699     10.223249     27.536946   1.0000   1.0079
    604    4 H     1     14.621405     10.064098     26.346046   1.0000   1.0079
    605    2 O     8      4.721165      1.060989     29.932995   6.0000  15.9994
    606    4 H     1      4.192443      0.438908     29.395085   1.0000   1.0079
    607    4 H     1      5.581535      0.626959     30.083676   1.0000   1.0079
    608    2 O     8      1.581898     16.559713     29.804212   6.0000  15.9994
    609    4 H     1      0.651918     16.828565     29.893729   1.0000   1.0079
    610    4 H     1      1.537811     15.685558     29.379710   1.0000   1.0079
    611    2 O     8     10.084903     13.187363     27.420854   6.0000  15.9994
    612    4 H     1      9.215149     12.838675     27.171062   1.0000   1.0079
    613    4 H     1     10.703283     12.645627     26.906828   1.0000   1.0079
    614    2 O     8      0.183754      9.915425     28.925105   6.0000  15.9994
    615    4 H     1     21.303979      9.700252     28.527225   1.0000   1.0079
    616    4 H     1      0.081254      9.748733     29.875254   1.0000   1.0079
    617    2 O     8     19.960890      9.886657     27.408715   6.0000  15.9994
    618    4 H     1     18.986816      9.855089     27.417437   1.0000   1.0079
    619    4 H     1     20.118746     10.784029     27.073475   1.0000   1.0079
    620    2 O     8     19.307165     12.861494     29.101559   6.0000  15.9994
    621    4 H     1     19.575754     12.994010     30.021717   1.0000   1.0079
    622    4 H     1     18.416871     13.280189     29.064151   1.0000   1.0079
    623    2 O     8      7.996099     18.946676     30.280712   6.0000  15.9994
    624    4 H     1      8.810723      0.370091     30.431297   1.0000   1.0079
    625    4 H     1      8.171090     18.500488     29.421934   1.0000   1.0079
    626    2 O     8     16.010428      7.486828     29.934131   6.0000  15.9994
    627    4 H     1     15.325616      7.558415     30.615143   1.0000   1.0079
    628    4 H     1     15.588204      7.851683     29.143467   1.0000   1.0079
    629    2 O     8      5.133545      3.638167     28.910379   6.0000  15.9994
    630    4 H     1      4.996983      2.709912     29.216231   1.0000   1.0079
    631    4 H     1      5.150964      4.162400     29.724427   1.0000   1.0079
    632    2 O     8      3.051896      8.881355     28.004409   6.0000  15.9994
    633    4 H     1      2.142181      8.555661     28.095659   1.0000   1.0079
    634    4 H     1      2.908878      9.854571     27.914187   1.0000   1.0079
    635    2 O     8     16.685270     13.914054     29.224391   6.0000  15.9994
    636    4 H     1     16.169116     13.505530     29.931826   1.0000   1.0079
    637    4 H     1     16.200015     13.693121     28.394555   1.0000   1.0079
    638    2 O     8     19.919544      2.910738     29.610463   6.0000  15.9994
    639    4 H     1     19.346034      3.678227     29.753006   1.0000   1.0079
    640    4 H     1     20.200807      2.995851     28.686610   1.0000   1.0079
    641    2 O     8      9.896558      5.627635     27.103573   6.0000  15.9994
    642    4 H     1      9.608936      6.199814     26.378018   1.0000   1.0079
    643    4 H     1      9.071000      5.185371     27.371944   1.0000   1.0079
    644    2 O     8     19.068232     16.961287     30.963798   6.0000  15.9994
    645    4 H     1     19.439365     17.771655     30.521368   1.0000   1.0079
    646    4 H     1     18.771975     17.277109     31.832433   1.0000   1.0079
    647    2 O     8     12.479164      1.718409     28.716474   6.0000  15.9994
    648    4 H     1     13.435859      1.551074     28.645291   1.0000   1.0079
    649    4 H     1     12.352135      2.596345     28.315467   1.0000   1.0079
    650    2 O     8     16.923864     17.815646     29.360086   6.0000  15.9994
    651    4 H     1     17.614209     17.333467     29.872961   1.0000   1.0079
    652    4 H     1     16.181351     17.191343     29.332690   1.0000   1.0079
    653    2 O     8      2.567430     -0.331201     28.451721   6.0000  15.9994
    654    4 H     1      2.332117     17.914620     28.934611   1.0000   1.0079
    655    4 H     1      1.957843      0.318348     28.840435   1.0000   1.0079
    656    2 O     8     20.052493      0.000991     29.613379   6.0000  15.9994
    657    4 H     1     20.884068      0.240643     30.073282   1.0000   1.0079
    658    4 H     1     19.541852      0.834242     29.618755   1.0000   1.0079
    659    2 O     8      7.331484      4.103357     27.353198   6.0000  15.9994
    660    4 H     1      6.553599      3.929078     27.947848   1.0000   1.0079
    661    4 H     1      7.518504      3.234395     26.960567   1.0000   1.0079
    662    2 O     8      0.557096     19.217458     30.963686   6.0000  15.9994
    663    4 H     1      0.946899      0.988968     31.223082   1.0000   1.0079
    664    4 H     1      0.619950     -0.408597     31.761990   1.0000   1.0079
    665    2 O     8      8.682310     17.618639     27.746151   6.0000  15.9994
    666    4 H     1      9.649706     17.806718     27.718552   1.0000   1.0079
    667    4 H     1      8.587705     16.669384     27.872071   1.0000   1.0079
    668    2 O     8     21.937951     12.641672     28.004562   6.0000  15.9994
    669    4 H     1     21.039846     12.980034     28.198313   1.0000   1.0079
    670    4 H     1     21.939291     11.768186     28.455485   1.0000   1.0079
    671    2 O     8      7.758387      9.472818     29.998583   6.0000  15.9994
    672    4 H     1      6.979879      9.216497     29.486000   1.0000   1.0079
    673    4 H     1      7.393492     10.011108     30.714212   1.0000   1.0079



 SCF PARAMETERS         Density guess:                                    ATOMIC
                        --------------------------------------------------------
                        max_scf:                                             300
                        max_scf_history:                                       0
                        max_diis:                                              4
                        --------------------------------------------------------
                        eps_scf:                                        3.90E-04
                        eps_scf_history:                                0.00E+00
                        eps_diis:                                       0.00E+00
                        eps_eigval:                                     1.00E-05
                        --------------------------------------------------------
                        level_shift [a.u.]:                             0.000000
                        --------------------------------------------------------
                        Outer loop SCF in use 
                        No variables optimised in outer loop
                        eps_scf                                         3.90E-04
                        max_scf                                               50
                        No outer loop optimization
                        step_size                                       5.00E-01

 PW_GRID| Information for grid number                                          1
 PW_GRID| Grid distributed over                                   192 processors
 PW_GRID| Real space group dimensions                                   192    1
 PW_GRID| the grid is blocked:                                                NO
 PW_GRID| Cutoff [a.u.]                                                    300.0
 PW_GRID| spherical cutoff:                                                   NO
 PW_GRID|   Bounds   1           -180     179                Points:         360
 PW_GRID|   Bounds   2           -144     143                Points:         288
 PW_GRID|   Bounds   3           -360     359                Points:         720
 PW_GRID| Volume element (a.u.^3)  0.1759E-02     Volume (a.u.^3)    131299.0921
 PW_GRID| Grid span                                                    FULLSPACE
 PW_GRID|   Distribution                         Average         Max         Min
 PW_GRID|   G-Vectors                           388800.0      388800      388800
 PW_GRID|   G-Rays                                1080.0        1080        1080
 PW_GRID|   Real Space Points                   388800.0      414720      207360

 PW_GRID| Information for grid number                                          2
 PW_GRID| Number of the reference grid                                         1
 PW_GRID| Grid distributed over                                   192 processors
 PW_GRID| Real space group dimensions                                   192    1
 PW_GRID| the grid is blocked:                                                NO
 PW_GRID| Cutoff [a.u.]                                                    100.0
 PW_GRID| spherical cutoff:                                                   NO
 PW_GRID|   Bounds   1            -96      95                Points:         192
 PW_GRID|   Bounds   2            -90      89                Points:         180
 PW_GRID|   Bounds   3           -200     199                Points:         400
 PW_GRID| Volume element (a.u.^3)  0.9498E-02     Volume (a.u.^3)    131299.0921
 PW_GRID| Grid span                                                    FULLSPACE
 PW_GRID|   Distribution                         Average         Max         Min
 PW_GRID|   G-Vectors                            72000.0       75072       61824
 PW_GRID|   G-Rays                                 375.0         391         322
 PW_GRID|   Real Space Points                    72000.0       72000       72000

 PW_GRID| Information for grid number                                          3
 PW_GRID| Number of the reference grid                                         1
 PW_GRID| Grid distributed over                                   192 processors
 PW_GRID| Real space group dimensions                                    12   16
 PW_GRID| the grid is blocked:                                                NO
 PW_GRID| Cutoff [a.u.]                                                     33.3
 PW_GRID| spherical cutoff:                                                   NO
 PW_GRID|   Bounds   1            -60      59                Points:         120
 PW_GRID|   Bounds   2            -48      47                Points:          96
 PW_GRID|   Bounds   3           -120     119                Points:         240
 PW_GRID| Volume element (a.u.^3)  0.4749E-01     Volume (a.u.^3)    131299.0921
 PW_GRID| Grid span                                                    FULLSPACE
 PW_GRID|   Distribution                         Average         Max         Min
 PW_GRID|   G-Vectors                            14400.0       15240       13320
 PW_GRID|   G-Rays                                 120.0         127         111
 PW_GRID|   Real Space Points                    14400.0       14400       14400

 PW_GRID| Information for grid number                                          4
 PW_GRID| Number of the reference grid                                         1
 PW_GRID| Grid distributed over                                   192 processors
 PW_GRID| Real space group dimensions                                    12   16
 PW_GRID| the grid is blocked:                                                NO
 PW_GRID| Cutoff [a.u.]                                                     11.1
 PW_GRID| spherical cutoff:                                                   NO
 PW_GRID|   Bounds   1            -32      31                Points:          64
 PW_GRID|   Bounds   2            -30      29                Points:          60
 PW_GRID|   Bounds   3            -67      67                Points:         135
 PW_GRID| Volume element (a.u.^3)  0.2533         Volume (a.u.^3)    131299.0921
 PW_GRID| Grid span                                                    FULLSPACE
 PW_GRID|   Distribution                         Average         Max         Min
 PW_GRID|   G-Vectors                             2700.0        3328        2048
 PW_GRID|   G-Rays                                  42.2          52          32
 PW_GRID|   Real Space Points                     2700.0        3240        2025

 PW_GRID| Information for grid number                                          5
 PW_GRID| Number of the reference grid                                         1
 PW_GRID| Grid distributed over                                   192 processors
 PW_GRID| Real space group dimensions                                    12   16
 PW_GRID| the grid is blocked:                                                NO
 PW_GRID| Cutoff [a.u.]                                                      3.7
 PW_GRID| spherical cutoff:                                                   NO
 PW_GRID|   Bounds   1            -20      19                Points:          40
 PW_GRID|   Bounds   2            -16      15                Points:          32
 PW_GRID|   Bounds   3            -37      37                Points:          75
 PW_GRID| Volume element (a.u.^3)   1.368         Volume (a.u.^3)    131299.0921
 PW_GRID| Grid span                                                    FULLSPACE
 PW_GRID|   Distribution                         Average         Max         Min
 PW_GRID|   G-Vectors                              500.0         680         320
 PW_GRID|   G-Rays                                  12.5          17           8
 PW_GRID|   Real Space Points                      500.0         600         450

 PW_GRID| Grid for non-local vdW functional

 PW_GRID| Information for grid number                                          6
 PW_GRID| Number of the reference grid                                         1
 PW_GRID| Grid distributed over                                   192 processors
 PW_GRID| Real space group dimensions                                    12   16
 PW_GRID| the grid is blocked:                                                NO
 PW_GRID| Cutoff [a.u.]                                                     40.0
 PW_GRID| spherical cutoff:                                                   NO
 PW_GRID|   Bounds   1            -60      59                Points:         120
 PW_GRID|   Bounds   2            -54      53                Points:         108
 PW_GRID|   Bounds   3           -128     127                Points:         256
 PW_GRID| Volume element (a.u.^3)  0.3957E-01     Volume (a.u.^3)    131299.0921
 PW_GRID| Grid span                                                    FULLSPACE
 PW_GRID|   Distribution                         Average         Max         Min
 PW_GRID|   G-Vectors                            17280.0       18360       15840
 PW_GRID|   G-Rays                                 144.0         153         132
 PW_GRID|   Real Space Points                    17280.0       17920       15360

 POISSON| Solver                                                        PERIODIC
 POISSON| Periodicity                                                        XYZ

 RS_GRID| Information for grid number                                          1
 RS_GRID|   Bounds   1           -180     179                Points:         360
 RS_GRID|   Bounds   2           -144     143                Points:         288
 RS_GRID|   Bounds   3           -360     359                Points:         720
 RS_GRID| Real space distribution over                                  4 groups
 RS_GRID| Real space distribution along direction                              1
 RS_GRID| Border size                                                         32
 RS_GRID| Real space distribution over                                  4 groups
 RS_GRID| Real space distribution along direction                              2
 RS_GRID| Border size                                                         32
 RS_GRID| Real space distribution over                                 12 groups
 RS_GRID| Real space distribution along direction                              3
 RS_GRID| Border size                                                         32
 RS_GRID|   Distribution                         Average         Max         Min
 RS_GRID|   Planes                                 154.0         154         154
 RS_GRID|   Distribution                         Average         Max         Min
 RS_GRID|   Planes                                 136.0         136         136
 RS_GRID|   Distribution                         Average         Max         Min
 RS_GRID|   Planes                                 124.0         124         124

 RS_GRID| Information for grid number                                          2
 RS_GRID|   Bounds   1            -96      95                Points:         192
 RS_GRID|   Bounds   2            -90      89                Points:         180
 RS_GRID|   Bounds   3           -200     199                Points:         400
 RS_GRID| Real space distribution over                                  4 groups
 RS_GRID| Real space distribution along direction                              1
 RS_GRID| Border size                                                         30
 RS_GRID| Real space distribution over                                  4 groups
 RS_GRID| Real space distribution along direction                              2
 RS_GRID| Border size                                                         30
 RS_GRID| Real space distribution over                                 12 groups
 RS_GRID| Real space distribution along direction                              3
 RS_GRID| Border size                                                         30
 RS_GRID|   Distribution                         Average         Max         Min
 RS_GRID|   Planes                                 108.0         108         108
 RS_GRID|   Distribution                         Average         Max         Min
 RS_GRID|   Planes                                 105.0         105         105
 RS_GRID|   Distribution                         Average         Max         Min
 RS_GRID|   Planes                                  93.3          94          93

 RS_GRID| Information for grid number                                          3
 RS_GRID|   Bounds   1            -60      59                Points:         120
 RS_GRID|   Bounds   2            -48      47                Points:          96
 RS_GRID|   Bounds   3           -120     119                Points:         240
 RS_GRID| Real space fully replicated
 RS_GRID| Group size                                                           1

 RS_GRID| Information for grid number                                          4
 RS_GRID|   Bounds   1            -32      31                Points:          64
 RS_GRID|   Bounds   2            -30      29                Points:          60
 RS_GRID|   Bounds   3            -67      67                Points:         135
 RS_GRID| Real space fully replicated
 RS_GRID| Group size                                                           1

 RS_GRID| Information for grid number                                          5
 RS_GRID|   Bounds   1            -20      19                Points:          40
 RS_GRID|   Bounds   2            -16      15                Points:          32
 RS_GRID|   Bounds   3            -37      37                Points:          75
 RS_GRID| Real space fully replicated
 RS_GRID| Group size                                                           1

 BFGS| Use rational function optimization for step estimation:                NO
 BFGS| Use model Hessian for initial guess:                                  YES
 BFGS| Restart Hessian:                                                       NO
 BFGS| Trust radius:                                                       0.472

 *******************************************************************************
 ***                     STARTING GEOMETRY OPTIMIZATION                      ***
 ***                                   BFGS                                  ***
 *******************************************************************************

 Number of electrons:                                                       1634
 Number of occupied orbitals:                                                817
 Number of molecular orbitals:                                               817

 Number of orbital functions:                                               6865
 Number of independent orbital functions:                                   6865

 Extrapolation method: initial_guess

 Atomic guess: The first density matrix is obtained in terms of atomic orbitals
               and electronic configurations assigned to each atomic kind

 Guess for atomic kind: Si

 Electronic structure
    Total number of core electrons                                         10.00
    Total number of valence electrons                                       4.00
    Total number of electrons                                              14.00
    Multiplicity                                                   not specified
    S   [  2.00  2.00] 2.00
    P   [  6.00] 2.00


 *******************************************************************************
                  Iteration          Convergence                     Energy [au]
 *******************************************************************************
                          1        0.537382E-01                  -3.661533087532
                          2        0.227595E-01                  -3.664304527760
                          3        0.200097E-03                  -3.665017588330
                          4        0.821645E-06                  -3.665017641412

 Energy components [Hartree]           Total Energy ::           -3.665017641412
                                        Band Energy ::           -0.978497193520
                                     Kinetic Energy ::            1.385169340970
                                   Potential Energy ::           -5.050186982382
                                      Virial (-V/T) ::            3.645898615432
                                        Core Energy ::           -5.667721494982
                                          XC Energy ::           -0.980982178883
                                     Coulomb Energy ::            2.983686032453
                       Total Pseudopotential Energy ::           -7.097886600236
                       Local Pseudopotential Energy ::           -7.923124080011
                    Nonlocal Pseudopotential Energy ::            0.825237479775
                                        Confinement ::            0.449957642846

 Orbital energies  State     L     Occupation   Energy[a.u.]          Energy[eV]

                       1     0          2.000      -0.366449           -9.971583

                       1     1          2.000      -0.122800           -3.341548


 Total Electron Density at R=0:                                         0.000021

 Guess for atomic kind: O

 Electronic structure
    Total number of core electrons                                          2.00
    Total number of valence electrons                                       6.00
    Total number of electrons                                               8.00
    Multiplicity                                                   not specified
    S   [  2.00] 2.00
    P      4.00


 *******************************************************************************
                  Iteration          Convergence                     Energy [au]
 *******************************************************************************
                          1        0.767843                     -15.548688912140
                          2        0.707350                     -15.552891087148
                          3        0.233352E-01                 -15.638471141341
                          4        0.140601E-02                 -15.638569711398
                          5        0.207920E-04                 -15.638570020034
                          6        0.225984E-06                 -15.638570020103

 Energy components [Hartree]           Total Energy ::          -15.638570020103
                                        Band Energy ::           -2.987115069665
                                     Kinetic Energy ::           11.758429295155
                                   Potential Energy ::          -27.396999315257
                                      Virial (-V/T) ::            2.329988013497
                                        Core Energy ::          -26.117692585696
                                          XC Energy ::           -3.153357461230
                                     Coulomb Energy ::           13.632480026823
                       Total Pseudopotential Energy ::          -37.911237752663
                       Local Pseudopotential Energy ::          -39.187422590466
                    Nonlocal Pseudopotential Energy ::            1.276184837802
                                        Confinement ::            0.351158718120

 Orbital energies  State     L     Occupation   Energy[a.u.]          Energy[eV]

                       1     0          2.000      -0.854976          -23.265087

                       1     1          4.000      -0.319291           -8.688340


 Total Electron Density at R=0:                                         0.000001

 Guess for atomic kind: C

 Electronic structure
    Total number of core electrons                                          2.00
    Total number of valence electrons                                       4.00
    Total number of electrons                                               6.00
    Multiplicity                                                   not specified
    S   [  2.00] 2.00
    P      2.00


 *******************************************************************************
                  Iteration          Convergence                     Energy [au]
 *******************************************************************************
                          1        0.124377                      -5.269415449983
                          2        0.880091E-01                  -5.274432015385
                          3        0.424095E-03                  -5.279419090830
                          4        0.118108E-03                  -5.279419164687
                          5        0.144057E-06                  -5.279419172500

 Energy components [Hartree]           Total Energy ::           -5.279419172500
                                        Band Energy ::           -1.313739125276
                                     Kinetic Energy ::            3.405940495234
                                   Potential Energy ::           -8.685359667734
                                      Virial (-V/T) ::            2.550062069460
                                        Core Energy ::           -8.290068838701
                                          XC Energy ::           -1.377173731606
                                     Coulomb Energy ::            4.387823397806
                       Total Pseudopotential Energy ::          -11.730281123094
                       Local Pseudopotential Energy ::          -12.376528803709
                    Nonlocal Pseudopotential Energy ::            0.646247680614
                                        Confinement ::            0.342717891594

 Orbital energies  State     L     Occupation   Energy[a.u.]          Energy[eV]

                       1     0          2.000      -0.480601          -13.077809

                       1     1          2.000      -0.176269           -4.796521


 Total Electron Density at R=0:                                         0.000000

 Guess for atomic kind: H

 Electronic structure
    Total number of core electrons                                          0.00
    Total number of valence electrons                                       1.00
    Total number of electrons                                               1.00
    Multiplicity                                                   not specified
    S      1.00


 *******************************************************************************
                  Iteration          Convergence                     Energy [au]
 *******************************************************************************
                          1        0.364523E-02                  -0.422484553466
                          2        0.146100E-03                  -0.422490428911
                          3        0.266755E-04                  -0.422490480125
                          4        0.362969E-08                  -0.422490480723

 Energy components [Hartree]           Total Energy ::           -0.422490480723
                                        Band Energy ::           -0.192735382727
                                     Kinetic Energy ::            0.477952444388
                                   Potential Energy ::           -0.900442925111
                                      Virial (-V/T) ::            1.883959242566
                                        Core Energy ::           -0.479166166213
                                          XC Energy ::           -0.248560768168
                                     Coulomb Energy ::            0.305236453657
                       Total Pseudopotential Energy ::           -0.975131101124
                       Local Pseudopotential Energy ::           -0.975131101124
                    Nonlocal Pseudopotential Energy ::            0.000000000000
                                        Confinement ::            0.180124905236

 Orbital energies  State     L     Occupation   Energy[a.u.]          Energy[eV]

                       1     0          1.000      -0.192735           -5.244596


 Total Electron Density at R=0:                                         0.249202
 Re-scaling the density matrix to get the right number of electrons
                  # Electrons              Trace(P)               Scaling factor
                         1634              1634.000                        1.000


 SCF WAVEFUNCTION OPTIMIZATION

  ----------------------------------- OT ---------------------------------------
  Minimizer      : CG                  : conjugate gradient
  Preconditioner : FULL_KINETIC        : inversion of T + eS
  Precond_solver : DEFAULT
  Line search : ADPT : UNKNOWN
  stepsize       :    0.01000000                  energy_gap     :    0.01000000
  eps_taylor     :   0.10000E-15                  max_taylor     :             4
  ----------------------------------- OT ---------------------------------------

  Step     Update method      Time    Convergence         Total energy    Change
  ------------------------------------------------------------------------------
     1 OT CG       0.20E-01    2.8     0.01918292     -2422.7628595349 -2.42E+03
     - OT LS       0.40E-01    1.7                    -2440.1840509725
     - OT LS       0.30E-01    1.7                    -2426.4054380543
     - OT LS       0.21E-01    1.7                    -2436.9559987251
     2 OT CG       0.42E-01    3.0     0.01074492     -2439.7911609181 -1.70E+01
     - OT LS       0.84E-01    1.7                    -2464.4834778676
     - OT LS       0.17E+00    1.7                    -2481.0072873749
     - OT LS       0.34E+00    1.7                    -2496.0346238447
     - OT LS       0.25E+00    1.7                    -2472.1584232519
     - OT LS       0.19E+00    1.7                    -2492.6242380946
     3 OT CG       0.39E+00    3.0     0.01250093     -2496.8307230635 -5.70E+01
     - OT LS       0.19E+00    1.7                    -2187.7503454218
     - OT LS       0.97E-01    1.7                    -2380.0905707378
     - OT LS       0.48E-01    1.7                    -2483.2278986469
     - OT LS       0.40E-01    1.7                    -2510.5398693262
     4 OT CG       0.81E-01    3.0     0.00926565     -2511.1495645632 -1.43E+01
     - OT LS       0.16E+00    1.7                    -2535.2436518588
     - OT LS       0.12E+00    1.7                    -2534.5269275488
     - OT LS       0.12E+00    1.7                    -2537.0367431666
     5 OT CG       0.24E+00    3.0     0.00888082     -2537.0695921881 -2.59E+01
     - OT LS       0.12E+00    1.7                    -2438.1098451743
     - OT LS       0.59E-01    1.7                    -2529.0002865040
     - OT LS       0.50E-01    1.7                    -2546.7029177459
     6 OT CG       0.10E+00    3.0     0.00658662     -2547.3869214464 -1.03E+01
     - OT LS       0.20E+00    1.7                    -2559.4906234087
     - OT LS       0.15E+00    1.7                    -2553.9891884778
     - OT LS       0.11E+00    1.7                    -2558.2699789240
     7 OT CG       0.23E+00    3.0     0.00594331     -2559.5508534228 -1.22E+01
     - OT LS       0.11E+00    1.7                    -2538.4828501288
     - OT LS       0.68E-01    1.7                    -2562.3022852196
     8 OT CG       0.14E+00    3.0     0.00528491     -2564.4551094494 -4.90E+00
     - OT LS       0.27E+00    1.7                    -2570.6168341356
     - OT LS       0.20E+00    1.7                    -2556.8073226790
     - OT LS       0.11E+00    1.7                    -2566.3859797756
     9 OT CG       0.22E+00    3.0     0.00346242     -2571.4110321096 -6.96E+00
     - OT LS       0.45E+00    1.7                    -2576.7726169209
     - OT LS       0.33E+00    1.7                    -2567.3853683223
     - OT LS       0.19E+00    1.7                    -2573.8054587244
    10 OT CG       0.38E+00    3.0     0.00314219     -2576.6735784088 -5.26E+00
     - OT LS       0.19E+00    1.7                    -2572.5168774586
     - OT LS       0.15E+00    1.7                    -2579.5597976061
    11 OT CG       0.30E+00    3.0     0.00255885     -2579.3472768673 -2.67E+00
     - OT LS       0.60E+00    1.7                    -2581.1850501790
     - OT LS       0.45E+00    1.7                    -2569.3893342175
     - OT LS       0.19E+00    1.7                    -2577.2166288446
    12 OT CG       0.39E+00    3.0     0.00215863     -2581.9946956501 -2.65E+00
     - OT LS       0.77E+00    1.7                    -2582.6901767543
     - OT LS       0.58E+00    1.7                    -2566.9189702941
     - OT LS       0.21E+00    1.7                    -2576.8223849809
    13 OT CG       0.42E+00    3.0     0.00190145     -2584.2267357338 -2.23E+00
     - OT LS       0.84E+00    1.7                    -2584.7486308055
     - OT LS       0.63E+00    1.7                    -2571.9183818761
     - OT LS       0.23E+00    1.7                    -2580.0985473347
    14 OT CG       0.45E+00    3.0     0.00175226     -2585.7937518883 -1.57E+00
     - OT LS       0.23E+00    1.7                    -2584.7806383342
     - OT LS       0.20E+00    1.7                    -2587.2264223638
    15 OT CG       0.39E+00    3.0     0.00145303     -2587.1629752124 -1.37E+00
     - OT LS       0.79E+00    1.7                    -2588.2867391307
     - OT LS       0.59E+00    1.7                    -2582.4833638042
     - OT LS       0.25E+00    1.7                    -2585.8014657508
    16 OT CG       0.50E+00    3.0     0.00179286     -2588.4833011676 -1.32E+00
     - OT LS       0.25E+00    1.7                    -2583.6044691312
     - OT LS       0.13E+00    1.7                    -2588.4472813042
     - OT LS       0.12E+00    1.7                    -2588.9552675580
    17 OT CG       0.25E+00    3.0     0.00136011     -2588.9511981239 -4.68E-01
     - OT LS       0.49E+00    1.7                    -2589.8895831234
     - OT LS       0.37E+00    1.7                    -2588.2494152086
     - OT LS       0.24E+00    1.7                    -2589.6151523144
    18 OT CG       0.48E+00    3.0     0.00136719     -2589.8841839925 -9.33E-01
     - OT LS       0.24E+00    1.7                    -2587.9726330204
     - OT LS       0.15E+00    1.7                    -2590.1548832003
    19 OT CG       0.29E+00    3.0     0.00106427     -2590.7761113875 -8.92E-01
     - OT LS       0.59E+00    1.7                    -2591.7027479262
     - OT LS       0.44E+00    1.7                    -2590.4528915751
     - OT LS       0.27E+00    1.7                    -2591.3471835751
    20 OT CG       0.54E+00    3.0     0.00106638     -2591.7092591433 -9.33E-01
     - OT LS       0.27E+00    1.7                    -2590.2470738199
     - OT LS       0.15E+00    1.7                    -2591.8306050366
    21 OT CG       0.31E+00    3.0     0.00115235     -2591.7512888847 -4.20E-02
     - OT LS       0.15E+00    1.7                    -2591.4465400478
     - OT LS       0.14E+00    1.7                    -2592.3404010446
    22 OT CG       0.28E+00    3.0     0.00088368     -2592.3515424295 -6.00E-01
     - OT LS       0.55E+00    1.7                    -2592.5477713396
     - OT LS       0.42E+00    1.7                    -2591.8167395763
     - OT LS       0.21E+00    1.7                    -2592.3601058552
    23 OT CG       0.42E+00    3.0     0.00129012     -2592.4737073327 -1.22E-01
     - OT LS       0.21E+00    1.7                    -2589.8828452217
     - OT LS       0.11E+00    1.7                    -2591.8911266675
     - OT LS       0.53E-01    1.7                    -2592.2097191536
     - OT LS       0.45E-01    1.7                    -2592.8204901964
    24 OT CG       0.91E-01    3.0     0.00082315     -2592.8028263506 -3.29E-01
     - OT LS       0.18E+00    1.7                    -2593.0613195985
     - OT LS       0.36E+00    1.7                    -2593.1322498452
     - OT LS       0.27E+00    1.7                    -2592.7339281476
     - OT LS       0.17E+00    1.7                    -2593.0165656273
    25 OT CG       0.34E+00    3.0     0.00077205     -2593.1336656412 -3.31E-01
     - OT LS       0.17E+00    1.7                    -2592.6922913626
     - OT LS       0.85E-01    1.7                    -2592.8348285371
     - OT LS       0.68E-01    1.7                    -2593.3564591105
    26 OT CG       0.14E+00    3.0     0.00057957     -2593.3219077501 -1.88E-01
     - OT LS       0.27E+00    1.7                    -2593.4657266361
     - OT LS       0.20E+00    1.7                    -2592.8297395496
     - OT LS       0.79E-01    1.7                    -2592.8657397173
    27 OT CG       0.16E+00    3.0     0.00041257     -2593.4330535309 -1.11E-01
     - OT LS       0.79E-01    1.7                    -2592.9894699879
     - OT LS       0.49E-01    1.7                    -2593.5060535350
    28 OT CG       0.99E-01    3.0     0.00039358     -2593.4794367469 -4.64E-02
     - OT LS       0.49E-01    1.7                    -2592.9691777180
     - OT LS       0.28E-01    1.7                    -2593.5216056559
    29 OT CG       0.56E-01    3.0     0.00038767     -2593.5036711060 -2.42E-02

  *** SCF run converged in    29 steps ***


  Electronic density on regular grids:      -1633.9999999999        0.0000000001
  Core density on regular grids:             1633.9999999987       -0.0000000013
  Total charge density on r-space grids:       -0.0000000012
  Total charge density g-space grids:          -0.0000000012

  Overlap energy of the core charge distribution:               0.00006983741551
  Self energy of the core charge distribution:              -6606.48198312660770
  Core Hamiltonian energy:                                   1917.37674332812753
  Hartree energy:                                            2832.82266542387151
  Exchange-correlation energy:                               -739.42466727081376
  Dispersion energy:                                            2.15845439398802
  Electric field interaction energy:                            0.04504630799403

  Total energy:                                             -2593.50367110602519

  outer SCF iter =    1 RMS gradient =   0.39E-03 energy =      -2593.5036711060
  outer SCF loop converged in   1 iterations or  110 steps


 !-----------------------------------------------------------------------------!
                     Mulliken Population Analysis

 #  Atom  Element  Kind  Atomic population                           Net charge
       1     Si       1          3.617290                              0.382710
       2     O        2          6.446602                             -0.446602
       3     C        3          4.178993                             -0.178993
       4     H        4          0.932741                              0.067259
       5     H        4          0.975685                              0.024315
       6     H        4          0.957754                              0.042246
       7     C        3          4.006304                             -0.006304
       8     H        4          0.988849                              0.011151
       9     H        4          0.987878                              0.012122
      10     H        4          1.006182                             -0.006182
      11     Si       1          3.366582                              0.633418
      12     O        2          6.516015                             -0.516015
      13     C        3          3.977556                              0.022444
      14     H        4          0.963700                              0.036300
      15     H        4          1.022628                             -0.022628
      16     H        4          0.972905                              0.027095
      17     C        3          4.148556                             -0.148556
      18     H        4          0.975404                              0.024596
      19     H        4          0.973912                              0.026088
      20     H        4          0.977654                              0.022346
      21     Si       1          3.136629                              0.863371
      22     O        2          6.505187                             -0.505187
      23     C        3          4.196366                             -0.196366
      24     H        4          0.978224                              0.021776
      25     H        4          0.985046                              0.014954
      26     H        4          0.979614                              0.020386
      27     C        3          4.438136                             -0.438136
      28     H        4          1.013949                             -0.013949
      29     H        4          0.973387                              0.026613
      30     H        4          0.977469                              0.022531
      31     Si       1          3.808007                              0.191993
      32     O        2          6.644832                             -0.644832
      33     C        3          4.006764                             -0.006764
      34     H        4          0.979059                              0.020941
      35     H        4          1.009777                             -0.009777
      36     H        4          0.980611                              0.019389
      37     C        3          4.152839                             -0.152839
      38     H        4          0.987872                              0.012128
      39     H        4          0.951946                              0.048054
      40     H        4          0.971287                              0.028713
      41     Si       1          3.152788                              0.847212
      42     O        2          6.553840                             -0.553840
      43     C        3          4.380729                             -0.380729
      44     H        4          0.937289                              0.062711
      45     H        4          1.219680                             -0.219680
      46     H        4          0.924001                              0.075999
      47     C        3          4.227930                             -0.227930
      48     H        4          0.974667                              0.025333
      49     H        4          0.977753                              0.022247
      50     H        4          0.967719                              0.032281
      51     Si       1          3.392030                              0.607970
      52     C        3          4.209581                             -0.209581
      53     H        4          0.970261                              0.029739
      54     H        4          0.958219                              0.041781
      55     H        4          0.952724                              0.047276
      56     C        3          4.196810                             -0.196810
      57     H        4          0.953937                              0.046063
      58     H        4          0.982101                              0.017899
      59     H        4          0.974679                              0.025321
      60     Si       1          3.379540                              0.620460
      61     O        2          6.549057                             -0.549057
      62     C        3          4.393561                             -0.393561
      63     H        4          0.983500                              0.016500
      64     H        4          1.007943                             -0.007943
      65     H        4          0.992845                              0.007155
      66     C        3          4.191407                             -0.191407
      67     H        4          0.959954                              0.040046
      68     H        4          0.944050                              0.055950
      69     H        4          0.960935                              0.039065
      70     Si       1          3.133609                              0.866391
      71     O        2          6.522049                             -0.522049
      72     C        3          3.998239                              0.001761
      73     H        4          1.011554                             -0.011554
      74     H        4          0.969138                              0.030862
      75     H        4          1.002578                             -0.002578
      76     C        3          4.174669                             -0.174669
      77     H        4          0.965960                              0.034040
      78     H        4          0.963213                              0.036787
      79     H        4          0.980629                              0.019371
      80     Si       1          3.697176                              0.302824
      81     O        2          6.462810                             -0.462810
      82     C        3          4.004688                             -0.004688
      83     H        4          1.015660                             -0.015660
      84     H        4          0.982711                              0.017289
      85     H        4          1.000814                             -0.000814
      86     C        3          4.160705                             -0.160705
      87     H        4          0.981447                              0.018553
      88     H        4          0.983376                              0.016624
      89     H        4          0.971800                              0.028200
      90     Si       1          3.088320                              0.911680
      91     O        2          6.499147                             -0.499147
      92     C        3          4.213816                             -0.213816
      93     H        4          0.971026                              0.028974
      94     H        4          0.973240                              0.026760
      95     H        4          0.978770                              0.021230
      96     C        3          4.110298                             -0.110298
      97     H        4          0.958362                              0.041638
      98     H        4          0.968305                              0.031695
      99     Si       1          3.871836                              0.128164
     100     O        2          6.629861                             -0.629861
     101     C        3          4.000262                             -0.000262
     102     H        4          0.994569                              0.005431
     103     H        4          0.973315                              0.026685
     104     H        4          1.011088                             -0.011088
     105     C        3          4.163136                             -0.163136
     106     H        4          0.962951                              0.037049
     107     H        4          0.988212                              0.011788
     108     H        4          0.965543                              0.034457
     109     Si       1          3.273569                              0.726431
     110     C        3          4.178848                             -0.178848
     111     H        4          0.976414                              0.023586
     112     H        4          0.935771                              0.064229
     113     H        4          0.954008                              0.045992
     114     C        3          4.350463                             -0.350463
     115     H        4          0.986422                              0.013578
     116     H        4          0.967695                              0.032305
     117     H        4          0.939855                              0.060145
     118     Si       1          3.353929                              0.646071
     119     O        2          6.529791                             -0.529791
     120     C        3          4.196846                             -0.196846
     121     H        4          0.965514                              0.034486
     122     H        4          0.993808                              0.006192
     123     H        4          0.982935                              0.017065
     124     C        3          4.226290                             -0.226290
     125     H        4          0.984655                              0.015345
     126     H        4          0.965878                              0.034122
     127     H        4          0.992083                              0.007917
     128     Si       1          3.309918                              0.690082
     129     O        2          6.516319                             -0.516319
     130     C        3          4.205298                             -0.205298
     131     H        4          0.981679                              0.018321
     132     H        4          0.990916                              0.009084
     133     H        4          0.984033                              0.015967
     134     C        3          4.200087                             -0.200087
     135     H        4          0.982114                              0.017886
     136     H        4          0.956314                              0.043686
     137     H        4          0.988856                              0.011144
     138     Si       1          3.653584                              0.346416
     139     O        2          6.366558                             -0.366558
     140     C        3          4.216633                             -0.216633
     141     H        4          0.962313                              0.037687
     142     H        4          0.970148                              0.029852
     143     H        4          0.975112                              0.024888
     144     C        3          4.127902                             -0.127902
     145     H        4          0.979297                              0.020703
     146     H        4          0.965943                              0.034057
     147     H        4          0.963290                              0.036710
     148     Si       1          3.360676                              0.639324
     149     O        2          6.477010                             -0.477010
     150     C        3          4.404250                             -0.404250
     151     H        4          0.960834                              0.039166
     152     H        4          0.966434                              0.033566
     153     C        3          4.017173                             -0.017173
     154     H        4          1.024236                             -0.024236
     155     H        4          0.981888                              0.018112
     156     H        4          1.009511                             -0.009511
     157     Si       1          3.215836                              0.784164
     158     O        2          6.466189                             -0.466189
     159     C        3          4.220438                             -0.220438
     160     H        4          0.957914                              0.042086
     161     H        4          1.000808                             -0.000808
     162     H        4          0.965375                              0.034625
     163     C        3          4.198172                             -0.198172
     164     H        4          0.989682                              0.010318
     165     H        4          0.971798                              0.028202
     166     H        4          0.968986                              0.031014
     167     Si       1          3.696486                              0.303514
     168     C        3          4.152174                             -0.152174
     169     H        4          0.987888                              0.012112
     170     H        4          0.972548                              0.027452
     171     H        4          0.961999                              0.038001
     172     C        3          3.772626                              0.227374
     173     H        4          0.998936                              0.001064
     174     H        4          1.060493                             -0.060493
     175     H        4          0.990365                              0.009635
     176     Si       1          3.342267                              0.657733
     177     O        2          6.515872                             -0.515872
     178     C        3          4.207088                             -0.207088
     179     H        4          0.985045                              0.014955
     180     H        4          0.974531                              0.025469
     181     H        4          0.973482                              0.026518
     182     C        3          4.206469                             -0.206469
     183     H        4          0.969762                              0.030238
     184     H        4          0.979691                              0.020309
     185     H        4          0.977958                              0.022042
     186     Si       1          3.178113                              0.821887
     187     O        2          6.400593                             -0.400593
     188     C        3          4.212449                             -0.212449
     189     H        4          0.963011                              0.036989
     190     H        4          0.985325                              0.014675
     191     H        4          0.973195                              0.026805
     192     C        3          4.199461                             -0.199461
     193     H        4          0.974216                              0.025784
     194     H        4          0.977857                              0.022143
     195     H        4          0.961742                              0.038258
     196     Si       1          3.312035                              0.687965
     197     O        2          6.425764                             -0.425764
     198     C        3          4.133601                             -0.133601
     199     H        4          0.955610                              0.044390
     200     H        4          0.924602                              0.075398
     201     H        4          0.949200                              0.050800
     202     C        3          4.240095                             -0.240095
     203     H        4          0.966148                              0.033852
     204     H        4          0.973533                              0.026467
     205     H        4          0.958176                              0.041824
     206     Si       1          3.124469                              0.875531
     207     O        2          6.588492                             -0.588492
     208     C        3          4.216341                             -0.216341
     209     H        4          0.959617                              0.040383
     210     H        4          0.972740                              0.027260
     211     H        4          0.960079                              0.039921
     212     C        3          4.207183                             -0.207183
     213     H        4          0.960976                              0.039024
     214     H        4          0.966806                              0.033194
     215     H        4          0.971321                              0.028679
     216     Si       1          3.127161                              0.872839
     217     O        2          6.560799                             -0.560799
     218     C        3          4.212826                             -0.212826
     219     H        4          0.976508                              0.023492
     220     H        4          0.958471                              0.041529
     221     H        4          0.975311                              0.024689
     222     C        3          4.200998                             -0.200998
     223     H        4          0.963352                              0.036648
     224     H        4          0.985472                              0.014528
     225     H        4          0.990081                              0.009919
     226     Si       1          3.700952                              0.299048
     227     C        3          4.178706                             -0.178706
     228     H        4          0.979137                              0.020863
     229     H        4          0.983506                              0.016494
     230     H        4          0.970440                              0.029560
     231     C        3          4.180336                             -0.180336
     232     H        4          0.974487                              0.025513
     233     H        4          0.975670                              0.024330
     234     Si       1          3.453834                              0.546166
     235     O        2          6.583924                             -0.583924
     236     C        3          4.221148                             -0.221148
     237     H        4          0.991573                              0.008427
     238     H        4          0.985424                              0.014576
     239     H        4          0.967917                              0.032083
     240     C        3          4.230796                             -0.230796
     241     H        4          0.950509                              0.049491
     242     H        4          0.956818                              0.043182
     243     H        4          0.997983                              0.002017
     244     Si       1          3.105230                              0.894770
     245     O        2          6.628441                             -0.628441
     246     C        3          4.218251                             -0.218251
     247     H        4          0.973162                              0.026838
     248     H        4          0.984732                              0.015268
     249     H        4          0.968380                              0.031620
     250     C        3          4.218914                             -0.218914
     251     H        4          0.974923                              0.025077
     252     H        4          0.978310                              0.021690
     253     H        4          0.974301                              0.025699
     254     Si       1          3.097292                              0.902708
     255     O        2          6.556200                             -0.556200
     256     C        3          4.220518                             -0.220518
     257     H        4          0.977562                              0.022438
     258     H        4          0.966677                              0.033323
     259     H        4          0.969291                              0.030709
     260     C        3          4.200246                             -0.200246
     261     H        4          0.992760                              0.007240
     262     H        4          0.954048                              0.045952
     263     H        4          0.980456                              0.019544
     264     Si       1          3.147091                              0.852909
     265     O        2          6.536207                             -0.536207
     266     C        3          4.206432                             -0.206432
     267     H        4          0.966552                              0.033448
     268     H        4          0.972275                              0.027725
     269     H        4          0.994349                              0.005651
     270     C        3          4.210784                             -0.210784
     271     H        4          0.964688                              0.035312
     272     H        4          0.962213                              0.037787
     273     H        4          0.970651                              0.029349
     274     Si       1          3.175041                              0.824959
     275     O        2          6.574265                             -0.574265
     276     C        3          4.177721                             -0.177721
     277     H        4          0.954253                              0.045747
     278     H        4          0.942141                              0.057859
     279     H        4          0.967809                              0.032191
     280     C        3          4.241680                             -0.241680
     281     H        4          0.928142                              0.071858
     282     H        4          0.908511                              0.091489
     283     H        4          0.906819                              0.093181
     284     Si       1          3.208649                              0.791351
     285     C        3          4.227648                             -0.227648
     286     H        4          0.969241                              0.030759
     287     H        4          0.991227                              0.008773
     288     C        3          4.206292                             -0.206292
     289     H        4          0.968939                              0.031061
     290     H        4          0.976665                              0.023335
     291     H        4          0.977676                              0.022324
     292     Si       1          3.289207                              0.710793
     293     O        2          6.456182                             -0.456182
     294     C        3          4.216924                             -0.216924
     295     H        4          0.971057                              0.028943
     296     H        4          0.974933                              0.025067
     297     H        4          0.963539                              0.036461
     298     C        3          4.216144                             -0.216144
     299     H        4          0.968762                              0.031238
     300     H        4          0.985654                              0.014346
     301     H        4          0.971511                              0.028489
     302     Si       1          3.334592                              0.665408
     303     O        2          6.499952                             -0.499952
     304     C        3          4.110930                             -0.110930
     305     H        4          0.953057                              0.046943
     306     H        4          0.969045                              0.030955
     307     H        4          0.970614                              0.029386
     308     C        3          4.212531                             -0.212531
     309     H        4          0.984920                              0.015080
     310     H        4          0.952203                              0.047797
     311     H        4          0.948109                              0.051891
     312     Si       1          3.269070                              0.730930
     313     O        2          6.593858                             -0.593858
     314     C        3          4.405730                             -0.405730
     315     H        4          0.984659                              0.015341
     316     H        4          1.087506                             -0.087506
     317     H        4          0.980351                              0.019649
     318     C        3          4.218886                             -0.218886
     319     H        4          0.979836                              0.020164
     320     H        4          0.973919                              0.026081
     321     H        4          0.988839                              0.011161
     322     Si       1          3.108510                              0.891490
     323     O        2          6.553267                             -0.553267
     324     C        3          4.209542                             -0.209542
     325     H        4          0.988617                              0.011383
     326     H        4          0.993566                              0.006434
     327     H        4          0.965365                              0.034635
     328     C        3          4.225888                             -0.225888
     329     H        4          0.980711                              0.019289
     330     H        4          0.962658                              0.037342
     331     H        4          0.986679                              0.013321
     332     Si       1          3.165654                              0.834346
     333     O        2          6.475994                             -0.475994
     334     C        3          4.219349                             -0.219349
     335     H        4          0.973407                              0.026593
     336     H        4          0.971187                              0.028813
     337     H        4          0.963283                              0.036717
     338     C        3          4.211218                             -0.211218
     339     H        4          0.959087                              0.040913
     340     H        4          0.977778                              0.022222
     341     H        4          0.973057                              0.026943
     342     Si       1          3.337441                              0.662559
     343     C        3          4.192205                             -0.192205
     344     H        4          0.968239                              0.031761
     345     H        4          0.951539                              0.048461
     346     H        4          0.973440                              0.026560
     347     C        3          4.183824                             -0.183824
     348     H        4          0.961701                              0.038299
     349     H        4          0.968314                              0.031686
     350     H        4          0.952994                              0.047006
     351     Si       1          3.791854                              0.208146
     352     O        2          6.501793                             -0.501793
     353     C        3          4.333544                             -0.333544
     354     H        4          0.999034                              0.000966
     355     H        4          0.929559                              0.070441
     356     H        4          0.934520                              0.065480
     357     C        3          4.186651                             -0.186651
     358     H        4          0.967284                              0.032716
     359     H        4          0.962412                              0.037588
     360     H        4          0.976386                              0.023614
     361     Si       1          3.104681                              0.895319
     362     O        2          6.587462                             -0.587462
     363     C        3          4.206321                             -0.206321
     364     H        4          0.975250                              0.024750
     365     H        4          0.968727                              0.031273
     366     H        4          0.988411                              0.011589
     367     C        3          4.217279                             -0.217279
     368     H        4          0.987917                              0.012083
     369     H        4          0.994565                              0.005435
     370     H        4          0.965292                              0.034708
     371     Si       1          3.126696                              0.873304
     372     O        2          6.552276                             -0.552276
     373     C        3          4.217546                             -0.217546
     374     H        4          0.978573                              0.021427
     375     H        4          0.944145                              0.055855
     376     H        4          0.975147                              0.024853
     377     C        3          4.209518                             -0.209518
     378     H        4          0.969309                              0.030691
     379     H        4          0.976740                              0.023260
     380     H        4          0.963449                              0.036551
     381     Si       1          3.116915                              0.883085
     382     O        2          6.583086                             -0.583086
     383     C        3          4.228180                             -0.228180
     384     H        4          1.001179                             -0.001179
     385     H        4          0.984055                              0.015945
     386     H        4          0.978908                              0.021092
     387     C        3          4.224714                             -0.224714
     388     H        4          0.927890                              0.072110
     389     H        4          0.982585                              0.017415
     390     H        4          0.988033                              0.011967
     391     Si       1          3.289755                              0.710245
     392     O        2          6.608567                             -0.608567
     393     C        3          4.229657                             -0.229657
     394     H        4          0.984976                              0.015024
     395     H        4          0.966883                              0.033117
     396     H        4          0.976698                              0.023302
     397     C        3          4.256422                             -0.256422
     398     H        4          0.975883                              0.024117
     399     H        4          0.996453                              0.003547
     400     H        4          0.989974                              0.010026
     401     Si       1          3.132956                              0.867044
     402     C        3          4.416596                             -0.416596
     403     H        4          1.095129                             -0.095129
     404     H        4          0.996504                              0.003496
     405     H        4          0.963918                              0.036082
     406     C        3          4.228353                             -0.228353
     407     H        4          0.967785                              0.032215
     408     H        4          0.973534                              0.026466
     409     Si       1          3.343280                              0.656720
     410     O        2          6.563551                             -0.563551
     411     C        3          4.212709                             -0.212709
     412     H        4          0.984671                              0.015329
     413     H        4          0.977563                              0.022437
     414     H        4          0.986753                              0.013247
     415     C        3          4.212843                             -0.212843
     416     H        4          0.971219                              0.028781
     417     H        4          0.978515                              0.021485
     418     H        4          0.969164                              0.030836
     419     Si       1          3.109480                              0.890520
     420     O        2          6.592630                             -0.592630
     421     C        3          4.215589                             -0.215589
     422     H        4          0.975046                              0.024954
     423     H        4          0.974722                              0.025278
     424     H        4          0.960975                              0.039025
     425     C        3          4.227829                             -0.227829
     426     H        4          0.986647                              0.013353
     427     H        4          0.982206                              0.017794
     428     H        4          0.977417                              0.022583
     429     Si       1          3.130319                              0.869681
     430     O        2          6.535260                             -0.535260
     431     C        3          4.219734                             -0.219734
     432     H        4          0.976605                              0.023395
     433     H        4          0.988329                              0.011671
     434     H        4          0.979050                              0.020950
     435     C        3          4.227100                             -0.227100
     436     H        4          0.976344                              0.023656
     437     H        4          0.983903                              0.016097
     438     H        4          0.993387                              0.006613
     439     Si       1          3.082595                              0.917405
     440     O        2          6.590376                             -0.590376
     441     C        3          4.208444                             -0.208444
     442     H        4          0.966355                              0.033645
     443     H        4          0.969436                              0.030564
     444     H        4          0.971695                              0.028305
     445     C        3          4.225090                             -0.225090
     446     H        4          0.956135                              0.043865
     447     H        4          0.986141                              0.013859
     448     Si       1          3.120063                              0.879937
     449     O        2          6.581417                             -0.581417
     450     C        3          4.188348                             -0.188348
     451     H        4          1.005274                             -0.005274
     452     H        4          0.951979                              0.048021
     453     H        4          0.967905                              0.032095
     454     C        3          4.217073                             -0.217073
     455     H        4          0.984663                              0.015337
     456     H        4          0.979721                              0.020279
     457     H        4          0.971495                              0.028505
     458     Si       1          3.594836                              0.405164
     459     C        3          4.159636                             -0.159636
     460     H        4          0.965342                              0.034658
     461     H        4          0.991328                              0.008672
     462     C        3          4.168062                             -0.168062
     463     H        4          0.973905                              0.026095
     464     H        4          0.960573                              0.039427
     465     H        4          0.973119                              0.026881
     466     Si       1          3.246387                              0.753613
     467     O        2          6.546427                             -0.546427
     468     C        3          4.227580                             -0.227580
     469     H        4          0.977289                              0.022711
     470     H        4          0.978726                              0.021274
     471     H        4          0.972293                              0.027707
     472     C        3          4.205430                             -0.205430
     473     H        4          0.995471                              0.004529
     474     H        4          0.964974                              0.035026
     475     H        4          0.965857                              0.034143
     476     Si       1          3.121059                              0.878941
     477     O        2          6.578038                             -0.578038
     478     C        3          4.225487                             -0.225487
     479     H        4          0.987432                              0.012568
     480     H        4          0.960451                              0.039549
     481     H        4          0.975925                              0.024075
     482     C        3          4.214295                             -0.214295
     483     H        4          0.960754                              0.039246
     484     H        4          0.966292                              0.033708
     485     H        4          0.979842                              0.020158
     486     Si       1          3.139077                              0.860923
     487     O        2          6.553762                             -0.553762
     488     C        3          4.222989                             -0.222989
     489     H        4          0.982224                              0.017776
     490     H        4          0.954303                              0.045697
     491     H        4          0.982110                              0.017890
     492     C        3          4.231498                             -0.231498
     493     H        4          0.977785                              0.022215
     494     H        4          0.983017                              0.016983
     495     H        4          0.986445                              0.013555
     496     Si       1          3.049670                              0.950330
     497     O        2          6.621074                             -0.621074
     498     C        3          4.189033                             -0.189033
     499     H        4          0.950895                              0.049105
     500     H        4          0.978653                              0.021347
     501     C        3          4.256632                             -0.256632
     502     H        4          0.988379                              0.011621
     503     H        4          0.984441                              0.015559
     504     H        4          0.975930                              0.024070
     505     Si       1          3.142053                              0.857947
     506     O        2          6.528137                             -0.528137
     507     C        3          4.239072                             -0.239072
     508     H        4          0.979305                              0.020695
     509     H        4          0.989420                              0.010580
     510     H        4          0.962636                              0.037364
     511     C        3          4.197121                             -0.197121
     512     H        4          0.981574                              0.018426
     513     H        4          0.968852                              0.031148
     514     H        4          0.967678                              0.032322
     515     Si       1          3.227750                              0.772250
     516     C        3          4.212964                             -0.212964
     517     H        4          0.989875                              0.010125
     518     H        4          0.972365                              0.027635
     519     H        4          0.966722                              0.033278
     520     C        3          4.223641                             -0.223641
     521     H        4          0.998657                              0.001343
     522     H        4          0.970881                              0.029119
     523     H        4          0.988699                              0.011301
     524     O        2          6.536503                             -0.536503
     525     H        4          0.740922                              0.259078
     526     H        4          0.737354                              0.262646
     527     O        2          6.457162                             -0.457162
     528     H        4          0.751298                              0.248702
     529     H        4          0.770684                              0.229316
     530     O        2          6.499740                             -0.499740
     531     H        4          0.753599                              0.246401
     532     H        4          0.749048                              0.250952
     533     O        2          6.516333                             -0.516333
     534     H        4          0.752724                              0.247276
     535     H        4          0.747036                              0.252964
     536     O        2          6.446122                             -0.446122
     537     H        4          0.769041                              0.230959
     538     H        4          0.765384                              0.234616
     539     O        2          6.447963                             -0.447963
     540     H        4          0.757749                              0.242251
     541     H        4          0.771602                              0.228398
     542     O        2          6.500448                             -0.500448
     543     H        4          0.725432                              0.274568
     544     H        4          0.815038                              0.184962
     545     O        2          6.489232                             -0.489232
     546     H        4          0.774008                              0.225992
     547     H        4          0.723930                              0.276070
     548     O        2          6.473608                             -0.473608
     549     H        4          0.775735                              0.224265
     550     H        4          0.738205                              0.261795
     551     O        2          6.477605                             -0.477605
     552     H        4          0.790580                              0.209420
     553     H        4          0.738292                              0.261708
     554     O        2          6.505703                             -0.505703
     555     H        4          0.779480                              0.220520
     556     H        4          0.718225                              0.281775
     557     O        2          6.466065                             -0.466065
     558     H        4          0.784001                              0.215999
     559     H        4          0.737998                              0.262002
     560     O        2          6.508823                             -0.508823
     561     H        4          0.727298                              0.272702
     562     H        4          0.776518                              0.223482
     563     O        2          6.497560                             -0.497560
     564     H        4          0.750415                              0.249585
     565     H        4          0.748551                              0.251449
     566     O        2          6.555934                             -0.555934
     567     H        4          0.720832                              0.279168
     568     H        4          0.719109                              0.280891
     569     O        2          6.548368                             -0.548368
     570     H        4          0.735122                              0.264878
     571     H        4          0.739576                              0.260424
     572     O        2          6.477907                             -0.477907
     573     H        4          0.755966                              0.244034
     574     H        4          0.756736                              0.243264
     575     O        2          6.443952                             -0.443952
     576     H        4          0.789706                              0.210294
     577     H        4          0.746318                              0.253682
     578     O        2          6.508701                             -0.508701
     579     H        4          0.728046                              0.271954
     580     H        4          0.790656                              0.209344
     581     O        2          6.475940                             -0.475940
     582     H        4          0.782757                              0.217243
     583     H        4          0.789718                              0.210282
     584     O        2          6.551141                             -0.551141
     585     H        4          0.746341                              0.253659
     586     H        4          0.723597                              0.276403
     587     O        2          6.470280                             -0.470280
     588     H        4          0.748961                              0.251039
     589     H        4          0.793267                              0.206733
     590     O        2          6.451882                             -0.451882
     591     H        4          0.759918                              0.240082
     592     H        4          0.756551                              0.243449
     593     O        2          6.469710                             -0.469710
     594     H        4          0.749878                              0.250122
     595     H        4          0.787100                              0.212900
     596     O        2          6.492825                             -0.492825
     597     H        4          0.775063                              0.224937
     598     H        4          0.753318                              0.246682
     599     O        2          6.446908                             -0.446908
     600     H        4          0.772304                              0.227696
     601     H        4          0.725601                              0.274399
     602     O        2          6.460893                             -0.460893
     603     H        4          0.763513                              0.236487
     604     H        4          0.756373                              0.243627
     605     O        2          6.476834                             -0.476834
     606     H        4          0.766279                              0.233721
     607     H        4          0.757032                              0.242968
     608     O        2          6.365414                             -0.365414
     609     H        4          0.813015                              0.186985
     610     H        4          0.817200                              0.182800
     611     O        2          6.425654                             -0.425654
     612     H        4          0.776905                              0.223095
     613     H        4          0.789581                              0.210419
     614     O        2          6.472213                             -0.472213
     615     H        4          0.733570                              0.266430
     616     H        4          0.790260                              0.209740
     617     O        2          6.466505                             -0.466505
     618     H        4          0.739266                              0.260734
     619     H        4          0.767822                              0.232178
     620     O        2          6.469397                             -0.469397
     621     H        4          0.787139                              0.212861
     622     H        4          0.741004                              0.258996
     623     O        2          6.444372                             -0.444372
     624     H        4          0.788340                              0.211660
     625     H        4          0.747136                              0.252864
     626     O        2          6.401545                             -0.401545
     627     H        4          0.780753                              0.219247
     628     H        4          0.829565                              0.170435
     629     O        2          6.484958                             -0.484958
     630     H        4          0.726063                              0.273937
     631     H        4          0.761259                              0.238741
     632     O        2          6.492420                             -0.492420
     633     H        4          0.758812                              0.241188
     634     H        4          0.720132                              0.279868
     635     O        2          6.476420                             -0.476420
     636     H        4          0.788779                              0.211221
     637     H        4          0.744110                              0.255890
     638     O        2          6.437240                             -0.437240
     639     H        4          0.777250                              0.222750
     640     H        4          0.784271                              0.215729
     641     O        2          6.471729                             -0.471729
     642     H        4          0.788566                              0.211434
     643     H        4          0.740761                              0.259239
     644     O        2          6.484998                             -0.484998
     645     H        4          0.736905                              0.263095
     646     H        4          0.768342                              0.231658
     647     O        2          6.418658                             -0.418658
     648     H        4          0.796269                              0.203731
     649     H        4          0.787947                              0.212053
     650     O        2          6.472172                             -0.472172
     651     H        4          0.737935                              0.262065
     652     H        4          0.765966                              0.234034
     653     O        2          6.524983                             -0.524983
     654     H        4          0.722969                              0.277031
     655     H        4          0.792922                              0.207078
     656     O        2          6.494735                             -0.494735
     657     H        4          0.736981                              0.263019
     658     H        4          0.742666                              0.257334
     659     O        2          6.529444                             -0.529444
     660     H        4          0.719300                              0.280700
     661     H        4          0.766541                              0.233459
     662     O        2          6.430862                             -0.430862
     663     H        4          0.810483                              0.189517
     664     H        4          0.779644                              0.220356
     665     O        2          6.507202                             -0.507202
     666     H        4          0.738486                              0.261514
     667     H        4          0.780270                              0.219730
     668     O        2          6.525957                             -0.525957
     669     H        4          0.761542                              0.238458
     670     H        4          0.760837                              0.239163
     671     O        2          6.428922                             -0.428922
     672     H        4          0.777828                              0.222172
     673     H        4          0.771624                              0.228376
 # Total charge                           1634.000000                 -0.000000

 !-----------------------------------------------------------------------------!

 !-----------------------------------------------------------------------------!
                           Hirshfeld Charges

  #Atom  Element  Kind  Ref Charge     Population                    Net charge
      1       Si     1       4.000          4.086                        -0.086
      2       O      2       6.000          6.464                        -0.464
      3       C      3       4.000          5.177                        -1.177
      4       H      4       1.000          0.533                         0.467
      5       H      4       1.000          0.544                         0.456
      6       H      4       1.000          0.542                         0.458
      7       C      3       4.000          5.781                        -1.781
      8       H      4       1.000          0.550                         0.450
      9       H      4       1.000          0.548                         0.452
     10       H      4       1.000          0.553                         0.447
     11       Si     1       4.000          3.836                         0.164
     12       O      2       6.000          6.417                        -0.417
     13       C      3       4.000          4.596                        -0.596
     14       H      4       1.000          0.544                         0.456
     15       H      4       1.000          0.558                         0.442
     16       H      4       1.000          0.546                         0.454
     17       C      3       4.000          5.205                        -1.205
     18       H      4       1.000          0.541                         0.459
     19       H      4       1.000          0.542                         0.458
     20       H      4       1.000          0.539                         0.461
     21       Si     1       4.000          3.863                         0.137
     22       O      2       6.000          6.431                        -0.431
     23       C      3       4.000          5.228                        -1.228
     24       H      4       1.000          0.546                         0.454
     25       H      4       1.000          0.548                         0.452
     26       H      4       1.000          0.546                         0.454
     27       C      3       4.000          4.999                        -0.999
     28       H      4       1.000          0.556                         0.444
     29       H      4       1.000          0.540                         0.460
     30       H      4       1.000          0.541                         0.459
     31       Si     1       4.000          4.108                        -0.108
     32       O      2       6.000          6.618                        -0.618
     33       C      3       4.000          5.766                        -1.766
     34       H      4       1.000          0.547                         0.453
     35       H      4       1.000          0.554                         0.446
     36       H      4       1.000          0.547                         0.453
     37       C      3       4.000          5.191                        -1.191
     38       H      4       1.000          0.550                         0.450
     39       H      4       1.000          0.539                         0.461
     40       H      4       1.000          0.544                         0.456
     41       Si     1       4.000          3.655                         0.345
     42       O      2       6.000          6.419                        -0.419
     43       C      3       4.000          4.674                        -0.674
     44       H      4       1.000          0.535                         0.465
     45       H      4       1.000          0.857                         0.143
     46       H      4       1.000          0.530                         0.470
     47       C      3       4.000          5.527                        -1.527
     48       H      4       1.000          0.542                         0.458
     49       H      4       1.000          0.543                         0.457
     50       H      4       1.000          0.540                         0.460
     51       Si     1       4.000          4.003                        -0.003
     52       C      3       4.000          5.178                        -1.178
     53       H      4       1.000          0.543                         0.457
     54       H      4       1.000          0.541                         0.459
     55       H      4       1.000          0.540                         0.460
     56       C      3       4.000          5.204                        -1.204
     57       H      4       1.000          0.540                         0.460
     58       H      4       1.000          0.548                         0.452
     59       H      4       1.000          0.545                         0.455
     60       Si     1       4.000          3.993                         0.007
     61       O      2       6.000          6.452                        -0.452
     62       C      3       4.000          4.466                        -0.466
     63       H      4       1.000          0.525                         0.475
     64       H      4       1.000          0.938                         0.062
     65       H      4       1.000          0.915                         0.085
     66       C      3       4.000          5.143                        -1.143
     67       H      4       1.000          0.541                         0.459
     68       H      4       1.000          0.535                         0.465
     69       H      4       1.000          0.540                         0.460
     70       Si     1       4.000          3.754                         0.246
     71       O      2       6.000          6.428                        -0.428
     72       C      3       4.000          5.310                        -1.310
     73       H      4       1.000          0.563                         0.437
     74       H      4       1.000          0.552                         0.448
     75       H      4       1.000          0.560                         0.440
     76       C      3       4.000          5.190                        -1.190
     77       H      4       1.000          0.543                         0.457
     78       H      4       1.000          0.540                         0.460
     79       H      4       1.000          0.546                         0.454
     80       Si     1       4.000          3.958                         0.042
     81       O      2       6.000          6.420                        -0.420
     82       C      3       4.000          5.310                        -1.310
     83       H      4       1.000          0.564                         0.436
     84       H      4       1.000          0.555                         0.445
     85       H      4       1.000          0.559                         0.441
     86       C      3       4.000          5.203                        -1.203
     87       H      4       1.000          0.545                         0.455
     88       H      4       1.000          0.546                         0.454
     89       H      4       1.000          0.544                         0.456
     90       Si     1       4.000          3.846                         0.154
     91       O      2       6.000          6.423                        -0.423
     92       C      3       4.000          5.188                        -1.188
     93       H      4       1.000          0.542                         0.458
     94       H      4       1.000          0.545                         0.455
     95       H      4       1.000          0.545                         0.455
     96       C      3       4.000          4.705                        -0.705
     97       H      4       1.000          0.546                         0.454
     98       H      4       1.000          0.549                         0.451
     99       Si     1       4.000          4.125                        -0.125
    100       O      2       6.000          6.571                        -0.571
    101       C      3       4.000          5.790                        -1.790
    102       H      4       1.000          0.551                         0.449
    103       H      4       1.000          0.545                         0.455
    104       H      4       1.000          0.555                         0.445
    105       C      3       4.000          5.198                        -1.198
    106       H      4       1.000          0.542                         0.458
    107       H      4       1.000          0.549                         0.451
    108       H      4       1.000          0.542                         0.458
    109       Si     1       4.000          4.024                        -0.024
    110       C      3       4.000          5.153                        -1.153
    111       H      4       1.000          0.544                         0.456
    112       H      4       1.000          0.532                         0.468
    113       H      4       1.000          0.539                         0.461
    114       C      3       4.000          4.715                        -0.715
    115       H      4       1.000          0.558                         0.442
    116       H      4       1.000          0.540                         0.460
    117       H      4       1.000          0.536                         0.464
    118       Si     1       4.000          4.426                        -0.426
    119       O      2       6.000          6.432                        -0.432
    120       C      3       4.000          5.243                        -1.243
    121       H      4       1.000          0.541                         0.459
    122       H      4       1.000          0.549                         0.451
    123       H      4       1.000          0.545                         0.455
    124       C      3       4.000          5.235                        -1.235
    125       H      4       1.000          0.548                         0.452
    126       H      4       1.000          0.542                         0.458
    127       H      4       1.000          0.550                         0.450
    128       Si     1       4.000          3.804                         0.196
    129       O      2       6.000          6.438                        -0.438
    130       C      3       4.000          5.247                        -1.247
    131       H      4       1.000          0.548                         0.452
    132       H      4       1.000          0.548                         0.452
    133       H      4       1.000          0.546                         0.454
    134       C      3       4.000          5.245                        -1.245
    135       H      4       1.000          0.547                         0.453
    136       H      4       1.000          0.538                         0.462
    137       H      4       1.000          0.550                         0.450
    138       Si     1       4.000          3.903                         0.097
    139       O      2       6.000          6.404                        -0.404
    140       C      3       4.000          5.487                        -1.487
    141       H      4       1.000          0.538                         0.462
    142       H      4       1.000          0.540                         0.460
    143       H      4       1.000          0.538                         0.462
    144       C      3       4.000          5.153                        -1.153
    145       H      4       1.000          0.540                         0.460
    146       H      4       1.000          0.542                         0.458
    147       H      4       1.000          0.540                         0.460
    148       Si     1       4.000          3.824                         0.176
    149       O      2       6.000          6.411                        -0.411
    150       C      3       4.000          4.403                        -0.403
    151       H      4       1.000          0.543                         0.457
    152       H      4       1.000          0.540                         0.460
    153       C      3       4.000          5.780                        -1.780
    154       H      4       1.000          0.557                         0.443
    155       H      4       1.000          0.547                         0.453
    156       H      4       1.000          0.554                         0.446
    157       Si     1       4.000          3.946                         0.054
    158       O      2       6.000          6.460                        -0.460
    159       C      3       4.000          5.194                        -1.194
    160       H      4       1.000          0.540                         0.460
    161       H      4       1.000          0.551                         0.449
    162       H      4       1.000          0.541                         0.459
    163       C      3       4.000          5.222                        -1.222
    164       H      4       1.000          0.547                         0.453
    165       H      4       1.000          0.545                         0.455
    166       H      4       1.000          0.540                         0.460
    167       Si     1       4.000          4.706                        -0.706
    168       C      3       4.000          5.182                        -1.182
    169       H      4       1.000          0.547                         0.453
    170       H      4       1.000          0.545                         0.455
    171       H      4       1.000          0.543                         0.457
    172       C      3       4.000          4.977                        -0.977
    173       H      4       1.000          0.561                         0.439
    174       H      4       1.000          0.540                         0.460
    175       H      4       1.000          0.558                         0.442
    176       Si     1       4.000          4.196                        -0.196
    177       O      2       6.000          6.432                        -0.432
    178       C      3       4.000          5.228                        -1.228
    179       H      4       1.000          0.548                         0.452
    180       H      4       1.000          0.545                         0.455
    181       H      4       1.000          0.544                         0.456
    182       C      3       4.000          5.213                        -1.213
    183       H      4       1.000          0.543                         0.457
    184       H      4       1.000          0.546                         0.454
    185       H      4       1.000          0.545                         0.455
    186       Si     1       4.000          3.869                         0.131
    187       O      2       6.000          6.398                        -0.398
    188       C      3       4.000          5.203                        -1.203
    189       H      4       1.000          0.541                         0.459
    190       H      4       1.000          0.547                         0.453
    191       H      4       1.000          0.542                         0.458
    192       C      3       4.000          5.195                        -1.195
    193       H      4       1.000          0.542                         0.458
    194       H      4       1.000          0.544                         0.456
    195       H      4       1.000          0.541                         0.459
    196       Si     1       4.000          3.759                         0.241
    197       O      2       6.000          6.403                        -0.403
    198       C      3       4.000          5.094                        -1.094
    199       H      4       1.000          0.534                         0.466
    200       H      4       1.000          0.524                         0.476
    201       H      4       1.000          0.532                         0.468
    202       C      3       4.000          5.010                        -1.010
    203       H      4       1.000          0.532                         0.468
    204       H      4       1.000          0.545                         0.455
    205       H      4       1.000          0.541                         0.459
    206       Si     1       4.000          3.829                         0.171
    207       O      2       6.000          6.442                        -0.442
    208       C      3       4.000          5.174                        -1.174
    209       H      4       1.000          0.539                         0.461
    210       H      4       1.000          0.545                         0.455
    211       H      4       1.000          0.539                         0.461
    212       C      3       4.000          5.183                        -1.183
    213       H      4       1.000          0.538                         0.462
    214       H      4       1.000          0.542                         0.458
    215       H      4       1.000          0.544                         0.456
    216       Si     1       4.000          3.868                         0.132
    217       O      2       6.000          6.441                        -0.441
    218       C      3       4.000          5.194                        -1.194
    219       H      4       1.000          0.546                         0.454
    220       H      4       1.000          0.541                         0.459
    221       H      4       1.000          0.545                         0.455
    222       C      3       4.000          5.213                        -1.213
    223       H      4       1.000          0.542                         0.458
    224       H      4       1.000          0.547                         0.453
    225       H      4       1.000          0.548                         0.452
    226       Si     1       4.000          4.297                        -0.297
    227       C      3       4.000          5.221                        -1.221
    228       H      4       1.000          0.548                         0.452
    229       H      4       1.000          0.547                         0.453
    230       H      4       1.000          0.544                         0.456
    231       C      3       4.000          4.769                        -0.769
    232       H      4       1.000          0.556                         0.444
    233       H      4       1.000          0.555                         0.445
    234       Si     1       4.000          4.046                        -0.046
    235       O      2       6.000          6.447                        -0.447
    236       C      3       4.000          5.255                        -1.255
    237       H      4       1.000          0.550                         0.450
    238       H      4       1.000          0.549                         0.451
    239       H      4       1.000          0.544                         0.456
    240       C      3       4.000          5.099                        -1.099
    241       H      4       1.000          0.542                         0.458
    242       H      4       1.000          0.540                         0.460
    243       H      4       1.000          0.552                         0.448
    244       Si     1       4.000          3.890                         0.110
    245       O      2       6.000          6.457                        -0.457
    246       C      3       4.000          5.215                        -1.215
    247       H      4       1.000          0.544                         0.456
    248       H      4       1.000          0.547                         0.453
    249       H      4       1.000          0.543                         0.457
    250       C      3       4.000          5.213                        -1.213
    251       H      4       1.000          0.544                         0.456
    252       H      4       1.000          0.545                         0.455
    253       H      4       1.000          0.546                         0.454
    254       Si     1       4.000          3.844                         0.156
    255       O      2       6.000          6.439                        -0.439
    256       C      3       4.000          5.202                        -1.202
    257       H      4       1.000          0.545                         0.455
    258       H      4       1.000          0.544                         0.456
    259       H      4       1.000          0.543                         0.457
    260       C      3       4.000          5.064                        -1.064
    261       H      4       1.000          0.542                         0.458
    262       H      4       1.000          0.537                         0.463
    263       H      4       1.000          0.545                         0.455
    264       Si     1       4.000          3.834                         0.166
    265       O      2       6.000          6.435                        -0.435
    266       C      3       4.000          5.194                        -1.194
    267       H      4       1.000          0.541                         0.459
    268       H      4       1.000          0.545                         0.455
    269       H      4       1.000          0.548                         0.452
    270       C      3       4.000          5.169                        -1.169
    271       H      4       1.000          0.540                         0.460
    272       H      4       1.000          0.538                         0.462
    273       H      4       1.000          0.543                         0.457
    274       Si     1       4.000          3.901                         0.099
    275       O      2       6.000          6.445                        -0.445
    276       C      3       4.000          5.069                        -1.069
    277       H      4       1.000          0.537                         0.463
    278       H      4       1.000          0.534                         0.466
    279       H      4       1.000          0.539                         0.461
    280       C      3       4.000          4.773                        -0.773
    281       H      4       1.000          0.518                         0.482
    282       H      4       1.000          0.517                         0.483
    283       H      4       1.000          0.514                         0.486
    284       Si     1       4.000          4.150                        -0.150
    285       C      3       4.000          4.759                        -0.759
    286       H      4       1.000          0.554                         0.446
    287       H      4       1.000          0.560                         0.440
    288       C      3       4.000          5.226                        -1.226
    289       H      4       1.000          0.542                         0.458
    290       H      4       1.000          0.546                         0.454
    291       H      4       1.000          0.544                         0.456
    292       Si     1       4.000          4.176                        -0.176
    293       O      2       6.000          6.411                        -0.411
    294       C      3       4.000          5.208                        -1.208
    295       H      4       1.000          0.544                         0.456
    296       H      4       1.000          0.544                         0.456
    297       H      4       1.000          0.543                         0.457
    298       C      3       4.000          5.216                        -1.216
    299       H      4       1.000          0.543                         0.457
    300       H      4       1.000          0.548                         0.452
    301       H      4       1.000          0.545                         0.455
    302       Si     1       4.000          3.794                         0.206
    303       O      2       6.000          6.417                        -0.417
    304       C      3       4.000          5.172                        -1.172
    305       H      4       1.000          0.535                         0.465
    306       H      4       1.000          0.534                         0.466
    307       H      4       1.000          0.539                         0.461
    308       C      3       4.000          4.984                        -0.984
    309       H      4       1.000          0.541                         0.459
    310       H      4       1.000          0.540                         0.460
    311       H      4       1.000          0.535                         0.465
    312       Si     1       4.000          4.299                        -0.299
    313       O      2       6.000          6.450                        -0.450
    314       C      3       4.000          4.995                        -0.995
    315       H      4       1.000          0.539                         0.461
    316       H      4       1.000          0.553                         0.447
    317       H      4       1.000          0.539                         0.461
    318       C      3       4.000          5.146                        -1.146
    319       H      4       1.000          0.545                         0.455
    320       H      4       1.000          0.545                         0.455
    321       H      4       1.000          0.548                         0.452
    322       Si     1       4.000          3.888                         0.112
    323       O      2       6.000          6.450                        -0.450
    324       C      3       4.000          5.218                        -1.218
    325       H      4       1.000          0.546                         0.454
    326       H      4       1.000          0.548                         0.452
    327       H      4       1.000          0.542                         0.458
    328       C      3       4.000          5.218                        -1.218
    329       H      4       1.000          0.546                         0.454
    330       H      4       1.000          0.541                         0.459
    331       H      4       1.000          0.547                         0.453
    332       Si     1       4.000          3.854                         0.146
    333       O      2       6.000          6.438                        -0.438
    334       C      3       4.000          5.197                        -1.197
    335       H      4       1.000          0.544                         0.456
    336       H      4       1.000          0.544                         0.456
    337       H      4       1.000          0.541                         0.459
    338       C      3       4.000          5.193                        -1.193
    339       H      4       1.000          0.540                         0.460
    340       H      4       1.000          0.545                         0.455
    341       H      4       1.000          0.544                         0.456
    342       Si     1       4.000          4.178                        -0.178
    343       C      3       4.000          5.189                        -1.189
    344       H      4       1.000          0.542                         0.458
    345       H      4       1.000          0.539                         0.461
    346       H      4       1.000          0.543                         0.457
    347       C      3       4.000          5.183                        -1.183
    348       H      4       1.000          0.540                         0.460
    349       H      4       1.000          0.543                         0.457
    350       H      4       1.000          0.538                         0.462
    351       Si     1       4.000          4.070                        -0.070
    352       O      2       6.000          6.429                        -0.429
    353       C      3       4.000          4.670                        -0.670
    354       H      4       1.000          0.552                         0.448
    355       H      4       1.000          0.531                         0.469
    356       H      4       1.000          0.535                         0.465
    357       C      3       4.000          5.178                        -1.178
    358       H      4       1.000          0.541                         0.459
    359       H      4       1.000          0.541                         0.459
    360       H      4       1.000          0.545                         0.455
    361       Si     1       4.000          3.852                         0.148
    362       O      2       6.000          6.453                        -0.453
    363       C      3       4.000          5.197                        -1.197
    364       H      4       1.000          0.544                         0.456
    365       H      4       1.000          0.542                         0.458
    366       H      4       1.000          0.548                         0.452
    367       C      3       4.000          5.209                        -1.209
    368       H      4       1.000          0.547                         0.453
    369       H      4       1.000          0.550                         0.450
    370       H      4       1.000          0.543                         0.457
    371       Si     1       4.000          3.840                         0.160
    372       O      2       6.000          6.438                        -0.438
    373       C      3       4.000          5.184                        -1.184
    374       H      4       1.000          0.546                         0.454
    375       H      4       1.000          0.537                         0.463
    376       H      4       1.000          0.544                         0.456
    377       C      3       4.000          5.183                        -1.183
    378       H      4       1.000          0.544                         0.456
    379       H      4       1.000          0.545                         0.455
    380       H      4       1.000          0.542                         0.458
    381       Si     1       4.000          3.838                         0.162
    382       O      2       6.000          6.447                        -0.447
    383       C      3       4.000          5.192                        -1.192
    384       H      4       1.000          0.551                         0.449
    385       H      4       1.000          0.549                         0.451
    386       H      4       1.000          0.547                         0.453
    387       C      3       4.000          5.176                        -1.176
    388       H      4       1.000          0.525                         0.475
    389       H      4       1.000          0.546                         0.454
    390       H      4       1.000          0.548                         0.452
    391       Si     1       4.000          3.716                         0.284
    392       O      2       6.000          6.443                        -0.443
    393       C      3       4.000          5.224                        -1.224
    394       H      4       1.000          0.549                         0.451
    395       H      4       1.000          0.544                         0.456
    396       H      4       1.000          0.547                         0.453
    397       C      3       4.000          5.214                        -1.214
    398       H      4       1.000          0.548                         0.452
    399       H      4       1.000          0.553                         0.447
    400       H      4       1.000          0.549                         0.451
    401       Si     1       4.000          4.156                        -0.156
    402       C      3       4.000          4.954                        -0.954
    403       H      4       1.000          0.554                         0.446
    404       H      4       1.000          0.546                         0.454
    405       H      4       1.000          0.536                         0.464
    406       C      3       4.000          4.764                        -0.764
    407       H      4       1.000          0.551                         0.449
    408       H      4       1.000          0.552                         0.448
    409       Si     1       4.000          4.588                        -0.588
    410       O      2       6.000          6.452                        -0.452
    411       C      3       4.000          5.227                        -1.227
    412       H      4       1.000          0.547                         0.453
    413       H      4       1.000          0.547                         0.453
    414       H      4       1.000          0.547                         0.453
    415       C      3       4.000          5.220                        -1.220
    416       H      4       1.000          0.544                         0.456
    417       H      4       1.000          0.544                         0.456
    418       H      4       1.000          0.544                         0.456
    419       Si     1       4.000          3.859                         0.141
    420       O      2       6.000          6.446                        -0.446
    421       C      3       4.000          5.196                        -1.196
    422       H      4       1.000          0.545                         0.455
    423       H      4       1.000          0.544                         0.456
    424       H      4       1.000          0.541                         0.459
    425       C      3       4.000          5.229                        -1.229
    426       H      4       1.000          0.548                         0.452
    427       H      4       1.000          0.546                         0.454
    428       H      4       1.000          0.546                         0.454
    429       Si     1       4.000          3.858                         0.142
    430       O      2       6.000          6.446                        -0.446
    431       C      3       4.000          5.201                        -1.201
    432       H      4       1.000          0.545                         0.455
    433       H      4       1.000          0.549                         0.451
    434       H      4       1.000          0.546                         0.454
    435       C      3       4.000          5.227                        -1.227
    436       H      4       1.000          0.545                         0.455
    437       H      4       1.000          0.547                         0.453
    438       H      4       1.000          0.551                         0.449
    439       Si     1       4.000          3.873                         0.127
    440       O      2       6.000          6.450                        -0.450
    441       C      3       4.000          5.200                        -1.200
    442       H      4       1.000          0.542                         0.458
    443       H      4       1.000          0.542                         0.458
    444       H      4       1.000          0.542                         0.458
    445       C      3       4.000          4.715                        -0.715
    446       H      4       1.000          0.548                         0.452
    447       H      4       1.000          0.556                         0.444
    448       Si     1       4.000          3.864                         0.136
    449       O      2       6.000          6.441                        -0.441
    450       C      3       4.000          5.109                        -1.109
    451       H      4       1.000          0.546                         0.454
    452       H      4       1.000          0.537                         0.463
    453       H      4       1.000          0.542                         0.458
    454       C      3       4.000          5.208                        -1.208
    455       H      4       1.000          0.547                         0.453
    456       H      4       1.000          0.546                         0.454
    457       H      4       1.000          0.544                         0.456
    458       Si     1       4.000          4.262                        -0.262
    459       C      3       4.000          4.698                        -0.698
    460       H      4       1.000          0.552                         0.448
    461       H      4       1.000          0.558                         0.442
    462       C      3       4.000          5.200                        -1.200
    463       H      4       1.000          0.542                         0.458
    464       H      4       1.000          0.540                         0.460
    465       H      4       1.000          0.546                         0.454
    466       Si     1       4.000          4.080                        -0.080
    467       O      2       6.000          6.444                        -0.444
    468       C      3       4.000          5.213                        -1.213
    469       H      4       1.000          0.546                         0.454
    470       H      4       1.000          0.547                         0.453
    471       H      4       1.000          0.545                         0.455
    472       C      3       4.000          5.195                        -1.195
    473       H      4       1.000          0.551                         0.449
    474       H      4       1.000          0.542                         0.458
    475       H      4       1.000          0.542                         0.458
    476       Si     1       4.000          3.852                         0.148
    477       O      2       6.000          6.457                        -0.457
    478       C      3       4.000          5.201                        -1.201
    479       H      4       1.000          0.548                         0.452
    480       H      4       1.000          0.543                         0.457
    481       H      4       1.000          0.545                         0.455
    482       C      3       4.000          5.204                        -1.204
    483       H      4       1.000          0.539                         0.461
    484       H      4       1.000          0.543                         0.457
    485       H      4       1.000          0.546                         0.454
    486       Si     1       4.000          3.893                         0.107
    487       O      2       6.000          6.448                        -0.448
    488       C      3       4.000          5.208                        -1.208
    489       H      4       1.000          0.547                         0.453
    490       H      4       1.000          0.539                         0.461
    491       H      4       1.000          0.547                         0.453
    492       C      3       4.000          5.228                        -1.228
    493       H      4       1.000          0.545                         0.455
    494       H      4       1.000          0.548                         0.452
    495       H      4       1.000          0.548                         0.452
    496       Si     1       4.000          3.896                         0.104
    497       O      2       6.000          6.453                        -0.453
    498       C      3       4.000          4.714                        -0.714
    499       H      4       1.000          0.547                         0.453
    500       H      4       1.000          0.555                         0.445
    501       C      3       4.000          5.249                        -1.249
    502       H      4       1.000          0.548                         0.452
    503       H      4       1.000          0.547                         0.453
    504       H      4       1.000          0.545                         0.455
    505       Si     1       4.000          3.864                         0.136
    506       O      2       6.000          6.444                        -0.444
    507       C      3       4.000          5.182                        -1.182
    508       H      4       1.000          0.547                         0.453
    509       H      4       1.000          0.550                         0.450
    510       H      4       1.000          0.540                         0.460
    511       C      3       4.000          5.195                        -1.195
    512       H      4       1.000          0.547                         0.453
    513       H      4       1.000          0.542                         0.458
    514       H      4       1.000          0.542                         0.458
    515       Si     1       4.000          4.163                        -0.163
    516       C      3       4.000          5.214                        -1.214
    517       H      4       1.000          0.549                         0.451
    518       H      4       1.000          0.545                         0.455
    519       H      4       1.000          0.543                         0.457
    520       C      3       4.000          5.228                        -1.228
    521       H      4       1.000          0.552                         0.448
    522       H      4       1.000          0.544                         0.456
    523       H      4       1.000          0.548                         0.452
    524       O      2       6.000          7.148                        -1.148
    525       H      4       1.000          0.425                         0.575
    526       H      4       1.000          0.418                         0.582
    527       O      2       6.000          7.140                        -1.140
    528       H      4       1.000          0.424                         0.576
    529       H      4       1.000          0.427                         0.573
    530       O      2       6.000          7.180                        -1.180
    531       H      4       1.000          0.428                         0.572
    532       H      4       1.000          0.418                         0.582
    533       O      2       6.000          7.148                        -1.148
    534       H      4       1.000          0.422                         0.578
    535       H      4       1.000          0.420                         0.580
    536       O      2       6.000          7.104                        -1.104
    537       H      4       1.000          0.435                         0.565
    538       H      4       1.000          0.434                         0.566
    539       O      2       6.000          7.126                        -1.126
    540       H      4       1.000          0.432                         0.568
    541       H      4       1.000          0.435                         0.565
    542       O      2       6.000          7.213                        -1.213
    543       H      4       1.000          0.404                         0.596
    544       H      4       1.000          0.436                         0.564
    545       O      2       6.000          7.146                        -1.146
    546       H      4       1.000          0.436                         0.564
    547       H      4       1.000          0.408                         0.592
    548       O      2       6.000          7.134                        -1.134
    549       H      4       1.000          0.438                         0.562
    550       H      4       1.000          0.423                         0.577
    551       O      2       6.000          7.101                        -1.101
    552       H      4       1.000          0.442                         0.558
    553       H      4       1.000          0.418                         0.582
    554       O      2       6.000          7.163                        -1.163
    555       H      4       1.000          0.436                         0.564
    556       H      4       1.000          0.405                         0.595
    557       O      2       6.000          7.090                        -1.090
    558       H      4       1.000          0.437                         0.563
    559       H      4       1.000          0.422                         0.578
    560       O      2       6.000          7.126                        -1.126
    561       H      4       1.000          0.418                         0.582
    562       H      4       1.000          0.439                         0.561
    563       O      2       6.000          7.175                        -1.175
    564       H      4       1.000          0.426                         0.574
    565       H      4       1.000          0.420                         0.580
    566       O      2       6.000          7.163                        -1.163
    567       H      4       1.000          0.413                         0.587
    568       H      4       1.000          0.410                         0.590
    569       O      2       6.000          7.176                        -1.176
    570       H      4       1.000          0.414                         0.586
    571       H      4       1.000          0.418                         0.582
    572       O      2       6.000          7.116                        -1.116
    573       H      4       1.000          0.429                         0.571
    574       H      4       1.000          0.430                         0.570
    575       O      2       6.000          7.103                        -1.103
    576       H      4       1.000          0.438                         0.562
    577       H      4       1.000          0.427                         0.573
    578       O      2       6.000          7.169                        -1.169
    579       H      4       1.000          0.408                         0.592
    580       H      4       1.000          0.432                         0.568
    581       O      2       6.000          7.147                        -1.147
    582       H      4       1.000          0.428                         0.572
    583       H      4       1.000          0.437                         0.563
    584       O      2       6.000          7.185                        -1.185
    585       H      4       1.000          0.421                         0.579
    586       H      4       1.000          0.405                         0.595
    587       O      2       6.000          7.084                        -1.084
    588       H      4       1.000          0.420                         0.580
    589       H      4       1.000          0.441                         0.559
    590       O      2       6.000          7.144                        -1.144
    591       H      4       1.000          0.432                         0.568
    592       H      4       1.000          0.432                         0.568
    593       O      2       6.000          7.109                        -1.109
    594       H      4       1.000          0.422                         0.578
    595       H      4       1.000          0.440                         0.560
    596       O      2       6.000          7.111                        -1.111
    597       H      4       1.000          0.436                         0.564
    598       H      4       1.000          0.426                         0.574
    599       O      2       6.000          7.106                        -1.106
    600       H      4       1.000          0.436                         0.564
    601       H      4       1.000          0.416                         0.584
    602       O      2       6.000          7.196                        -1.196
    603       H      4       1.000          0.428                         0.572
    604       H      4       1.000          0.430                         0.570
    605       O      2       6.000          7.148                        -1.148
    606       H      4       1.000          0.423                         0.577
    607       H      4       1.000          0.424                         0.576
    608       O      2       6.000          7.167                        -1.167
    609       H      4       1.000          0.431                         0.569
    610       H      4       1.000          0.432                         0.568
    611       O      2       6.000          7.159                        -1.159
    612       H      4       1.000          0.434                         0.566
    613       H      4       1.000          0.437                         0.563
    614       O      2       6.000          7.161                        -1.161
    615       H      4       1.000          0.410                         0.590
    616       H      4       1.000          0.432                         0.568
    617       O      2       6.000          7.135                        -1.135
    618       H      4       1.000          0.422                         0.578
    619       H      4       1.000          0.431                         0.569
    620       O      2       6.000          7.155                        -1.155
    621       H      4       1.000          0.433                         0.567
    622       H      4       1.000          0.413                         0.587
    623       O      2       6.000          7.105                        -1.105
    624       H      4       1.000          0.436                         0.564
    625       H      4       1.000          0.421                         0.579
    626       O      2       6.000          7.125                        -1.125
    627       H      4       1.000          0.434                         0.566
    628       H      4       1.000          0.444                         0.556
    629       O      2       6.000          7.137                        -1.137
    630       H      4       1.000          0.409                         0.591
    631       H      4       1.000          0.432                         0.568
    632       O      2       6.000          7.119                        -1.119
    633       H      4       1.000          0.430                         0.570
    634       H      4       1.000          0.412                         0.588
    635       O      2       6.000          7.165                        -1.165
    636       H      4       1.000          0.433                         0.567
    637       H      4       1.000          0.414                         0.586
    638       O      2       6.000          7.164                        -1.164
    639       H      4       1.000          0.432                         0.568
    640       H      4       1.000          0.438                         0.562
    641       O      2       6.000          7.101                        -1.101
    642       H      4       1.000          0.441                         0.559
    643       H      4       1.000          0.425                         0.575
    644       O      2       6.000          7.134                        -1.134
    645       H      4       1.000          0.411                         0.589
    646       H      4       1.000          0.433                         0.567
    647       O      2       6.000          7.188                        -1.188
    648       H      4       1.000          0.433                         0.567
    649       H      4       1.000          0.431                         0.569
    650       O      2       6.000          7.121                        -1.121
    651       H      4       1.000          0.414                         0.586
    652       H      4       1.000          0.432                         0.568
    653       O      2       6.000          7.213                        -1.213
    654       H      4       1.000          0.409                         0.591
    655       H      4       1.000          0.432                         0.568
    656       O      2       6.000          7.120                        -1.120
    657       H      4       1.000          0.417                         0.583
    658       H      4       1.000          0.423                         0.577
    659       O      2       6.000          7.183                        -1.183
    660       H      4       1.000          0.404                         0.596
    661       H      4       1.000          0.432                         0.568
    662       O      2       6.000          7.235                        -1.235
    663       H      4       1.000          0.431                         0.569
    664       H      4       1.000          0.428                         0.572
    665       O      2       6.000          7.191                        -1.191
    666       H      4       1.000          0.413                         0.587
    667       H      4       1.000          0.435                         0.565
    668       O      2       6.000          7.155                        -1.155
    669       H      4       1.000          0.419                         0.581
    670       H      4       1.000          0.424                         0.576
    671       O      2       6.000          7.103                        -1.103
    672       H      4       1.000          0.438                         0.562
    673       H      4       1.000          0.436                         0.564

  Total Charge                                                            0.244
 !-----------------------------------------------------------------------------!

 ENERGY| Total FORCE_EVAL ( QS ) energy [hartree]          -2592.949478506552168

 OPT| **************************************************************************
 OPT| Step number                                                              0
 OPT| Optimization method                                                   BFGS
 OPT| Total energy [hartree]                                    -2592.9494785066
 OPT| Used time [s]                                                      231.475
 OPT| **************************************************************************
 OPT| Estimated peak process memory [MiB]                                    648

 --------------------------
 OPTIMIZATION STEP:      1
 --------------------------

 Number of electrons:                                                       1634
 Number of occupied orbitals:                                                817
 Number of molecular orbitals:                                               817

 Number of orbital functions:                                               6865
 Number of independent orbital functions:                                   6865

 Parameters for the always stable predictor-corrector (ASPC) method:

  ASPC order: 0

  B(1) =   1.000000

 Extrapolation method: ASPC


 SCF WAVEFUNCTION OPTIMIZATION

  ----------------------------------- OT ---------------------------------------
  Minimizer      : CG                  : conjugate gradient
  Preconditioner : FULL_KINETIC        : inversion of T + eS
  Precond_solver : DEFAULT
  Line search : ADPT : UNKNOWN
  stepsize       :    0.01000000                  energy_gap     :    0.01000000
  eps_taylor     :   0.10000E-15                  max_taylor     :             4
  ----------------------------------- OT ---------------------------------------

  Step     Update method      Time    Convergence         Total energy    Change
  ------------------------------------------------------------------------------
     1 OT CG       0.20E-01    2.7     0.00142665     -2592.9277535900 -2.59E+03
     - OT LS       0.40E-01    1.7                    -2593.1314063199
     - OT LS       0.80E-01    1.7                    -2593.2704579125
     - OT LS       0.16E+00    1.7                    -2593.3820195030
     - OT LS       0.12E+00    1.7                    -2592.8104386457
     - OT LS       0.66E-01    1.7                    -2592.7904230237
     2 OT CG       0.13E+00    3.0     0.00080501     -2593.3629192560 -4.35E-01
     - OT LS       0.27E+00    1.7                    -2593.7526475541
     - OT LS       0.53E+00    1.7                    -2593.9046884245
     - OT LS       0.40E+00    1.7                    -2593.5517344830
     - OT LS       0.29E+00    1.7                    -2593.8336796542
     3 OT CG       0.58E+00    3.0     0.00073323     -2593.9080714744 -5.45E-01
     - OT LS       0.29E+00    1.7                    -2593.1132333528
     - OT LS       0.14E+00    1.7                    -2593.6388977782
     - OT LS       0.12E+00    1.7                    -2594.1800748346
     4 OT CG       0.24E+00    3.0     0.00049571     -2594.1563729225 -2.48E-01
     - OT LS       0.48E+00    1.7                    -2594.3701469953
     - OT LS       0.36E+00    1.7                    -2594.3010681261
     - OT LS       0.31E+00    1.7                    -2594.3734428175
     5 OT CG       0.61E+00    3.0     0.00042164     -2594.3809760816 -2.25E-01
     - OT LS       0.31E+00    1.7                    -2593.9826564416
     - OT LS       0.22E+00    1.7                    -2594.5518145912
     6 OT CG       0.45E+00    3.0     0.00040066     -2594.5331419411 -1.52E-01
     - OT LS       0.90E+00    1.7                    -2594.5802764030
     - OT LS       0.67E+00    1.7                    -2593.2809815892
     - OT LS       0.25E+00    1.7                    -2594.3124210431
     7 OT CG       0.50E+00    3.0     0.00046699     -2594.6632696696 -1.30E-01
     - OT LS       0.25E+00    1.7                    -2593.9851263022
     - OT LS       0.13E+00    1.7                    -2594.2657606873
     - OT LS       0.63E-01    1.7                    -2594.1620429282
     - OT LS       0.37E-01    1.7                    -2594.7220263429
     8 OT CG       0.75E-01    3.0     0.00040359     -2594.7019090400 -3.86E-02
     - OT LS       0.15E+00    1.7                    -2594.7459607160
     - OT LS       0.11E+00    1.7                    -2594.1723241777
     - OT LS       0.39E-01    1.7                    -2594.1555806464
     9 OT CG       0.79E-01    2.9     0.00027275     -2594.7312014629 -2.93E-02

  *** SCF run converged in     9 steps ***


  Electronic density on regular grids:      -1634.0000000000        0.0000000000
  Core density on regular grids:             1633.9999999987       -0.0000000013
  Total charge density on r-space grids:       -0.0000000012
  Total charge density g-space grids:          -0.0000000012

  Overlap energy of the core charge distribution:               0.00007333557166
  Self energy of the core charge distribution:              -6606.48198312660770
  Core Hamiltonian energy:                                   1916.86545139130976
  Hartree energy:                                            2832.70090539309876
  Exchange-correlation energy:                               -740.03078386238928
  Dispersion energy:                                            2.16248943416030
  Electric field interaction energy:                            0.05264597192987

  Total energy:                                             -2594.73120146292649

  outer SCF iter =    1 RMS gradient =   0.27E-03 energy =      -2594.7312014629
  outer SCF loop converged in   1 iterations or   36 steps


 !-----------------------------------------------------------------------------!
                     Mulliken Population Analysis

 #  Atom  Element  Kind  Atomic population                           Net charge
       1     Si       1          3.760793                              0.239207
       2     O        2          6.499246                             -0.499246
       3     C        3          4.172141                             -0.172141
       4     H        4          0.936897                              0.063103
       5     H        4          0.973862                              0.026138
       6     H        4          0.953925                              0.046075
       7     C        3          4.010647                             -0.010647
       8     H        4          0.990635                              0.009365
       9     H        4          0.992549                              0.007451
      10     H        4          1.003238                             -0.003238
      11     Si       1          3.225768                              0.774232
      12     O        2          6.556531                             -0.556531
      13     C        3          4.018903                             -0.018903
      14     H        4          0.976181                              0.023819
      15     H        4          1.022948                             -0.022948
      16     H        4          0.979208                              0.020792
      17     C        3          4.187310                             -0.187310
      18     H        4          0.967680                              0.032320
      19     H        4          0.982456                              0.017544
      20     H        4          0.963603                              0.036397
      21     Si       1          3.082032                              0.917968
      22     O        2          6.535527                             -0.535527
      23     C        3          4.206093                             -0.206093
      24     H        4          0.973251                              0.026749
      25     H        4          0.988142                              0.011858
      26     H        4          0.980514                              0.019486
      27     C        3          4.434899                             -0.434899
      28     H        4          1.009168                             -0.009168
      29     H        4          0.969811                              0.030189
      30     H        4          0.978383                              0.021617
      31     Si       1          3.690839                              0.309161
      32     O        2          6.653981                             -0.653981
      33     C        3          4.009245                             -0.009245
      34     H        4          0.976995                              0.023005
      35     H        4          1.009940                             -0.009940
      36     H        4          0.980399                              0.019601
      37     C        3          4.189056                             -0.189056
      38     H        4          0.988020                              0.011980
      39     H        4          0.956813                              0.043187
      40     H        4          0.967046                              0.032954
      41     Si       1          3.122234                              0.877766
      42     O        2          6.561732                             -0.561732
      43     C        3          4.388478                             -0.388478
      44     H        4          0.934101                              0.065899
      45     H        4          1.284698                             -0.284698
      46     H        4          0.926501                              0.073499
      47     C        3          4.234404                             -0.234404
      48     H        4          0.973264                              0.026736
      49     H        4          0.979349                              0.020651
      50     H        4          0.975586                              0.024414
      51     Si       1          3.401198                              0.598802
      52     C        3          4.210950                             -0.210950
      53     H        4          0.969089                              0.030911
      54     H        4          0.955338                              0.044662
      55     H        4          0.952343                              0.047657
      56     C        3          4.189975                             -0.189975
      57     H        4          0.952658                              0.047342
      58     H        4          0.977578                              0.022422
      59     H        4          0.973592                              0.026408
      60     Si       1          3.277249                              0.722751
      61     O        2          6.605491                             -0.605491
      62     C        3          4.509661                             -0.509661
      63     H        4          1.002963                             -0.002963
      64     H        4          1.010652                             -0.010652
      65     H        4          0.992015                              0.007985
      66     C        3          4.211086                             -0.211086
      67     H        4          0.950202                              0.049798
      68     H        4          0.944807                              0.055193
      69     H        4          0.963440                              0.036560
      70     Si       1          3.054814                              0.945186
      71     O        2          6.564212                             -0.564212
      72     C        3          4.002349                             -0.002349
      73     H        4          1.012869                             -0.012869
      74     H        4          0.966756                              0.033244
      75     H        4          1.005879                             -0.005879
      76     C        3          4.194014                             -0.194014
      77     H        4          0.969239                              0.030761
      78     H        4          0.970396                              0.029604
      79     H        4          0.975242                              0.024758
      80     Si       1          3.651847                              0.348153
      81     O        2          6.501241                             -0.501241
      82     C        3          4.004964                             -0.004964
      83     H        4          1.018858                             -0.018858
      84     H        4          0.985698                              0.014302
      85     H        4          0.998006                              0.001994
      86     C        3          4.195561                             -0.195561
      87     H        4          0.999639                              0.000361
      88     H        4          0.994292                              0.005708
      89     H        4          0.984755                              0.015245
      90     Si       1          3.040419                              0.959581
      91     O        2          6.540875                             -0.540875
      92     C        3          4.216457                             -0.216457
      93     H        4          0.979408                              0.020592
      94     H        4          0.967445                              0.032555
      95     H        4          0.983915                              0.016085
      96     C        3          4.113938                             -0.113938
      97     H        4          0.961684                              0.038316
      98     H        4          0.970510                              0.029490
      99     Si       1          3.775450                              0.224550
     100     O        2          6.652613                             -0.652613
     101     C        3          3.999014                              0.000986
     102     H        4          0.995571                              0.004429
     103     H        4          0.973094                              0.026906
     104     H        4          1.015087                             -0.015087
     105     C        3          4.191630                             -0.191630
     106     H        4          0.955016                              0.044984
     107     H        4          0.984531                              0.015469
     108     H        4          0.971960                              0.028040
     109     Si       1          3.210222                              0.789778
     110     C        3          4.179967                             -0.179967
     111     H        4          0.975615                              0.024385
     112     H        4          0.924681                              0.075319
     113     H        4          0.944131                              0.055869
     114     C        3          4.364788                             -0.364788
     115     H        4          0.989843                              0.010157
     116     H        4          0.959192                              0.040808
     117     H        4          0.934104                              0.065896
     118     Si       1          3.280981                              0.719019
     119     O        2          6.549917                             -0.549917
     120     C        3          4.205268                             -0.205268
     121     H        4          0.956517                              0.043483
     122     H        4          0.999866                              0.000134
     123     H        4          0.988115                              0.011885
     124     C        3          4.235371                             -0.235371
     125     H        4          0.995384                              0.004616
     126     H        4          0.960690                              0.039310
     127     H        4          0.997067                              0.002933
     128     Si       1          3.292042                              0.707958
     129     O        2          6.546106                             -0.546106
     130     C        3          4.220820                             -0.220820
     131     H        4          0.979742                              0.020258
     132     H        4          0.986355                              0.013645
     133     H        4          0.978672                              0.021328
     134     C        3          4.214186                             -0.214186
     135     H        4          0.992897                              0.007103
     136     H        4          0.955409                              0.044591
     137     H        4          0.990371                              0.009629
     138     Si       1          3.592588                              0.407412
     139     O        2          6.410490                             -0.410490
     140     C        3          4.253094                             -0.253094
     141     H        4          0.966248                              0.033752
     142     H        4          0.973606                              0.026394
     143     H        4          0.981972                              0.018028
     144     C        3          4.169861                             -0.169861
     145     H        4          0.989965                              0.010035
     146     H        4          0.972858                              0.027142
     147     H        4          0.968946                              0.031054
     148     Si       1          3.223393                              0.776607
     149     O        2          6.524107                             -0.524107
     150     C        3          4.447730                             -0.447730
     151     H        4          0.959967                              0.040033
     152     H        4          0.970815                              0.029185
     153     C        3          4.013013                             -0.013013
     154     H        4          1.024218                             -0.024218
     155     H        4          0.977582                              0.022418
     156     H        4          1.015629                             -0.015629
     157     Si       1          3.124686                              0.875314
     158     O        2          6.507870                             -0.507870
     159     C        3          4.230509                             -0.230509
     160     H        4          0.952607                              0.047393
     161     H        4          0.996291                              0.003709
     162     H        4          0.971577                              0.028423
     163     C        3          4.220218                             -0.220218
     164     H        4          0.983967                              0.016033
     165     H        4          0.961588                              0.038412
     166     H        4          0.969778                              0.030222
     167     Si       1          3.743386                              0.256614
     168     C        3          4.134108                             -0.134108
     169     H        4          0.980765                              0.019235
     170     H        4          0.957724                              0.042276
     171     H        4          0.942967                              0.057033
     172     C        3          3.774274                              0.225726
     173     H        4          1.006126                             -0.006126
     174     H        4          1.042074                             -0.042074
     175     H        4          0.997093                              0.002907
     176     Si       1          3.257607                              0.742393
     177     O        2          6.525965                             -0.525965
     178     C        3          4.218805                             -0.218805
     179     H        4          0.971960                              0.028040
     180     H        4          0.970899                              0.029101
     181     H        4          0.977643                              0.022357
     182     C        3          4.218527                             -0.218527
     183     H        4          0.971838                              0.028162
     184     H        4          0.976553                              0.023447
     185     H        4          0.968163                              0.031837
     186     Si       1          3.168612                              0.831388
     187     O        2          6.400594                             -0.400594
     188     C        3          4.218369                             -0.218369
     189     H        4          0.969542                              0.030458
     190     H        4          0.981238                              0.018762
     191     H        4          0.963975                              0.036025
     192     C        3          4.204225                             -0.204225
     193     H        4          0.962560                              0.037440
     194     H        4          0.975552                              0.024448
     195     H        4          0.959903                              0.040097
     196     Si       1          3.258661                              0.741339
     197     O        2          6.410685                             -0.410685
     198     C        3          4.142081                             -0.142081
     199     H        4          0.952744                              0.047256
     200     H        4          0.916238                              0.083762
     201     H        4          0.943802                              0.056198
     202     C        3          4.246257                             -0.246257
     203     H        4          0.956114                              0.043886
     204     H        4          0.981458                              0.018542
     205     H        4          0.962079                              0.037921
     206     Si       1          3.125127                              0.874873
     207     O        2          6.596760                             -0.596760
     208     C        3          4.217757                             -0.217757
     209     H        4          0.963832                              0.036168
     210     H        4          0.967279                              0.032721
     211     H        4          0.955452                              0.044548
     212     C        3          4.208392                             -0.208392
     213     H        4          0.964343                              0.035657
     214     H        4          0.968594                              0.031406
     215     H        4          0.965854                              0.034146
     216     Si       1          3.089208                              0.910792
     217     O        2          6.574347                             -0.574347
     218     C        3          4.217366                             -0.217366
     219     H        4          0.985420                              0.014580
     220     H        4          0.957307                              0.042693
     221     H        4          0.971683                              0.028317
     222     C        3          4.220998                             -0.220998
     223     H        4          0.965327                              0.034673
     224     H        4          0.994642                              0.005358
     225     H        4          0.986024                              0.013976
     226     Si       1          3.787075                              0.212925
     227     C        3          4.172368                             -0.172368
     228     H        4          0.979827                              0.020173
     229     H        4          0.994944                              0.005056
     230     H        4          0.975051                              0.024949
     231     C        3          4.193308                             -0.193308
     232     H        4          0.972000                              0.028000
     233     H        4          0.978676                              0.021324
     234     Si       1          3.421415                              0.578585
     235     O        2          6.602652                             -0.602652
     236     C        3          4.236662                             -0.236662
     237     H        4          0.983805                              0.016195
     238     H        4          0.976536                              0.023464
     239     H        4          0.976551                              0.023449
     240     C        3          4.235587                             -0.235587
     241     H        4          0.945511                              0.054489
     242     H        4          0.958821                              0.041179
     243     H        4          1.002656                             -0.002656
     244     Si       1          3.076870                              0.923130
     245     O        2          6.632237                             -0.632237
     246     C        3          4.223943                             -0.223943
     247     H        4          0.976244                              0.023756
     248     H        4          0.980292                              0.019708
     249     H        4          0.967083                              0.032917
     250     C        3          4.225908                             -0.225908
     251     H        4          0.978979                              0.021021
     252     H        4          0.977032                              0.022968
     253     H        4          0.963943                              0.036057
     254     Si       1          3.077747                              0.922253
     255     O        2          6.562041                             -0.562041
     256     C        3          4.227636                             -0.227636
     257     H        4          0.978608                              0.021392
     258     H        4          0.966391                              0.033609
     259     H        4          0.969150                              0.030850
     260     C        3          4.207662                             -0.207662
     261     H        4          0.989665                              0.010335
     262     H        4          0.947128                              0.052872
     263     H        4          0.987978                              0.012022
     264     Si       1          3.134170                              0.865830
     265     O        2          6.542233                             -0.542233
     266     C        3          4.213412                             -0.213412
     267     H        4          0.963399                              0.036601
     268     H        4          0.964288                              0.035712
     269     H        4          1.001813                             -0.001813
     270     C        3          4.211372                             -0.211372
     271     H        4          0.964051                              0.035949
     272     H        4          0.962723                              0.037277
     273     H        4          0.969718                              0.030282
     274     Si       1          3.141754                              0.858246
     275     O        2          6.576135                             -0.576135
     276     C        3          4.191106                             -0.191106
     277     H        4          0.957285                              0.042715
     278     H        4          0.939933                              0.060067
     279     H        4          0.959292                              0.040708
     280     C        3          4.240864                             -0.240864
     281     H        4          0.926648                              0.073352
     282     H        4          0.903107                              0.096893
     283     H        4          0.912698                              0.087302
     284     Si       1          3.184310                              0.815690
     285     C        3          4.228336                             -0.228336
     286     H        4          0.977694                              0.022306
     287     H        4          0.995883                              0.004117
     288     C        3          4.214916                             -0.214916
     289     H        4          0.971781                              0.028219
     290     H        4          0.975921                              0.024079
     291     H        4          0.969638                              0.030362
     292     Si       1          3.246887                              0.753113
     293     O        2          6.457040                             -0.457040
     294     C        3          4.220727                             -0.220727
     295     H        4          0.972415                              0.027585
     296     H        4          0.976248                              0.023752
     297     H        4          0.964286                              0.035714
     298     C        3          4.225860                             -0.225860
     299     H        4          0.971506                              0.028494
     300     H        4          0.979273                              0.020727
     301     H        4          0.968741                              0.031259
     302     Si       1          3.250507                              0.749493
     303     O        2          6.492377                             -0.492377
     304     C        3          4.134655                             -0.134655
     305     H        4          0.947792                              0.052208
     306     H        4          0.955842                              0.044158
     307     H        4          0.962243                              0.037757
     308     C        3          4.227541                             -0.227541
     309     H        4          0.990074                              0.009926
     310     H        4          0.951007                              0.048993
     311     H        4          0.943613                              0.056387
     312     Si       1          3.252758                              0.747242
     313     O        2          6.599874                             -0.599874
     314     C        3          4.456465                             -0.456465
     315     H        4          0.990398                              0.009602
     316     H        4          1.094090                             -0.094090
     317     H        4          0.978176                              0.021824
     318     C        3          4.230457                             -0.230457
     319     H        4          0.983424                              0.016576
     320     H        4          0.978947                              0.021053
     321     H        4          0.989540                              0.010460
     322     Si       1          3.087588                              0.912412
     323     O        2          6.557515                             -0.557515
     324     C        3          4.213768                             -0.213768
     325     H        4          0.982647                              0.017353
     326     H        4          0.988484                              0.011516
     327     H        4          0.969766                              0.030234
     328     C        3          4.228601                             -0.228601
     329     H        4          0.980860                              0.019140
     330     H        4          0.962601                              0.037399
     331     H        4          0.986477                              0.013523
     332     Si       1          3.156740                              0.843260
     333     O        2          6.491679                             -0.491679
     334     C        3          4.221312                             -0.221312
     335     H        4          0.976379                              0.023621
     336     H        4          0.967319                              0.032681
     337     H        4          0.959896                              0.040104
     338     C        3          4.210198                             -0.210198
     339     H        4          0.957738                              0.042262
     340     H        4          0.977550                              0.022450
     341     H        4          0.971342                              0.028658
     342     Si       1          3.299739                              0.700261
     343     C        3          4.194272                             -0.194272
     344     H        4          0.968347                              0.031653
     345     H        4          0.949726                              0.050274
     346     H        4          0.970008                              0.029992
     347     C        3          4.190536                             -0.190536
     348     H        4          0.964784                              0.035216
     349     H        4          0.958847                              0.041153
     350     H        4          0.951014                              0.048986
     351     Si       1          3.819554                              0.180446
     352     O        2          6.500859                             -0.500859
     353     C        3          4.337441                             -0.337441
     354     H        4          0.999996                              0.000004
     355     H        4          0.928715                              0.071285
     356     H        4          0.937017                              0.062983
     357     C        3          4.187745                             -0.187745
     358     H        4          0.964678                              0.035322
     359     H        4          0.959980                              0.040020
     360     H        4          0.972375                              0.027625
     361     Si       1          3.089620                              0.910380
     362     O        2          6.593402                             -0.593402
     363     C        3          4.213973                             -0.213973
     364     H        4          0.971605                              0.028395
     365     H        4          0.969214                              0.030786
     366     H        4          0.987124                              0.012876
     367     C        3          4.224418                             -0.224418
     368     H        4          0.985204                              0.014796
     369     H        4          0.998732                              0.001268
     370     H        4          0.963400                              0.036600
     371     Si       1          3.127196                              0.872804
     372     O        2          6.559562                             -0.559562
     373     C        3          4.214446                             -0.214446
     374     H        4          0.976103                              0.023897
     375     H        4          0.946094                              0.053906
     376     H        4          0.973891                              0.026109
     377     C        3          4.213797                             -0.213797
     378     H        4          0.973335                              0.026665
     379     H        4          0.978158                              0.021842
     380     H        4          0.961133                              0.038867
     381     Si       1          3.091584                              0.908416
     382     O        2          6.595206                             -0.595206
     383     C        3          4.239663                             -0.239663
     384     H        4          1.009165                             -0.009165
     385     H        4          0.982658                              0.017342
     386     H        4          0.982151                              0.017849
     387     C        3          4.233406                             -0.233406
     388     H        4          0.929599                              0.070401
     389     H        4          0.983977                              0.016023
     390     H        4          0.986656                              0.013344
     391     Si       1          3.264509                              0.735491
     392     O        2          6.624086                             -0.624086
     393     C        3          4.235251                             -0.235251
     394     H        4          0.979802                              0.020198
     395     H        4          0.970112                              0.029888
     396     H        4          0.981800                              0.018200
     397     C        3          4.256148                             -0.256148
     398     H        4          0.973549                              0.026451
     399     H        4          0.999565                              0.000435
     400     H        4          0.989630                              0.010370
     401     Si       1          3.113575                              0.886425
     402     C        3          4.424832                             -0.424832
     403     H        4          1.093214                             -0.093214
     404     H        4          1.000884                             -0.000884
     405     H        4          0.967035                              0.032965
     406     C        3          4.243075                             -0.243075
     407     H        4          0.974773                              0.025227
     408     H        4          0.970345                              0.029655
     409     Si       1          3.328304                              0.671696
     410     O        2          6.573332                             -0.573332
     411     C        3          4.220224                             -0.220224
     412     H        4          0.987173                              0.012827
     413     H        4          0.972036                              0.027964
     414     H        4          0.992509                              0.007491
     415     C        3          4.214968                             -0.214968
     416     H        4          0.969102                              0.030898
     417     H        4          0.979387                              0.020613
     418     H        4          0.967460                              0.032540
     419     Si       1          3.100059                              0.899941
     420     O        2          6.595733                             -0.595733
     421     C        3          4.214779                             -0.214779
     422     H        4          0.971966                              0.028034
     423     H        4          0.973307                              0.026693
     424     H        4          0.963651                              0.036349
     425     C        3          4.233316                             -0.233316
     426     H        4          0.983920                              0.016080
     427     H        4          0.986795                              0.013205
     428     H        4          0.977706                              0.022294
     429     Si       1          3.112571                              0.887429
     430     O        2          6.542850                             -0.542850
     431     C        3          4.224338                             -0.224338
     432     H        4          0.978396                              0.021604
     433     H        4          0.992127                              0.007873
     434     H        4          0.973708                              0.026292
     435     C        3          4.232380                             -0.232380
     436     H        4          0.979666                              0.020334
     437     H        4          0.982157                              0.017843
     438     H        4          0.994003                              0.005997
     439     Si       1          3.082923                              0.917077
     440     O        2          6.593236                             -0.593236
     441     C        3          4.208784                             -0.208784
     442     H        4          0.967792                              0.032208
     443     H        4          0.965087                              0.034913
     444     H        4          0.971985                              0.028015
     445     C        3          4.218140                             -0.218140
     446     H        4          0.962559                              0.037441
     447     H        4          0.985041                              0.014959
     448     Si       1          3.109561                              0.890439
     449     O        2          6.576297                             -0.576297
     450     C        3          4.190773                             -0.190773
     451     H        4          1.012575                             -0.012575
     452     H        4          0.944090                              0.055910
     453     H        4          0.960445                              0.039555
     454     C        3          4.221140                             -0.221140
     455     H        4          0.989894                              0.010106
     456     H        4          0.975601                              0.024399
     457     H        4          0.969917                              0.030083
     458     Si       1          3.554668                              0.445332
     459     C        3          4.140687                             -0.140687
     460     H        4          0.953690                              0.046310
     461     H        4          0.984847                              0.015153
     462     C        3          4.163374                             -0.163374
     463     H        4          0.977845                              0.022155
     464     H        4          0.944792                              0.055208
     465     H        4          0.970309                              0.029691
     466     Si       1          3.229765                              0.770235
     467     O        2          6.548681                             -0.548681
     468     C        3          4.232505                             -0.232505
     469     H        4          0.976070                              0.023930
     470     H        4          0.980520                              0.019480
     471     H        4          0.977381                              0.022619
     472     C        3          4.212297                             -0.212297
     473     H        4          0.992834                              0.007166
     474     H        4          0.972627                              0.027373
     475     H        4          0.964530                              0.035470
     476     Si       1          3.120664                              0.879336
     477     O        2          6.588763                             -0.588763
     478     C        3          4.226847                             -0.226847
     479     H        4          0.984484                              0.015516
     480     H        4          0.961662                              0.038338
     481     H        4          0.972518                              0.027482
     482     C        3          4.214223                             -0.214223
     483     H        4          0.954233                              0.045767
     484     H        4          0.968281                              0.031719
     485     H        4          0.983305                              0.016695
     486     Si       1          3.120576                              0.879424
     487     O        2          6.547448                             -0.547448
     488     C        3          4.229411                             -0.229411
     489     H        4          0.979216                              0.020784
     490     H        4          0.957404                              0.042596
     491     H        4          0.989219                              0.010781
     492     C        3          4.241527                             -0.241527
     493     H        4          0.980226                              0.019774
     494     H        4          0.984476                              0.015524
     495     H        4          0.993350                              0.006650
     496     Si       1          3.036854                              0.963146
     497     O        2          6.627271                             -0.627271
     498     C        3          4.201797                             -0.201797
     499     H        4          0.951930                              0.048070
     500     H        4          0.974509                              0.025491
     501     C        3          4.259439                             -0.259439
     502     H        4          0.991582                              0.008418
     503     H        4          0.987105                              0.012895
     504     H        4          0.980530                              0.019470
     505     Si       1          3.138393                              0.861607
     506     O        2          6.536306                             -0.536306
     507     C        3          4.242146                             -0.242146
     508     H        4          0.982874                              0.017126
     509     H        4          0.987771                              0.012229
     510     H        4          0.965167                              0.034833
     511     C        3          4.191899                             -0.191899
     512     H        4          0.978181                              0.021819
     513     H        4          0.966602                              0.033398
     514     H        4          0.969506                              0.030494
     515     Si       1          3.219574                              0.780426
     516     C        3          4.211712                             -0.211712
     517     H        4          0.989254                              0.010746
     518     H        4          0.972077                              0.027923
     519     H        4          0.969024                              0.030976
     520     C        3          4.226803                             -0.226803
     521     H        4          0.999407                              0.000593
     522     H        4          0.975379                              0.024621
     523     H        4          0.985575                              0.014425
     524     O        2          6.548773                             -0.548773
     525     H        4          0.732413                              0.267587
     526     H        4          0.730385                              0.269615
     527     O        2          6.473090                             -0.473090
     528     H        4          0.732543                              0.267457
     529     H        4          0.753671                              0.246329
     530     O        2          6.515450                             -0.515450
     531     H        4          0.746777                              0.253223
     532     H        4          0.738830                              0.261170
     533     O        2          6.533651                             -0.533651
     534     H        4          0.740562                              0.259438
     535     H        4          0.734121                              0.265879
     536     O        2          6.463033                             -0.463033
     537     H        4          0.764426                              0.235574
     538     H        4          0.763668                              0.236332
     539     O        2          6.454297                             -0.454297
     540     H        4          0.754104                              0.245896
     541     H        4          0.767925                              0.232075
     542     O        2          6.524105                             -0.524105
     543     H        4          0.709895                              0.290105
     544     H        4          0.774044                              0.225956
     545     O        2          6.495506                             -0.495506
     546     H        4          0.770444                              0.229556
     547     H        4          0.718212                              0.281788
     548     O        2          6.481797                             -0.481797
     549     H        4          0.770035                              0.229965
     550     H        4          0.736828                              0.263172
     551     O        2          6.489733                             -0.489733
     552     H        4          0.787810                              0.212190
     553     H        4          0.731838                              0.268162
     554     O        2          6.522372                             -0.522372
     555     H        4          0.772095                              0.227905
     556     H        4          0.712269                              0.287731
     557     O        2          6.486311                             -0.486311
     558     H        4          0.784529                              0.215471
     559     H        4          0.736623                              0.263377
     560     O        2          6.510674                             -0.510674
     561     H        4          0.727306                              0.272694
     562     H        4          0.778197                              0.221803
     563     O        2          6.507535                             -0.507535
     564     H        4          0.748779                              0.251221
     565     H        4          0.747815                              0.252185
     566     O        2          6.562361                             -0.562361
     567     H        4          0.719018                              0.280982
     568     H        4          0.720345                              0.279655
     569     O        2          6.559999                             -0.559999
     570     H        4          0.727860                              0.272140
     571     H        4          0.738175                              0.261825
     572     O        2          6.492363                             -0.492363
     573     H        4          0.757038                              0.242962
     574     H        4          0.750920                              0.249080
     575     O        2          6.471025                             -0.471025
     576     H        4          0.785248                              0.214752
     577     H        4          0.741951                              0.258049
     578     O        2          6.522916                             -0.522916
     579     H        4          0.718129                              0.281871
     580     H        4          0.763708                              0.236292
     581     O        2          6.479024                             -0.479024
     582     H        4          0.769814                              0.230186
     583     H        4          0.775437                              0.224563
     584     O        2          6.559972                             -0.559972
     585     H        4          0.746385                              0.253615
     586     H        4          0.717456                              0.282544
     587     O        2          6.480017                             -0.480017
     588     H        4          0.743826                              0.256174
     589     H        4          0.794519                              0.205481
     590     O        2          6.463090                             -0.463090
     591     H        4          0.749730                              0.250270
     592     H        4          0.748513                              0.251487
     593     O        2          6.484737                             -0.484737
     594     H        4          0.743428                              0.256572
     595     H        4          0.788197                              0.211803
     596     O        2          6.501479                             -0.501479
     597     H        4          0.768813                              0.231187
     598     H        4          0.743130                              0.256870
     599     O        2          6.440203                             -0.440203
     600     H        4          0.763700                              0.236300
     601     H        4          0.716258                              0.283742
     602     O        2          6.477050                             -0.477050
     603     H        4          0.755035                              0.244965
     604     H        4          0.747897                              0.252103
     605     O        2          6.483744                             -0.483744
     606     H        4          0.754397                              0.245603
     607     H        4          0.726314                              0.273686
     608     O        2          6.343716                             -0.343716
     609     H        4          0.889987                              0.110013
     610     H        4          0.844778                              0.155222
     611     O        2          6.442713                             -0.442713
     612     H        4          0.771941                              0.228059
     613     H        4          0.786255                              0.213745
     614     O        2          6.470244                             -0.470244
     615     H        4          0.725963                              0.274037
     616     H        4          0.760809                              0.239191
     617     O        2          6.482385                             -0.482385
     618     H        4          0.734559                              0.265441
     619     H        4          0.756919                              0.243081
     620     O        2          6.468149                             -0.468149
     621     H        4          0.775151                              0.224849
     622     H        4          0.727531                              0.272469
     623     O        2          6.473243                             -0.473243
     624     H        4          0.767812                              0.232188
     625     H        4          0.744432                              0.255568
     626     O        2          6.437409                             -0.437409
     627     H        4          0.763405                              0.236595
     628     H        4          0.795388                              0.204612
     629     O        2          6.497448                             -0.497448
     630     H        4          0.716074                              0.283926
     631     H        4          0.753951                              0.246049
     632     O        2          6.491251                             -0.491251
     633     H        4          0.754009                              0.245991
     634     H        4          0.716439                              0.283561
     635     O        2          6.487655                             -0.487655
     636     H        4          0.788922                              0.211078
     637     H        4          0.746644                              0.253356
     638     O        2          6.452978                             -0.452978
     639     H        4          0.760346                              0.239654
     640     H        4          0.774854                              0.225146
     641     O        2          6.474820                             -0.474820
     642     H        4          0.785672                              0.214328
     643     H        4          0.740016                              0.259984
     644     O        2          6.494169                             -0.494169
     645     H        4          0.749590                              0.250410
     646     H        4          0.771584                              0.228416
     647     O        2          6.418725                             -0.418725
     648     H        4          0.789179                              0.210821
     649     H        4          0.791007                              0.208993
     650     O        2          6.456256                             -0.456256
     651     H        4          0.733446                              0.266554
     652     H        4          0.761443                              0.238557
     653     O        2          6.540724                             -0.540724
     654     H        4          0.725418                              0.274582
     655     H        4          0.768476                              0.231524
     656     O        2          6.500166                             -0.500166
     657     H        4          0.750688                              0.249312
     658     H        4          0.746673                              0.253327
     659     O        2          6.539276                             -0.539276
     660     H        4          0.715090                              0.284910
     661     H        4          0.764747                              0.235253
     662     O        2          6.391154                             -0.391154
     663     H        4          0.821144                              0.178856
     664     H        4          0.845471                              0.154529
     665     O        2          6.520975                             -0.520975
     666     H        4          0.735280                              0.264720
     667     H        4          0.768448                              0.231552
     668     O        2          6.535654                             -0.535654
     669     H        4          0.750877                              0.249123
     670     H        4          0.758267                              0.241733
     671     O        2          6.448762                             -0.448762
     672     H        4          0.781261                              0.218739
     673     H        4          0.765902                              0.234098
 # Total charge                           1634.000000                 -0.000000

 !-----------------------------------------------------------------------------!

 !-----------------------------------------------------------------------------!
                           Hirshfeld Charges

  #Atom  Element  Kind  Ref Charge     Population                    Net charge
      1       Si     1       4.000          4.243                        -0.243
      2       O      2       6.000          6.489                        -0.489
      3       C      3       4.000          5.163                        -1.163
      4       H      4       1.000          0.534                         0.466
      5       H      4       1.000          0.543                         0.457
      6       H      4       1.000          0.540                         0.460
      7       C      3       4.000          5.784                        -1.784
      8       H      4       1.000          0.551                         0.449
      9       H      4       1.000          0.552                         0.448
     10       H      4       1.000          0.554                         0.446
     11       Si     1       4.000          3.830                         0.170
     12       O      2       6.000          6.426                        -0.426
     13       C      3       4.000          4.625                        -0.625
     14       H      4       1.000          0.551                         0.449
     15       H      4       1.000          0.558                         0.442
     16       H      4       1.000          0.549                         0.451
     17       C      3       4.000          5.183                        -1.183
     18       H      4       1.000          0.541                         0.459
     19       H      4       1.000          0.546                         0.454
     20       H      4       1.000          0.539                         0.461
     21       Si     1       4.000          3.848                         0.152
     22       O      2       6.000          6.434                        -0.434
     23       C      3       4.000          5.222                        -1.222
     24       H      4       1.000          0.545                         0.455
     25       H      4       1.000          0.549                         0.451
     26       H      4       1.000          0.547                         0.453
     27       C      3       4.000          4.979                        -0.979
     28       H      4       1.000          0.555                         0.445
     29       H      4       1.000          0.539                         0.461
     30       H      4       1.000          0.543                         0.457
     31       Si     1       4.000          4.013                        -0.013
     32       O      2       6.000          6.628                        -0.628
     33       C      3       4.000          5.765                        -1.765
     34       H      4       1.000          0.546                         0.454
     35       H      4       1.000          0.554                         0.446
     36       H      4       1.000          0.549                         0.451
     37       C      3       4.000          5.214                        -1.214
     38       H      4       1.000          0.551                         0.449
     39       H      4       1.000          0.542                         0.458
     40       H      4       1.000          0.543                         0.457
     41       Si     1       4.000          3.633                         0.367
     42       O      2       6.000          6.419                        -0.419
     43       C      3       4.000          4.668                        -0.668
     44       H      4       1.000          0.535                         0.465
     45       H      4       1.000          0.901                         0.099
     46       H      4       1.000          0.531                         0.469
     47       C      3       4.000          5.533                        -1.533
     48       H      4       1.000          0.543                         0.457
     49       H      4       1.000          0.544                         0.456
     50       H      4       1.000          0.543                         0.457
     51       Si     1       4.000          4.001                        -0.001
     52       C      3       4.000          5.170                        -1.170
     53       H      4       1.000          0.542                         0.458
     54       H      4       1.000          0.540                         0.460
     55       H      4       1.000          0.542                         0.458
     56       C      3       4.000          5.195                        -1.195
     57       H      4       1.000          0.541                         0.459
     58       H      4       1.000          0.546                         0.454
     59       H      4       1.000          0.544                         0.456
     60       Si     1       4.000          3.990                         0.010
     61       O      2       6.000          6.483                        -0.483
     62       C      3       4.000          4.519                        -0.519
     63       H      4       1.000          0.534                         0.466
     64       H      4       1.000          0.940                         0.060
     65       H      4       1.000          0.914                         0.086
     66       C      3       4.000          5.137                        -1.137
     67       H      4       1.000          0.535                         0.465
     68       H      4       1.000          0.536                         0.464
     69       H      4       1.000          0.541                         0.459
     70       Si     1       4.000          3.747                         0.253
     71       O      2       6.000          6.441                        -0.441
     72       C      3       4.000          5.313                        -1.313
     73       H      4       1.000          0.563                         0.437
     74       H      4       1.000          0.552                         0.448
     75       H      4       1.000          0.561                         0.439
     76       C      3       4.000          5.195                        -1.195
     77       H      4       1.000          0.544                         0.456
     78       H      4       1.000          0.545                         0.455
     79       H      4       1.000          0.545                         0.455
     80       Si     1       4.000          3.940                         0.060
     81       O      2       6.000          6.442                        -0.442
     82       C      3       4.000          5.311                        -1.311
     83       H      4       1.000          0.564                         0.436
     84       H      4       1.000          0.557                         0.443
     85       H      4       1.000          0.560                         0.440
     86       C      3       4.000          5.250                        -1.250
     87       H      4       1.000          0.551                         0.449
     88       H      4       1.000          0.553                         0.447
     89       H      4       1.000          0.552                         0.448
     90       Si     1       4.000          3.840                         0.160
     91       O      2       6.000          6.436                        -0.436
     92       C      3       4.000          5.181                        -1.181
     93       H      4       1.000          0.545                         0.455
     94       H      4       1.000          0.543                         0.457
     95       H      4       1.000          0.547                         0.453
     96       C      3       4.000          4.707                        -0.707
     97       H      4       1.000          0.548                         0.452
     98       H      4       1.000          0.551                         0.449
     99       Si     1       4.000          4.050                        -0.050
    100       O      2       6.000          6.586                        -0.586
    101       C      3       4.000          5.787                        -1.787
    102       H      4       1.000          0.551                         0.449
    103       H      4       1.000          0.546                         0.454
    104       H      4       1.000          0.556                         0.444
    105       C      3       4.000          5.215                        -1.215
    106       H      4       1.000          0.539                         0.461
    107       H      4       1.000          0.549                         0.451
    108       H      4       1.000          0.545                         0.455
    109       Si     1       4.000          3.998                         0.002
    110       C      3       4.000          5.131                        -1.131
    111       H      4       1.000          0.543                         0.457
    112       H      4       1.000          0.528                         0.472
    113       H      4       1.000          0.536                         0.464
    114       C      3       4.000          4.682                        -0.682
    115       H      4       1.000          0.560                         0.440
    116       H      4       1.000          0.540                         0.460
    117       H      4       1.000          0.532                         0.468
    118       Si     1       4.000          4.411                        -0.411
    119       O      2       6.000          6.442                        -0.442
    120       C      3       4.000          5.242                        -1.242
    121       H      4       1.000          0.537                         0.463
    122       H      4       1.000          0.552                         0.448
    123       H      4       1.000          0.549                         0.451
    124       C      3       4.000          5.250                        -1.250
    125       H      4       1.000          0.552                         0.448
    126       H      4       1.000          0.539                         0.461
    127       H      4       1.000          0.553                         0.447
    128       Si     1       4.000          3.794                         0.206
    129       O      2       6.000          6.453                        -0.453
    130       C      3       4.000          5.225                        -1.225
    131       H      4       1.000          0.547                         0.453
    132       H      4       1.000          0.547                         0.453
    133       H      4       1.000          0.547                         0.453
    134       C      3       4.000          5.269                        -1.269
    135       H      4       1.000          0.551                         0.449
    136       H      4       1.000          0.538                         0.462
    137       H      4       1.000          0.551                         0.449
    138       Si     1       4.000          3.886                         0.114
    139       O      2       6.000          6.402                        -0.402
    140       C      3       4.000          5.529                        -1.529
    141       H      4       1.000          0.540                         0.460
    142       H      4       1.000          0.542                         0.458
    143       H      4       1.000          0.539                         0.461
    144       C      3       4.000          5.185                        -1.185
    145       H      4       1.000          0.546                         0.454
    146       H      4       1.000          0.547                         0.453
    147       H      4       1.000          0.543                         0.457
    148       Si     1       4.000          3.775                         0.225
    149       O      2       6.000          6.413                        -0.413
    150       C      3       4.000          4.417                        -0.417
    151       H      4       1.000          0.544                         0.456
    152       H      4       1.000          0.543                         0.457
    153       C      3       4.000          5.775                        -1.775
    154       H      4       1.000          0.557                         0.443
    155       H      4       1.000          0.546                         0.454
    156       H      4       1.000          0.555                         0.445
    157       Si     1       4.000          3.922                         0.078
    158       O      2       6.000          6.484                        -0.484
    159       C      3       4.000          5.186                        -1.186
    160       H      4       1.000          0.538                         0.462
    161       H      4       1.000          0.549                         0.451
    162       H      4       1.000          0.544                         0.456
    163       C      3       4.000          5.211                        -1.211
    164       H      4       1.000          0.547                         0.453
    165       H      4       1.000          0.541                         0.459
    166       H      4       1.000          0.543                         0.457
    167       Si     1       4.000          4.779                        -0.779
    168       C      3       4.000          5.123                        -1.123
    169       H      4       1.000          0.545                         0.455
    170       H      4       1.000          0.538                         0.462
    171       H      4       1.000          0.534                         0.466
    172       C      3       4.000          4.986                        -0.986
    173       H      4       1.000          0.565                         0.435
    174       H      4       1.000          0.533                         0.467
    175       H      4       1.000          0.563                         0.437
    176       Si     1       4.000          4.163                        -0.163
    177       O      2       6.000          6.436                        -0.436
    178       C      3       4.000          5.218                        -1.218
    179       H      4       1.000          0.545                         0.455
    180       H      4       1.000          0.544                         0.456
    181       H      4       1.000          0.547                         0.453
    182       C      3       4.000          5.209                        -1.209
    183       H      4       1.000          0.545                         0.455
    184       H      4       1.000          0.546                         0.454
    185       H      4       1.000          0.543                         0.457
    186       Si     1       4.000          3.856                         0.144
    187       O      2       6.000          6.394                        -0.394
    188       C      3       4.000          5.198                        -1.198
    189       H      4       1.000          0.544                         0.456
    190       H      4       1.000          0.546                         0.454
    191       H      4       1.000          0.540                         0.460
    192       C      3       4.000          5.188                        -1.188
    193       H      4       1.000          0.540                         0.460
    194       H      4       1.000          0.545                         0.455
    195       H      4       1.000          0.540                         0.460
    196       Si     1       4.000          3.712                         0.288
    197       O      2       6.000          6.395                        -0.395
    198       C      3       4.000          5.083                        -1.083
    199       H      4       1.000          0.534                         0.466
    200       H      4       1.000          0.522                         0.478
    201       H      4       1.000          0.529                         0.471
    202       C      3       4.000          5.014                        -1.014
    203       H      4       1.000          0.529                         0.471
    204       H      4       1.000          0.549                         0.451
    205       H      4       1.000          0.544                         0.456
    206       Si     1       4.000          3.825                         0.175
    207       O      2       6.000          6.447                        -0.447
    208       C      3       4.000          5.174                        -1.174
    209       H      4       1.000          0.542                         0.458
    210       H      4       1.000          0.543                         0.457
    211       H      4       1.000          0.538                         0.462
    212       C      3       4.000          5.184                        -1.184
    213       H      4       1.000          0.542                         0.458
    214       H      4       1.000          0.542                         0.458
    215       H      4       1.000          0.542                         0.458
    216       Si     1       4.000          3.860                         0.140
    217       O      2       6.000          6.452                        -0.452
    218       C      3       4.000          5.199                        -1.199
    219       H      4       1.000          0.549                         0.451
    220       H      4       1.000          0.541                         0.459
    221       H      4       1.000          0.544                         0.456
    222       C      3       4.000          5.227                        -1.227
    223       H      4       1.000          0.544                         0.456
    224       H      4       1.000          0.551                         0.449
    225       H      4       1.000          0.548                         0.452
    226       Si     1       4.000          4.370                        -0.370
    227       C      3       4.000          5.224                        -1.224
    228       H      4       1.000          0.549                         0.451
    229       H      4       1.000          0.551                         0.449
    230       H      4       1.000          0.547                         0.453
    231       C      3       4.000          4.786                        -0.786
    232       H      4       1.000          0.556                         0.444
    233       H      4       1.000          0.556                         0.444
    234       Si     1       4.000          4.035                        -0.035
    235       O      2       6.000          6.454                        -0.454
    236       C      3       4.000          5.242                        -1.242
    237       H      4       1.000          0.548                         0.452
    238       H      4       1.000          0.548                         0.452
    239       H      4       1.000          0.548                         0.452
    240       C      3       4.000          5.089                        -1.089
    241       H      4       1.000          0.541                         0.459
    242       H      4       1.000          0.541                         0.459
    243       H      4       1.000          0.552                         0.448
    244       Si     1       4.000          3.882                         0.118
    245       O      2       6.000          6.459                        -0.459
    246       C      3       4.000          5.207                        -1.207
    247       H      4       1.000          0.545                         0.455
    248       H      4       1.000          0.546                         0.454
    249       H      4       1.000          0.543                         0.457
    250       C      3       4.000          5.209                        -1.209
    251       H      4       1.000          0.546                         0.454
    252       H      4       1.000          0.546                         0.454
    253       H      4       1.000          0.542                         0.458
    254       Si     1       4.000          3.837                         0.163
    255       O      2       6.000          6.440                        -0.440
    256       C      3       4.000          5.197                        -1.197
    257       H      4       1.000          0.545                         0.455
    258       H      4       1.000          0.543                         0.457
    259       H      4       1.000          0.544                         0.456
    260       C      3       4.000          5.070                        -1.070
    261       H      4       1.000          0.542                         0.458
    262       H      4       1.000          0.536                         0.464
    263       H      4       1.000          0.548                         0.452
    264       Si     1       4.000          3.827                         0.173
    265       O      2       6.000          6.435                        -0.435
    266       C      3       4.000          5.196                        -1.196
    267       H      4       1.000          0.540                         0.460
    268       H      4       1.000          0.542                         0.458
    269       H      4       1.000          0.552                         0.448
    270       C      3       4.000          5.166                        -1.166
    271       H      4       1.000          0.540                         0.460
    272       H      4       1.000          0.539                         0.461
    273       H      4       1.000          0.543                         0.457
    274       Si     1       4.000          3.880                         0.120
    275       O      2       6.000          6.439                        -0.439
    276       C      3       4.000          5.076                        -1.076
    277       H      4       1.000          0.538                         0.462
    278       H      4       1.000          0.534                         0.466
    279       H      4       1.000          0.538                         0.462
    280       C      3       4.000          4.774                        -0.774
    281       H      4       1.000          0.518                         0.482
    282       H      4       1.000          0.516                         0.484
    283       H      4       1.000          0.515                         0.485
    284       Si     1       4.000          4.134                        -0.134
    285       C      3       4.000          4.762                        -0.762
    286       H      4       1.000          0.558                         0.442
    287       H      4       1.000          0.563                         0.437
    288       C      3       4.000          5.227                        -1.227
    289       H      4       1.000          0.544                         0.456
    290       H      4       1.000          0.545                         0.455
    291       H      4       1.000          0.543                         0.457
    292       Si     1       4.000          4.159                        -0.159
    293       O      2       6.000          6.408                        -0.408
    294       C      3       4.000          5.208                        -1.208
    295       H      4       1.000          0.545                         0.455
    296       H      4       1.000          0.545                         0.455
    297       H      4       1.000          0.544                         0.456
    298       C      3       4.000          5.213                        -1.213
    299       H      4       1.000          0.545                         0.455
    300       H      4       1.000          0.547                         0.453
    301       H      4       1.000          0.545                         0.455
    302       Si     1       4.000          3.750                         0.250
    303       O      2       6.000          6.409                        -0.409
    304       C      3       4.000          5.144                        -1.144
    305       H      4       1.000          0.534                         0.466
    306       H      4       1.000          0.532                         0.468
    307       H      4       1.000          0.539                         0.461
    308       C      3       4.000          4.974                        -0.974
    309       H      4       1.000          0.543                         0.457
    310       H      4       1.000          0.542                         0.458
    311       H      4       1.000          0.533                         0.467
    312       Si     1       4.000          4.291                        -0.291
    313       O      2       6.000          6.456                        -0.456
    314       C      3       4.000          5.032                        -1.032
    315       H      4       1.000          0.543                         0.457
    316       H      4       1.000          0.555                         0.445
    317       H      4       1.000          0.538                         0.462
    318       C      3       4.000          5.158                        -1.158
    319       H      4       1.000          0.547                         0.453
    320       H      4       1.000          0.547                         0.453
    321       H      4       1.000          0.549                         0.451
    322       Si     1       4.000          3.882                         0.118
    323       O      2       6.000          6.452                        -0.452
    324       C      3       4.000          5.206                        -1.206
    325       H      4       1.000          0.545                         0.455
    326       H      4       1.000          0.548                         0.452
    327       H      4       1.000          0.544                         0.456
    328       C      3       4.000          5.219                        -1.219
    329       H      4       1.000          0.546                         0.454
    330       H      4       1.000          0.542                         0.458
    331       H      4       1.000          0.549                         0.451
    332       Si     1       4.000          3.848                         0.152
    333       O      2       6.000          6.438                        -0.438
    334       C      3       4.000          5.196                        -1.196
    335       H      4       1.000          0.546                         0.454
    336       H      4       1.000          0.543                         0.457
    337       H      4       1.000          0.541                         0.459
    338       C      3       4.000          5.186                        -1.186
    339       H      4       1.000          0.540                         0.460
    340       H      4       1.000          0.545                         0.455
    341       H      4       1.000          0.545                         0.455
    342       Si     1       4.000          4.160                        -0.160
    343       C      3       4.000          5.187                        -1.187
    344       H      4       1.000          0.543                         0.457
    345       H      4       1.000          0.538                         0.462
    346       H      4       1.000          0.544                         0.456
    347       C      3       4.000          5.176                        -1.176
    348       H      4       1.000          0.542                         0.458
    349       H      4       1.000          0.540                         0.460
    350       H      4       1.000          0.538                         0.462
    351       Si     1       4.000          4.099                        -0.099
    352       O      2       6.000          6.427                        -0.427
    353       C      3       4.000          4.668                        -0.668
    354       H      4       1.000          0.552                         0.448
    355       H      4       1.000          0.529                         0.471
    356       H      4       1.000          0.535                         0.465
    357       C      3       4.000          5.168                        -1.168
    358       H      4       1.000          0.541                         0.459
    359       H      4       1.000          0.541                         0.459
    360       H      4       1.000          0.544                         0.456
    361       Si     1       4.000          3.845                         0.155
    362       O      2       6.000          6.456                        -0.456
    363       C      3       4.000          5.194                        -1.194
    364       H      4       1.000          0.543                         0.457
    365       H      4       1.000          0.543                         0.457
    366       H      4       1.000          0.547                         0.453
    367       C      3       4.000          5.212                        -1.212
    368       H      4       1.000          0.548                         0.452
    369       H      4       1.000          0.551                         0.449
    370       H      4       1.000          0.543                         0.457
    371       Si     1       4.000          3.840                         0.160
    372       O      2       6.000          6.442                        -0.442
    373       C      3       4.000          5.182                        -1.182
    374       H      4       1.000          0.544                         0.456
    375       H      4       1.000          0.538                         0.462
    376       H      4       1.000          0.545                         0.455
    377       C      3       4.000          5.182                        -1.182
    378       H      4       1.000          0.544                         0.456
    379       H      4       1.000          0.546                         0.454
    380       H      4       1.000          0.542                         0.458
    381       Si     1       4.000          3.827                         0.173
    382       O      2       6.000          6.450                        -0.450
    383       C      3       4.000          5.204                        -1.204
    384       H      4       1.000          0.554                         0.446
    385       H      4       1.000          0.550                         0.450
    386       H      4       1.000          0.549                         0.451
    387       C      3       4.000          5.180                        -1.180
    388       H      4       1.000          0.526                         0.474
    389       H      4       1.000          0.547                         0.453
    390       H      4       1.000          0.548                         0.452
    391       Si     1       4.000          3.710                         0.290
    392       O      2       6.000          6.453                        -0.453
    393       C      3       4.000          5.230                        -1.230
    394       H      4       1.000          0.547                         0.453
    395       H      4       1.000          0.545                         0.455
    396       H      4       1.000          0.550                         0.450
    397       C      3       4.000          5.220                        -1.220
    398       H      4       1.000          0.547                         0.453
    399       H      4       1.000          0.555                         0.445
    400       H      4       1.000          0.550                         0.450
    401       Si     1       4.000          4.156                        -0.156
    402       C      3       4.000          4.952                        -0.952
    403       H      4       1.000          0.555                         0.445
    404       H      4       1.000          0.547                         0.453
    405       H      4       1.000          0.539                         0.461
    406       C      3       4.000          4.754                        -0.754
    407       H      4       1.000          0.554                         0.446
    408       H      4       1.000          0.552                         0.448
    409       Si     1       4.000          4.582                        -0.582
    410       O      2       6.000          6.454                        -0.454
    411       C      3       4.000          5.233                        -1.233
    412       H      4       1.000          0.549                         0.451
    413       H      4       1.000          0.545                         0.455
    414       H      4       1.000          0.550                         0.450
    415       C      3       4.000          5.212                        -1.212
    416       H      4       1.000          0.545                         0.455
    417       H      4       1.000          0.544                         0.456
    418       H      4       1.000          0.544                         0.456
    419       Si     1       4.000          3.852                         0.148
    420       O      2       6.000          6.450                        -0.450
    421       C      3       4.000          5.191                        -1.191
    422       H      4       1.000          0.544                         0.456
    423       H      4       1.000          0.543                         0.457
    424       H      4       1.000          0.542                         0.458
    425       C      3       4.000          5.232                        -1.232
    426       H      4       1.000          0.548                         0.452
    427       H      4       1.000          0.549                         0.451
    428       H      4       1.000          0.547                         0.453
    429       Si     1       4.000          3.850                         0.150
    430       O      2       6.000          6.449                        -0.449
    431       C      3       4.000          5.203                        -1.203
    432       H      4       1.000          0.546                         0.454
    433       H      4       1.000          0.550                         0.450
    434       H      4       1.000          0.545                         0.455
    435       C      3       4.000          5.230                        -1.230
    436       H      4       1.000          0.548                         0.452
    437       H      4       1.000          0.547                         0.453
    438       H      4       1.000          0.551                         0.449
    439       Si     1       4.000          3.870                         0.130
    440       O      2       6.000          6.450                        -0.450
    441       C      3       4.000          5.197                        -1.197
    442       H      4       1.000          0.543                         0.457
    443       H      4       1.000          0.541                         0.459
    444       H      4       1.000          0.543                         0.457
    445       C      3       4.000          4.715                        -0.715
    446       H      4       1.000          0.551                         0.449
    447       H      4       1.000          0.556                         0.444
    448       Si     1       4.000          3.855                         0.145
    449       O      2       6.000          6.436                        -0.436
    450       C      3       4.000          5.099                        -1.099
    451       H      4       1.000          0.548                         0.452
    452       H      4       1.000          0.535                         0.465
    453       H      4       1.000          0.540                         0.460
    454       C      3       4.000          5.210                        -1.210
    455       H      4       1.000          0.550                         0.450
    456       H      4       1.000          0.545                         0.455
    457       H      4       1.000          0.544                         0.456
    458       Si     1       4.000          4.219                        -0.219
    459       C      3       4.000          4.691                        -0.691
    460       H      4       1.000          0.549                         0.451
    461       H      4       1.000          0.554                         0.446
    462       C      3       4.000          5.169                        -1.169
    463       H      4       1.000          0.545                         0.455
    464       H      4       1.000          0.535                         0.465
    465       H      4       1.000          0.544                         0.456
    466       Si     1       4.000          4.076                        -0.076
    467       O      2       6.000          6.447                        -0.447
    468       C      3       4.000          5.220                        -1.220
    469       H      4       1.000          0.546                         0.454
    470       H      4       1.000          0.548                         0.452
    471       H      4       1.000          0.548                         0.452
    472       C      3       4.000          5.202                        -1.202
    473       H      4       1.000          0.550                         0.450
    474       H      4       1.000          0.546                         0.454
    475       H      4       1.000          0.542                         0.458
    476       Si     1       4.000          3.852                         0.148
    477       O      2       6.000          6.458                        -0.458
    478       C      3       4.000          5.198                        -1.198
    479       H      4       1.000          0.547                         0.453
    480       H      4       1.000          0.544                         0.456
    481       H      4       1.000          0.544                         0.456
    482       C      3       4.000          5.203                        -1.203
    483       H      4       1.000          0.538                         0.462
    484       H      4       1.000          0.544                         0.456
    485       H      4       1.000          0.547                         0.453
    486       Si     1       4.000          3.887                         0.113
    487       O      2       6.000          6.449                        -0.449
    488       C      3       4.000          5.212                        -1.212
    489       H      4       1.000          0.546                         0.454
    490       H      4       1.000          0.542                         0.458
    491       H      4       1.000          0.549                         0.451
    492       C      3       4.000          5.242                        -1.242
    493       H      4       1.000          0.547                         0.453
    494       H      4       1.000          0.549                         0.451
    495       H      4       1.000          0.551                         0.449
    496       Si     1       4.000          3.894                         0.106
    497       O      2       6.000          6.458                        -0.458
    498       C      3       4.000          4.717                        -0.717
    499       H      4       1.000          0.548                         0.452
    500       H      4       1.000          0.554                         0.446
    501       C      3       4.000          5.256                        -1.256
    502       H      4       1.000          0.550                         0.450
    503       H      4       1.000          0.549                         0.451
    504       H      4       1.000          0.547                         0.453
    505       Si     1       4.000          3.864                         0.136
    506       O      2       6.000          6.449                        -0.449
    507       C      3       4.000          5.186                        -1.186
    508       H      4       1.000          0.548                         0.452
    509       H      4       1.000          0.549                         0.451
    510       H      4       1.000          0.542                         0.458
    511       C      3       4.000          5.188                        -1.188
    512       H      4       1.000          0.546                         0.454
    513       H      4       1.000          0.541                         0.459
    514       H      4       1.000          0.542                         0.458
    515       Si     1       4.000          4.157                        -0.157
    516       C      3       4.000          5.213                        -1.213
    517       H      4       1.000          0.549                         0.451
    518       H      4       1.000          0.545                         0.455
    519       H      4       1.000          0.545                         0.455
    520       C      3       4.000          5.230                        -1.230
    521       H      4       1.000          0.552                         0.448
    522       H      4       1.000          0.547                         0.453
    523       H      4       1.000          0.547                         0.453
    524       O      2       6.000          7.145                        -1.145
    525       H      4       1.000          0.424                         0.576
    526       H      4       1.000          0.421                         0.579
    527       O      2       6.000          7.128                        -1.128
    528       H      4       1.000          0.421                         0.579
    529       H      4       1.000          0.425                         0.575
    530       O      2       6.000          7.180                        -1.180
    531       H      4       1.000          0.428                         0.572
    532       H      4       1.000          0.416                         0.584
    533       O      2       6.000          7.145                        -1.145
    534       H      4       1.000          0.421                         0.579
    535       H      4       1.000          0.419                         0.581
    536       O      2       6.000          7.118                        -1.118
    537       H      4       1.000          0.435                         0.565
    538       H      4       1.000          0.435                         0.565
    539       O      2       6.000          7.122                        -1.122
    540       H      4       1.000          0.433                         0.567
    541       H      4       1.000          0.437                         0.563
    542       O      2       6.000          7.179                        -1.179
    543       H      4       1.000          0.403                         0.597
    544       H      4       1.000          0.433                         0.567
    545       O      2       6.000          7.138                        -1.138
    546       H      4       1.000          0.438                         0.562
    547       H      4       1.000          0.408                         0.592
    548       O      2       6.000          7.135                        -1.135
    549       H      4       1.000          0.438                         0.562
    550       H      4       1.000          0.423                         0.577
    551       O      2       6.000          7.101                        -1.101
    552       H      4       1.000          0.442                         0.558
    553       H      4       1.000          0.416                         0.584
    554       O      2       6.000          7.164                        -1.164
    555       H      4       1.000          0.436                         0.564
    556       H      4       1.000          0.404                         0.596
    557       O      2       6.000          7.110                        -1.110
    558       H      4       1.000          0.437                         0.563
    559       H      4       1.000          0.422                         0.578
    560       O      2       6.000          7.127                        -1.127
    561       H      4       1.000          0.420                         0.580
    562       H      4       1.000          0.441                         0.559
    563       O      2       6.000          7.179                        -1.179
    564       H      4       1.000          0.426                         0.574
    565       H      4       1.000          0.420                         0.580
    566       O      2       6.000          7.167                        -1.167
    567       H      4       1.000          0.414                         0.586
    568       H      4       1.000          0.413                         0.587
    569       O      2       6.000          7.173                        -1.173
    570       H      4       1.000          0.414                         0.586
    571       H      4       1.000          0.420                         0.580
    572       O      2       6.000          7.121                        -1.121
    573       H      4       1.000          0.430                         0.570
    574       H      4       1.000          0.429                         0.571
    575       O      2       6.000          7.118                        -1.118
    576       H      4       1.000          0.441                         0.559
    577       H      4       1.000          0.428                         0.572
    578       O      2       6.000          7.148                        -1.148
    579       H      4       1.000          0.410                         0.590
    580       H      4       1.000          0.432                         0.568
    581       O      2       6.000          7.130                        -1.130
    582       H      4       1.000          0.425                         0.575
    583       H      4       1.000          0.435                         0.565
    584       O      2       6.000          7.183                        -1.183
    585       H      4       1.000          0.423                         0.577
    586       H      4       1.000          0.403                         0.597
    587       O      2       6.000          7.097                        -1.097
    588       H      4       1.000          0.420                         0.580
    589       H      4       1.000          0.440                         0.560
    590       O      2       6.000          7.140                        -1.140
    591       H      4       1.000          0.430                         0.570
    592       H      4       1.000          0.430                         0.570
    593       O      2       6.000          7.117                        -1.117
    594       H      4       1.000          0.420                         0.580
    595       H      4       1.000          0.441                         0.559
    596       O      2       6.000          7.105                        -1.105
    597       H      4       1.000          0.436                         0.564
    598       H      4       1.000          0.425                         0.575
    599       O      2       6.000          7.088                        -1.088
    600       H      4       1.000          0.434                         0.566
    601       H      4       1.000          0.413                         0.587
    602       O      2       6.000          7.194                        -1.194
    603       H      4       1.000          0.427                         0.573
    604       H      4       1.000          0.429                         0.571
    605       O      2       6.000          7.127                        -1.127
    606       H      4       1.000          0.422                         0.578
    607       H      4       1.000          0.421                         0.579
    608       O      2       6.000          7.238                        -1.238
    609       H      4       1.000          0.430                         0.570
    610       H      4       1.000          0.431                         0.569
    611       O      2       6.000          7.170                        -1.170
    612       H      4       1.000          0.432                         0.568
    613       H      4       1.000          0.436                         0.564
    614       O      2       6.000          7.126                        -1.126
    615       H      4       1.000          0.411                         0.589
    616       H      4       1.000          0.430                         0.570
    617       O      2       6.000          7.134                        -1.134
    618       H      4       1.000          0.421                         0.579
    619       H      4       1.000          0.430                         0.570
    620       O      2       6.000          7.132                        -1.132
    621       H      4       1.000          0.433                         0.567
    622       H      4       1.000          0.410                         0.590
    623       O      2       6.000          7.111                        -1.111
    624       H      4       1.000          0.432                         0.568
    625       H      4       1.000          0.424                         0.576
    626       O      2       6.000          7.119                        -1.119
    627       H      4       1.000          0.432                         0.568
    628       H      4       1.000          0.440                         0.560
    629       O      2       6.000          7.134                        -1.134
    630       H      4       1.000          0.409                         0.591
    631       H      4       1.000          0.433                         0.567
    632       O      2       6.000          7.117                        -1.117
    633       H      4       1.000          0.428                         0.572
    634       H      4       1.000          0.410                         0.590
    635       O      2       6.000          7.177                        -1.177
    636       H      4       1.000          0.433                         0.567
    637       H      4       1.000          0.416                         0.584
    638       O      2       6.000          7.157                        -1.157
    639       H      4       1.000          0.430                         0.570
    640       H      4       1.000          0.436                         0.564
    641       O      2       6.000          7.104                        -1.104
    642       H      4       1.000          0.440                         0.560
    643       H      4       1.000          0.424                         0.576
    644       O      2       6.000          7.163                        -1.163
    645       H      4       1.000          0.413                         0.587
    646       H      4       1.000          0.434                         0.566
    647       O      2       6.000          7.189                        -1.189
    648       H      4       1.000          0.430                         0.570
    649       H      4       1.000          0.430                         0.570
    650       O      2       6.000          7.102                        -1.102
    651       H      4       1.000          0.410                         0.590
    652       H      4       1.000          0.433                         0.567
    653       O      2       6.000          7.203                        -1.203
    654       H      4       1.000          0.406                         0.594
    655       H      4       1.000          0.430                         0.570
    656       O      2       6.000          7.140                        -1.140
    657       H      4       1.000          0.418                         0.582
    658       H      4       1.000          0.425                         0.575
    659       O      2       6.000          7.187                        -1.187
    660       H      4       1.000          0.403                         0.597
    661       H      4       1.000          0.433                         0.567
    662       O      2       6.000          7.286                        -1.286
    663       H      4       1.000          0.432                         0.568
    664       H      4       1.000          0.428                         0.572
    665       O      2       6.000          7.188                        -1.188
    666       H      4       1.000          0.414                         0.586
    667       H      4       1.000          0.432                         0.568
    668       O      2       6.000          7.155                        -1.155
    669       H      4       1.000          0.417                         0.583
    670       H      4       1.000          0.425                         0.575
    671       O      2       6.000          7.119                        -1.119
    672       H      4       1.000          0.440                         0.560
    673       H      4       1.000          0.435                         0.565

  Total Charge                                                            0.243
 !-----------------------------------------------------------------------------!

 ENERGY| Total FORCE_EVAL ( QS ) energy [hartree]          -2594.143936548035981

 OPT| **************************************************************************
 OPT| Step number                                                              1
 OPT| Optimization method                                                   BFGS
 OPT| Total energy [hartree]                                    -2594.1439365480
 OPT| Effective energy change [hartree]                            -1.1944580415
 OPT| Predicted energy change [hartree]                            -0.0902848725
 OPT| Scaling factor                                                0.0000000000
 OPT| Step size                                                     0.3489500514
 OPT| Trust radius                                                  0.4724315332
 OPT| Decrease in energy                                                     YES
 OPT| Used time [s]                                                       77.834
 OPT|
 OPT| Maximum step size                                             0.3489500514
 OPT| Convergence limit for maximum step size                       0.0030000000
 OPT| Maximum step size is converged                                          NO
 OPT|
 OPT| RMS step size                                                 0.0266328584
 OPT| Convergence limit for RMS step size                           0.0015000000
 OPT| RMS step size is converged                                              NO
 OPT|
 OPT| Maximum gradient                                              0.0543140110
 OPT| Convergence limit for maximum gradient                        0.0004500000
 OPT| Maximum gradient is converged                                           NO
 OPT|
 OPT| RMS gradient                                                  0.0038658777
 OPT| Convergence limit for RMS gradient                            0.0003000000
 OPT| RMS gradient is converged                                               NO
 OPT| **************************************************************************
 OPT| Estimated peak process memory after this step [MiB]                    653

 --------------------------
 OPTIMIZATION STEP:      2
 --------------------------

 Number of electrons:                                                       1634
 Number of occupied orbitals:                                                817
 Number of molecular orbitals:                                               817

 Number of orbital functions:                                               6865
 Number of independent orbital functions:                                   6865

 Parameters for the always stable predictor-corrector (ASPC) method:

  ASPC order: 0

  B(1) =   2.000000
  B(2) =  -1.000000

 Extrapolation method: ASPC


 SCF WAVEFUNCTION OPTIMIZATION

  ----------------------------------- OT ---------------------------------------
  Minimizer      : CG                  : conjugate gradient
  Preconditioner : FULL_KINETIC        : inversion of T + eS
  Precond_solver : DEFAULT
  Line search : ADPT : UNKNOWN
  stepsize       :    0.01000000                  energy_gap     :    0.01000000
  eps_taylor     :   0.10000E-15                  max_taylor     :             4
  ----------------------------------- OT ---------------------------------------

  Step     Update method      Time    Convergence         Total energy    Change
  ------------------------------------------------------------------------------
     1 OT CG       0.20E-01    2.6     0.00110150     -2593.8404228818 -2.59E+03
     - OT LS       0.40E-01    1.7                    -2593.9605204990
     - OT LS       0.80E-01    1.7                    -2594.0502379729
     - OT LS       0.16E+00    1.7                    -2594.1537501565
     - OT LS       0.12E+00    1.7                    -2593.7214598612
     - OT LS       0.67E-01    1.7                    -2593.6262501772
     2 OT CG       0.13E+00    2.9     0.00207783     -2594.1296406597 -2.89E-01
     - OT LS       0.67E-01    1.7                    -2592.6281398343
     - OT LS       0.33E-01    1.7                    -2593.8923133349
     - OT LS       0.17E-01    1.7                    -2593.8478509526
     - OT LS       0.83E-02    1.7                    -2593.6871658771
     - OT LS       0.52E-02    1.7                    -2594.2057653246
     3 OT CG       0.10E-01    3.0     0.00065950     -2594.1810172612 -5.14E-02
     - OT LS       0.21E-01    1.7                    -2594.2069804214
     - OT LS       0.42E-01    1.7                    -2594.2309218593
     - OT LS       0.84E-01    1.7                    -2594.2745521360
     - OT LS       0.17E+00    1.7                    -2594.3515652564
     - OT LS       0.13E+00    1.7                    -2593.8751618852
     - OT LS       0.11E+00    1.7                    -2594.4184067576
     4 OT CG       0.22E+00    3.0     0.00054854     -2594.3934236055 -2.12E-01
     - OT LS       0.11E+00    1.7                    -2594.3352331178
     - OT LS       0.55E-01    1.7                    -2594.1269479438
     - OT LS       0.27E-01    1.7                    -2593.9243376074
     - OT LS       0.14E-01    1.7                    -2593.8328992936
     - OT LS       0.74E-02    1.7                    -2594.4185244467
     5 OT CG       0.15E-01    3.0     0.00054939     -2594.4070020057 -1.36E-02
     - OT LS       0.30E-01    1.7                    -2594.4321284583
     - OT LS       0.22E-01    1.7                    -2593.8593761493
     - OT LS       0.76E-02    1.7                    -2593.8366714545
     6 OT CG       0.15E-01    3.0     0.00055181     -2594.4199333160 -1.29E-02
     - OT LS       0.76E-02    1.7                    -2593.8399688729
     - OT LS       0.40E-02    1.7                    -2594.4330310441
     7 OT CG       0.79E-02    3.0     0.00055376     -2594.4267550625 -6.82E-03
     - OT LS       0.40E-02    1.7                    -2593.8299850765
     - OT LS       0.20E-02    1.7                    -2594.4336183371
     8 OT CG       0.41E-02    3.0     0.00055494     -2594.4302604313 -3.51E-03
     - OT LS       0.20E-02    1.7                    -2593.8243496917
     - OT LS       0.10E-02    1.7                    -2594.4337755757
     9 OT CG       0.21E-02    3.0     0.00055559     -2594.4320371762 -1.78E-03
     - OT LS       0.41E-02    1.7                    -2594.4355974565
     - OT LS       0.31E-02    1.7                    -2593.8276743223
     - OT LS       0.10E-02    1.7                    -2593.8245089738
    10 OT CG       0.21E-02    2.9     0.00055626     -2594.4338240247 -1.79E-03
     - OT LS       0.10E-02    1.7                    -2593.8245677842
     - OT LS       0.52E-03    1.7                    -2594.4356153191
    11 OT CG       0.10E-02    3.0     0.00055661     -2594.4347246311 -9.01E-04
     - OT LS       0.21E-02    1.7                    -2594.4365276197
     - OT LS       0.16E-02    1.7                    -2593.8262107022
     - OT LS       0.52E-03    1.7                    -2593.8246085968
    12 OT CG       0.10E-02    3.0     0.00055696     -2594.4356278299 -9.03E-04
     - OT LS       0.52E-03    1.7                    -2593.8246235286
     - OT LS       0.26E-03    1.7                    -2594.4365322008
    13 OT CG       0.52E-03    3.0     0.00055715     -2594.4360812769 -4.53E-04
     - OT LS       0.10E-02    1.7                    -2594.4369886242
     - OT LS       0.78E-03    1.7                    -2593.8254396830
     - OT LS       0.26E-03    1.7                    -2593.8246338536
    14 OT CG       0.52E-03    3.0     0.00055733     -2594.4365353802 -4.54E-04
     - OT LS       0.26E-03    1.7                    -2593.8246376143
     - OT LS       0.13E-03    1.7                    -2594.4369897844
    15 OT CG       0.26E-03    3.0     0.00055742     -2594.4367629005 -2.28E-04
     - OT LS       0.13E-03    1.7                    -2593.8242365464
     - OT LS       0.65E-04    1.7                    -2594.4369904590
    16 OT CG       0.13E-03    2.9     0.00055747     -2594.4368767595 -1.14E-04
     - OT LS       0.65E-04    1.7                    -2593.8240353589
     - OT LS       0.33E-04    1.7                    -2594.4369906281
    17 OT CG       0.65E-04    2.9     0.00055749     -2594.4369337138 -5.70E-05
     - OT LS       0.33E-04    1.7                    -2593.8239346018
     - OT LS       0.16E-04    1.7                    -2594.4369906704
    18 OT CG       0.33E-04    3.0     0.00055750     -2594.4369621971 -2.85E-05
     - OT LS       0.16E-04    1.7                    -2593.8238841824
     - OT LS       0.82E-05    1.7                    -2594.4369906810
    19 OT CG       0.16E-04    3.0     0.00055751     -2594.4369764403 -1.42E-05
     - OT LS       0.33E-04    1.7                    -2594.4370049271
     - OT LS       0.25E-04    1.7                    -2593.8239094243
     - OT LS       0.82E-05    1.7                    -2593.8238841926
    20 OT CG       0.16E-04    3.0     0.00055751     -2594.4369906841 -1.42E-05
     - OT LS       0.82E-05    1.7                    -2593.8238841962
     - OT LS       0.41E-05    1.7                    -2594.4370049283
    21 OT CG       0.82E-05    3.0     0.00055752     -2594.4369978065 -7.12E-06
     - OT LS       0.41E-05    1.7                    -2593.8238715822
     - OT LS       0.20E-05    1.7                    -2594.4370049289
    22 OT CG       0.41E-05    3.0     0.00055752     -2594.4370013678 -3.56E-06
     - OT LS       0.82E-05    1.7                    -2594.4370084904
     - OT LS       0.61E-05    1.7                    -2593.8238778912
     - OT LS       0.20E-05    1.7                    -2593.8238715828
    23 OT CG       0.41E-05    3.0     0.00055752     -2594.4370049291 -3.56E-06
     - OT LS       0.20E-05    1.7                    -2593.8238715831
     - OT LS       0.10E-05    1.7                    -2594.4370084905
    24 OT CG       0.20E-05    3.0     0.00055752     -2594.4370067098 -1.78E-06
     - OT LS       0.10E-05    1.7                    -2593.8238684290
     - OT LS       0.51E-06    1.7                    -2594.4370084905
    25 OT CG       0.10E-05    3.0     0.00055752     -2594.4370076002 -8.90E-07
     - OT LS       0.51E-06    1.7                    -2593.8238668519
     - OT LS       0.26E-06    1.7                    -2594.4370084905
    26 OT CG       0.51E-06    3.0     0.00055752     -2594.4370080454 -4.45E-07
     - OT LS       0.26E-06    1.7                    -2593.8238660633
     - OT LS       0.13E-06    1.7                    -2594.4370084905
    27 OT CG       0.26E-06    3.0     0.00055752     -2594.4370082680 -2.23E-07
     - OT LS       0.13E-06    1.7                    -2593.8238656691
     - OT LS       0.64E-07    1.7                    -2594.4370084905
    28 OT CG       0.13E-06    2.9     0.00055752     -2594.4370083793 -1.11E-07
     - OT LS       0.26E-06    1.7                    -2594.4370086018
     - OT LS       0.19E-06    1.7                    -2593.8238658662
     - OT LS       0.64E-07    1.7                    -2593.8238656691
    29 OT CG       0.13E-06    3.0     0.00055752     -2594.4370084905 -1.11E-07
     - OT LS       0.64E-07    1.7                    -2593.8238656691
     - OT LS       0.32E-07    1.7                    -2594.4370086018
    30 OT CG       0.64E-07    3.0     0.00055752     -2594.4370085462 -5.56E-08
     - OT LS       0.13E-06    1.7                    -2594.4370086575
     - OT LS       0.96E-07    1.7                    -2593.8238657676
     - OT LS       0.32E-07    1.7                    -2593.8238656691
    31 OT CG       0.64E-07    3.0     0.00055752     -2594.4370086018 -5.56E-08
     - OT LS       0.32E-07    1.7                    -2593.8238656691
     - OT LS       0.16E-07    1.7                    -2594.4370086575
    32 OT CG       0.32E-07    3.0     0.00055752     -2594.4370086297 -2.78E-08
     - OT LS       0.16E-07    1.7                    -2593.8238656198
     - OT LS       0.80E-08    1.7                    -2594.4370086575
    33 OT CG       0.16E-07    3.0     0.00055752     -2594.4370086436 -1.39E-08
     - OT LS       0.32E-07    1.7                    -2594.4370086714
     - OT LS       0.24E-07    1.7                    -2593.8238656444
     - OT LS       0.80E-08    1.7                    -2593.8238656198
    34 OT CG       0.16E-07    3.0     0.00055752     -2594.4370086575 -1.39E-08
     - OT LS       0.80E-08    1.7                    -2593.8238656198
     - OT LS       0.40E-08    1.7                    -2594.4370086714
    35 OT CG       0.80E-08    2.9     0.00055752     -2594.4370086644 -6.96E-09
     - OT LS       0.40E-08    1.7                    -2593.8238656075
     - OT LS       0.20E-08    1.7                    -2594.4370086714
    36 OT CG       0.40E-08    3.0     0.00055752     -2594.4370086679 -3.48E-09
     - OT LS       0.80E-08    1.7                    -2594.4370086749
     - OT LS       0.60E-08    1.7                    -2593.8238656136
     - OT LS       0.20E-08    1.7                    -2593.8238656075
    37 OT CG       0.40E-08    3.0     0.00055752     -2594.4370086714 -3.48E-09
     - OT LS       0.20E-08    1.7                    -2593.8238656075
     - OT LS       0.10E-08    1.7                    -2594.4370086749
    38 OT CG       0.20E-08    3.0     0.00055752     -2594.4370086731 -1.74E-09
     - OT LS       0.10E-08    1.7                    -2593.8238656044
     - OT LS       0.50E-09    1.7                    -2594.4370086749
    39 OT CG       0.10E-08    3.0     0.00055752     -2594.4370086740 -8.70E-10
     - OT LS       0.50E-09    1.7                    -2593.8238656028
     - OT LS       0.25E-09    1.7                    -2594.4370086749
    40 OT CG       0.50E-09    3.0     0.00055752     -2594.4370086744 -4.35E-10
     - OT LS       0.25E-09    1.7                    -2593.8238656021
     - OT LS       0.12E-09    1.7                    -2594.4370086749
    41 OT CG       0.25E-09    3.0     0.00055752     -2594.4370086747 -2.17E-10
     - OT LS       0.50E-09    1.7                    -2594.4370086751
     - OT LS       0.37E-09    1.7                    -2593.8238656025
     - OT LS       0.12E-09    1.7                    -2593.8238656021
    42 OT CG       0.25E-09    3.0     0.00055752     -2594.4370086749 -2.17E-10
     - OT LS       0.12E-09    1.7                    -2593.8238656021
     - OT LS       0.62E-10    1.7                    -2594.4370086751
    43 OT CG       0.12E-09    3.0     0.00055752     -2594.4370086750 -1.10E-10
     - OT LS       0.25E-09    1.7                    -2594.4370086752
     - OT LS       0.19E-09    1.7                    -2593.8238656023
     - OT LS       0.62E-10    1.7                    -2593.8238656021
    44 OT CG       0.12E-09    3.0     0.00055752     -2594.4370086751 -1.08E-10
     - OT LS       0.62E-10    1.7                    -2593.8238656021
     - OT LS       0.31E-10    1.7                    -2594.4370086752
    45 OT CG       0.62E-10    3.0     0.00055752     -2594.4370086751 -5.41E-11
     - OT LS       0.31E-10    1.7                    -2593.8238656020
     - OT LS       0.16E-10    1.7                    -2594.4370086752
    46 OT CG       0.31E-10    3.0     0.00055752     -2594.4370086752 -2.73E-11
     - OT LS       0.16E-10    1.7                    -2593.8238656019
     - OT LS       0.78E-11    1.7                    -2594.4370086752
    47 OT CG       0.16E-10    3.0     0.00055752     -2594.4370086752 -1.41E-11
     - OT LS       0.31E-10    1.7                    -2594.4370086752
     - OT LS       0.23E-10    1.7                    -2593.8238656020
     - OT LS       0.78E-11    1.7                    -2593.8238656019
    48 OT CG       0.16E-10    3.0     0.00055752     -2594.4370086752 -1.32E-11
     - OT LS       0.78E-11    1.7                    -2593.8238656019
     - OT LS       0.39E-11    1.7                    -2594.4370086752
    49 OT CG       0.78E-11    2.9     0.00055752     -2594.4370086752 -6.82E-12
     - OT LS       0.16E-10    1.7                    -2594.4370086752
     - OT LS       0.12E-10    1.7                    -2593.8238656019
     - OT LS       0.39E-11    1.7                    -2593.8238656019
    50 OT CG       0.78E-11    3.0     0.00055752     -2594.4370086752 -6.82E-12
     - OT LS       0.39E-11    1.7                    -2593.8238656019
     - OT LS       0.19E-11    1.7                    -2594.4370086752
    51 OT CG       0.39E-11    3.0     0.00055752     -2594.4370086752 -3.64E-12
     - OT LS       0.19E-11    1.7                    -2593.8238656019
     - OT LS       0.97E-12    1.7                    -2594.4370086752
    52 OT CG       0.19E-11    3.0     0.00055752     -2594.4370086752 -9.09E-13
     - OT LS       0.97E-12    1.7                    -2593.8238656019
     - OT LS       0.49E-12    1.7                    -2594.4370086752
    53 OT CG       0.97E-12    3.0     0.00055752     -2594.4370086752 -1.82E-12
     - OT LS       0.49E-12    1.7                    -2593.8238656019
     - OT LS       0.24E-12    1.7                    -2594.4370086752
    54 OT CG       0.49E-12    3.0     0.00055752     -2594.4370086752  0.00E+00
     - OT LS       0.97E-12    1.7                    -2594.4370086752
     - OT LS       0.73E-12    1.7                    -2593.8238656019
     - OT LS       0.24E-12    1.7                    -2593.8238656019
    55 OT CG       0.49E-12    3.0     0.00055752     -2594.4370086752 -9.09E-13
     - OT LS       0.24E-12    1.7                    -2593.8238656019
     - OT LS       0.12E-12    1.7                    -2594.4370086752
     - OT LS       0.61E-13    1.7                    -2594.4370086752
     - OT LS       0.30E-13    1.7                    -2594.4370086752
     - OT LS       0.15E-13    1.7                    -2594.4370086752
     - OT LS       0.76E-14    1.7                    -2594.4370086752
     - OT LS       0.38E-14    1.7                    -2594.4370086752
     - OT LS       0.19E-14    1.7                    -2594.4370086752
     - OT LS       0.95E-15    1.7                    -2594.4370086752
     - OT LS       0.48E-15    1.7                    -2594.4370086752
     - OT LS       0.24E-15    1.7                    -2594.4370086752
     - OT LS       0.12E-15    1.7                    -2594.4370086752
     - OT LS       0.59E-16    1.7                    -2594.4370086752
     - OT LS       0.30E-16    1.7                    -2594.4370086752
     - OT LS       0.15E-16    1.7                    -2594.4370086752
     - OT LS       0.74E-17    1.7                    -2594.4370086752
     - OT LS       0.37E-17    1.7                    -2594.4370086752
     - OT LS       0.19E-17    1.7                    -2594.4370086752
     - OT LS       0.93E-18    1.7                    -2594.4370086752
     - OT LS       0.46E-18    1.7                    -2594.4370086752
     - OT LS       0.23E-18    1.7                    -2594.4370086752
     - OT LS       0.12E-18    1.7                    -2594.4370086752
     - OT LS       0.58E-19    1.7                    -2594.4370086752
     - OT LS       0.29E-19    1.7                    -2594.4370086752
     - OT LS       0.15E-19    1.7                    -2594.4370086752
     - OT LS       0.73E-20    1.7                    -2594.4370086752
     - OT LS       0.36E-20    1.7                    -2594.4370086752
     - OT LS       0.18E-20    1.7                    -2594.4370086752
     - OT LS       0.91E-21    1.7                    -2594.4370086752
     - OT LS       0.45E-21    1.7                    -2594.4370086752
     - OT LS       0.23E-21    1.7                    -2594.4370086752
     - OT LS       0.11E-21    1.7                    -2594.4370086752
     - OT LS       0.57E-22    1.7                    -2594.4370086752
     - OT LS       0.28E-22    1.7                    -2594.4370086752
     - OT LS       0.14E-22    1.7                    -2594.4370086752
     - OT LS       0.71E-23    1.7                    -2594.4370086752
     - OT LS       0.35E-23    1.7                    -2594.4370086752
     - OT LS       0.18E-23    1.7                    -2594.4370086752
     - OT LS       0.89E-24    1.7                    -2594.4370086752
     - OT LS       0.44E-24    1.7                    -2594.4370086752
     - OT LS       0.22E-24    1.7                    -2594.4370086752
     - OT LS       0.11E-24    1.7                    -2594.4370086752
     - OT LS       0.55E-25    1.7                    -2594.4370086752
     - OT LS       0.28E-25    1.7                    -2594.4370086752
     - OT LS       0.14E-25    1.7                    -2594.4370086752
     - OT LS       0.69E-26    1.7                    -2594.4370086752
     - OT LS       0.35E-26    1.7                    -2594.4370086752
     - OT LS       0.17E-26    1.7                    -2594.4370086752
     - OT LS       0.87E-27    1.7                    -2594.4370086752
     - OT LS       0.43E-27    1.7                    -2594.4370086752
     - OT LS       0.22E-27    1.7                    -2594.4370086752

 *******************************************************************************
 *   ___                                                                       *
 *  /   \                                                                      *
 * [ABORT]                                                                     *
 *  \___/                        MAX ITER EXCEEDED : FATAL                     *
 *    |                                                                        *
 *  O/|                                                                        *
 * /| |                                                                        *
 * / \                                                   qs_ot_minimizer.F:543 *
 *******************************************************************************


 ===== Routine Calling Stack ===== 

           13 do_line_search_adapt
           12 ot_mini
           11 ot_scf_mini
           10 qs_scf_loop_do_ot
            9 qs_scf_new_mos
            8 scf_env_do_scf_inner_loop
            7 scf_env_do_scf
            6 qs_energies
            5 qs_forces
            4 cp_eval_at
            3 geoopt_bfgs
            2 cp_geo_opt
            1 CP2K
