LAMMPS (10 Dec 2025)
KOKKOS mode with Kokkos version 4.7.1 is enabled
  using double precision
  using view layout = legacy
  will use up to 1 GPU(s) per node
WARNING: When using a single thread, the Kokkos Serial backend (i.e. Makefile.kokkos_mpi_only) gives better performance than the OpenMP backend (src/KOKKOS/kokkos.cpp:266)
  using 1 OpenMP thread(s) per MPI task
package kokkos
package kokkos neigh half newton on
# =============================================================================
# LAMMPS input script for PDMS melt-quench densification
# =============================================================================
# OPTIMIZED VERSION v3 - Target: 1.10 g/cm³ - True T-P Annealing (100k)
#
# Key improvements:
# 1. Increased timestep to 1 fs
# 2. Proper Melt phase at 1000K to fluidize polymer before applying pressure
# 3. Aggressive Quench under 2 GPa pressure
# 4. Total simulation time extended to 100 ps for physical relaxation
# =============================================================================

log             melt_quench_log.lammps
