673
Lattice="22.00000000 0.00000000 0.00000000 0.00000000 19.07996255 0.00000000 0.00000000 0.00000000 46.35162000" Properties=species:S:1:pos:R:3 pbc="T T T"
Si       1.92651000      12.32700000      19.35162000
O       21.00700000      11.33400000       1.49423000
C        1.28870000      13.39810000      17.94752000
H        1.70516000      14.44780000      17.87832000
H        1.41323000      12.93390000      16.98322000
H       20.51010000      13.60380000      18.23802000
C        2.33729000      13.44440000       2.37847000
H        1.55898000      14.07130000       2.71327000
H        2.55412000      12.78730000       3.21631000
H        3.22323000      14.01160000       2.16960000
Si      20.73990000       9.86223000       2.23145000
O        1.82346000       8.81449000       2.10650000
C       19.25520000       9.09086000       1.33553000
H       18.39740000       9.48437000       1.89510000
H       19.29140000       9.59228000      18.74822000
H       19.14230000       8.02219000       1.38700000
C       20.27800000      10.07790000       4.06121000
H       19.47600000       9.36454000       4.15165000
H       21.02050000       9.74658000       4.84409000
H       19.82680000      11.08750000       4.20686000
Si       2.27853000       7.21085000       2.32408000
O        1.23127000       6.14810000       1.64089000
C        2.25042000       6.70657000       4.12588000
H        2.57554000       5.65637000       4.33314000
H        2.92868000       7.35742000       4.74215000
H        1.19947000       6.87525000       4.46437000
C        3.92025000       6.99427000       1.44757000
H        3.85612000       7.11802000      18.76662000
H        4.76333000       7.55818000       1.76554000
H        4.30636000       5.99633000       1.60183000
Si      20.66040000       4.83728000       1.09761500
O        1.55224000       3.67523000      19.02272000
C       19.46780000       5.22022000      18.06152000
H       20.03230000       5.08176000      17.15652000
H       18.69430000       4.41241000      18.10432000
H       18.97460000       6.22682000      18.24772000
C       19.71500000       4.06330000       2.67234000
H       18.94520000       3.37444000       2.28865000
H       20.36910000       3.37151000       3.21707000
H       19.46070000       4.92274000       3.42579000
Si       1.89072000       2.07552000      18.84242000
O        2.83752000       1.93400000      17.41762000
C       20.53220000       1.06651000      18.74762000
H       20.61610000      17.88440000      17.90762000
H       20.47180000      18.06470000       1.28946000
H       19.71110000       1.78975000      18.53562000
C        2.98213000       1.53319000       1.85097000
H        3.09441000      18.05840000       1.88797000
H        3.98025000       2.07253000       1.95242000
H        2.47452000       1.88238000       2.74189000
Si       4.33956000       1.50785000      16.91092000
C        5.77816000       2.28825000      17.84842000
H        6.74321000       1.93419000      17.51272000
H        5.59280000       3.42181000      17.88332000
H        5.73181000       1.86859000      18.86942000
C        4.53253000      17.16420000      17.25712000
H        4.63243000      17.21440000      18.37562000
H        3.67077000      16.54010000      16.98532000
H        5.39384000      16.61900000      16.80522000
Si      11.14420000      16.51610000       2.44640000
O        9.62607000      16.11570000       2.96306000
C       11.61750000      15.41570000       1.00000000
H       11.29130000      14.39450000       1.22983000
H       11.22670000      15.79480000      18.51042000
H       12.66010000      15.52770000      19.32092000
C       11.00540000       0.92085900       2.19789000
H       10.39020000       1.01715000       1.37479000
H       10.57490000       1.32439000       3.16868000
H       12.02390000       1.37801000       2.01853000
Si       8.17466000      15.76700000       2.17117000
O        8.26268000      14.07570000       1.94464000
C        8.10690000      16.54720000      18.87582000
H        7.24991000      16.11590000      18.31842000
H        7.93591000      17.67930000      18.78312000
H        8.96009000      16.32740000      18.25492000
C        6.84201000      16.36500000       3.31179000
H        6.01435000      16.77530000       2.69924000
H        6.46118000      15.60180000       3.97517000
H        7.21261000      17.18230000       3.90057000
Si       7.47162000      12.69170000       1.84761000
O        8.62559000      11.44910000       2.06662000
C        6.79289000      12.52850000      18.58242000
H        7.39105000      12.92240000      17.80932000
H        6.52841000      11.47760000      18.47192000
H        5.85906000      13.11350000      18.51362000
C        6.12759000      12.44900000       3.08203000
H        6.36500000      12.82740000       4.05355000
H        5.18871000      13.04410000       2.84765000
H        5.87020000      11.39000000       3.18744000
Si       9.65082000      10.47240000       2.95761000
O        9.43563000       8.81687000       2.62860000
C        9.48062000      10.68120000       4.82531000
H       10.41660000      10.76520000       5.33395000
H        8.93943000      11.59910000       5.09107000
H        8.95521000       9.77922000       5.10330000
C       11.46940000      10.84200000       2.59990000
H       11.66300000      11.93780000       2.50140000
H       11.82960000      10.76350000       3.59185000
Si       8.94641000       7.70728000       1.38386000
O       10.37120000       7.07636000      19.15812000
C        8.11469000       8.55786000      18.44722000
H        7.08353000       8.19522000      18.25162000
H        7.99977000       9.62493000      18.82802000
H        8.65690000       8.66978000      17.48882000
C        7.76256000       6.58181000       2.26954000
H        7.09492000       7.16618000       2.95155000
H        7.02321000       6.08859000       1.69999000
H        8.21507000       5.97312000       3.05111000
Si      10.72140000       5.85745000      18.11402000
C        9.76605000       4.24046000      18.18742000
H        9.69384000       3.73732000      17.19062000
H       10.25700000       3.50278000      18.87662000
H        8.80497000       4.41167000      18.63372000
C       12.54780000       5.44734000      18.61672000
H       12.25430000       4.87558000       1.10946000
H       12.75990000       4.96203000      17.60602000
H       12.91400000       6.37314000      18.86682000
Si      18.13360000      16.09940000       5.97036000
O       17.23650000      15.31580000       4.61766000
C       19.81270000      15.40220000       5.81631000
H       20.30950000      15.68440000       4.84877000
H       20.57860000      15.55030000       6.64708000
H       19.71530000      14.29840000       5.64334000
C       18.25020000      18.02420000       5.68545000
H       18.78920000       0.93494000       6.55617000
H       18.69910000       0.77125400       4.74809000
H       17.14440000       0.83991100       5.64755000
Si      15.77310000      15.33580000       3.90071000
O       15.50080000      13.87230000       3.25069000
C       17.21050000      15.81500000       7.59790000
H       17.80690000      16.19490000       8.41569000
H       16.21880000      16.25850000       7.59840000
H       17.23310000      14.76570000       7.77043000
C       15.72660000      16.74480000       2.63061000
H       15.28730000      17.62150000       3.11156000
H       16.76030000      16.91310000       2.32831000
H       15.14750000      16.41590000       1.73762000
Si      15.72710000      12.86920000       1.96675000
O       14.81900000      11.42940000       2.02063000
C       15.34190000      13.71950000      18.75092000
H       14.29060000      14.08450000      18.72932000
H       15.90180000      14.68390000      18.58322000
H       15.59960000      13.22140000      17.71712000
C       17.53650000      12.25740000       2.30509000
H       17.41070000      11.91700000       3.32480000
H       17.92490000      11.42890000       1.65821000
H       18.28090000      13.03710000       2.31517000
Si      14.15710000      10.09890000       1.48256000
O       14.71040000       8.83706000       2.42260000
C       12.30130000       9.96964000       1.57280000
H       11.92150000      10.25490000      19.03752000
H       12.02670000       8.90644000       1.61059000
C       14.56450000       9.62832000      18.13582000
H       13.68420000       9.22485000      17.63032000
H       14.78200000      10.54540000      17.49962000
H       15.37030000       8.84003000      18.00132000
Si      15.06530000       7.35085000       3.14710000
O       14.42890000       6.05024000       2.22879000
C       14.04650000       7.24412000       4.73367000
H       13.25170000       7.96695000       4.61368000
H       13.62490000       6.27428000       4.93562000
H       14.63970000       7.48453000       5.64801000
C       16.93220000       7.25538000       3.41765000
H       17.31270000       6.25194000       3.35407000
H       17.60020000       7.99634000       2.91083000
H       17.11910000       7.46386000       4.45867000
Si      14.48900000       5.07869000      19.29472000
C       15.71690000       5.75728000      18.00712000
H       15.52860000       5.22900000      16.98592000
H       15.52380000       6.83536000      17.89782000
H       16.77870000       5.47330000      18.20212000
C       14.63200000       3.30443000       1.36328000
H       13.67560000       2.96631000       1.75414000
H       14.82730000       2.75254000      18.83402000
H       15.40560000       3.11307000       2.13805000
Si       4.39132000      11.39880000       7.07388000
O        4.97301000       9.93272000       7.54993000
C        5.67845000      12.75720000       7.04268000
H        6.56371000      12.16290000       6.68215000
H        5.37042000      13.61260000       6.29114000
H        5.93715000      13.11130000       8.03037000
C        3.46924000      11.38760000       5.44342000
H        2.85936000      10.46100000       5.54563000
H        2.88151000      12.26810000       5.33633000
H        4.07759000      11.29130000       4.53948000
Si       6.17024000       8.76356000       7.18870000
O        5.78969000       7.57222000       8.23308000
C        7.74422000       9.62772000       7.79690000
H        7.44657000       9.98544000       8.78967000
H        8.54871000       8.89791000       7.83910000
H        8.00947000      10.45790000       7.10672000
C        5.92256000       7.93088000       5.38836000
H        6.69560000       8.41904000       4.73117000
H        6.22356000       6.82334000       5.54344000
H        4.86540000       8.00986000       5.04333000
Si       6.15795000       6.13378000       9.01476000
O        5.20627000       4.95841000       8.47618000
C        6.49057000       6.40034000      10.83702000
H        7.53395000       6.72678000      10.91862000
H        5.81882000       7.20123000      11.34812000
H        6.46432000       5.49725000      11.43042000
C        8.00884000       5.67058000       8.29365000
H        7.68760000       5.44048000       7.20546000
H        8.36310000       6.68715000       8.44656000
H        8.29996000       4.86749000       8.96134000
Si       4.31565000       3.95287000       7.52723000
O        5.14776000       3.53446000       6.21955000
C        3.91272000       2.38978000       8.65733000
H        3.36136000       2.87464000       9.50182000
H        3.25523000       1.63252000       8.24766000
H        4.94048000       2.06781000       9.08300000
C        2.75039000       4.85951000       7.13572000
H        2.10147000       4.80253000       8.02960000
H        2.99470000       5.86239000       6.85171000
H        2.25373000       4.30448000       6.37510000
Si       5.70178000       2.01521000       5.71076000
O        6.93148000       1.56312000       6.70557000
C        4.35748000       0.76277600       5.70065000
H        4.16029000      17.95030000       6.70405000
H        3.47082000       1.20451000       5.19469000
H        4.81164000      17.48770000       5.17450000
C        6.25297000       2.42442000       3.99770000
H        5.52614000       3.09376000       3.57265000
H        7.27301000       2.94673000       3.94750000
H        6.35765000       1.44899000       3.42894000
Si       8.00227000       1.60960000       7.96600000
C        8.29128000      17.57130000       8.82747000
H        9.09186000      16.94840000       8.40599000
H        8.60536000      17.69020000       9.86841000
H        7.38127000      16.97420000       8.88232000
C        9.67575000       2.10306000       7.26313000
H        9.60845000       1.98582000       6.17821000
H       10.22490000       1.17993000       7.59357000
Si      13.94120000      15.92920000       5.27279000
O       13.20940000      14.79160000       6.26962000
C       13.93310000      17.60750000       6.04087000
H       14.10760000      18.24580000       5.12942000
H       13.11700000      17.85230000       6.64130000
H       14.94510000      17.67140000       6.62659000
C       12.36400000      16.15280000       3.93290000
H       12.15570000      15.06400000       3.86082000
H       11.95790000      16.70110000       4.75064000
H       13.20750000      16.65760000       3.41992000
Si      12.08570000      14.14860000       7.24971000
O       12.71420000      12.70690000       7.61940000
C       12.35360000      15.17850000       8.74559000
H       13.32600000      14.82970000       9.17012000
H       12.52390000      16.26150000       8.50581000
H       11.63990000      15.04830000       9.53518000
C       10.36920000      14.08850000       6.59602000
H        9.76341000      13.36950000       7.25699000
H        9.90539000      15.07740000       6.53044000
H       10.30800000      13.69750000       5.56980000
Si      13.98100000      11.56290000       7.61529000
O       13.55030000      10.17360000       8.25652000
C       15.64350000      12.03660000       8.27717000
H       16.08290000      11.04160000       8.25441000
H       16.04090000      12.60790000       7.40541000
H       15.80410000      12.58690000       9.19887000
C       14.40760000      11.04150000       5.83084000
H       13.65480000      10.39630000       5.44213000
H       14.56900000      11.91270000       5.08084000
H       15.33560000      10.40070000       5.93812000
Si      12.71990000       9.35723000       9.44043000
O       12.81290000       7.67481000       9.21579000
C       10.93380000       9.83034000       9.17620000
H       10.77500000      10.88160000       9.31300000
H       10.61130000       9.50864000       8.19599000
H       10.21770000       9.27151000       9.91316000
C       13.65570000       9.87356000      10.95812000
H       13.23390000      10.84220000      11.27772000
H       13.37680000       9.17421000      11.73422000
H       14.68690000       9.92219000      10.69032000
Si      12.25170000       6.19738000       9.33872000
O       10.85990000       5.97024000       8.57590000
C       11.70520000       5.68176000      11.15732000
H       12.73390000       5.89570000      11.62352000
H       10.81620000       6.37835000      11.22402000
H       11.39370000       4.66461000      10.81912000
C       13.68730000       4.82134000       8.94019000
H       12.92790000       4.15154000       8.59331000
H       14.05330000       5.56773000       8.19926000
H       13.90020000       4.99403000       9.99308000
Si       9.86101000       5.15009000       7.59159000
C       10.35980000       3.38192000       7.84478000
H       10.49390000       3.21800000       8.93092000
H       11.44640000       3.43294000       7.65280000
C        9.91669000       5.67203000       5.76897000
H       10.00610000       6.81203000       5.57722000
H       10.72980000       5.23358000       5.24573000
H        8.99086000       5.36615000       5.25921000
Si       1.54932000      14.79070000      10.60862000
O        1.35008000      13.14250000      10.30582000
C       20.13480000      15.72190000      10.21642000
H       20.44780000      16.72590000       9.94307000
H       19.52090000      15.25090000       9.54639000
H       19.56150000      15.88730000      11.13652000
C        2.93651000      15.47570000       9.60464000
H        3.92933000      15.24140000      10.06724000
H        3.04723000      15.28150000       8.54757000
H        2.80210000      16.60270000       9.81643000
Si       1.21156000      11.94400000       9.23180000
O        1.05323000      10.53290000      10.14274000
C       20.15370000      12.17440000       7.93200000
H       19.71390000      11.25150000       7.51492000
H       19.34720000      12.64750000       8.56267000
H       20.47000000      12.85250000       7.11889000
C        2.93053000      11.59270000       8.33065000
H        2.91622000      12.64870000       7.92432000
H        3.51227000      11.37910000       9.22331000
H        2.57930000      10.76990000       7.73458000
Si      20.42210000       9.21956000      10.31202000
O       19.34010000       9.10948000       9.10111000
C        1.27757000       7.74211000      10.57042000
H        2.19678000       8.14158000      11.06432000
H       21.01780000       6.99364000      11.32542000
H        1.62859000       7.29872000       9.71908000
C       19.33790000       9.36617000      11.92772000
H       18.98160000       8.32039000      11.78282000
H       20.22930000       9.50221000      12.61462000
H       18.84210000      10.24080000      11.51322000
Si      18.51700000       7.90532000       8.27564000
O       18.01810000       6.73709000       9.34017000
C       16.90510000       8.50660000       7.64630000
H       16.88900000       9.61291000       7.36780000
H       16.55250000       7.82924000       6.84574000
H       16.24680000       8.49292000       8.58691000
C       19.61970000       7.23671000       6.93164000
H       19.92690000       8.01704000       6.20605000
H       20.51240000       6.73407000       7.26114000
H       19.06960000       6.51917000       6.27535000
Si      17.68850000       5.29385000      10.01707000
O       16.33010000       4.86738000       9.22974000
C       19.05090000       3.97760000       9.71604000
H       18.68410000       2.91146000       9.81139000
H       19.62140000       4.09374000       8.79879000
H       19.79660000       4.14635000      10.46792000
C       17.30700000       5.51854000      11.78622000
H       17.65290000       6.54010000      11.99812000
H       16.19260000       5.41698000      11.93872000
H       17.91160000       4.86381000      12.40052000
Si      15.31860000       3.71947000       8.67272000
C       15.29170000       3.22506000       6.86259000
H       15.45870000       4.15775000       6.29492000
H       16.10560000       2.51303000       6.54321000
H       14.32320000       2.69515000       6.65419000
C       15.13740000       2.21358000       9.77426000
H       14.46350000       2.55333000      10.61912000
H       14.57600000       1.50630000       9.13474000
H       16.12450000       1.80998000      10.02625000
Si       1.84380000      10.14120000      15.64122000
O        3.15787000       9.86390000      14.70332000
C        3.41406000      11.30860000      18.73972000
H        4.15145000      11.46230000       1.12451900
H        3.76602000      11.75840000      17.82622000
H        3.24649000      10.20970000      18.53352000
C        2.03642000      14.95640000      12.42562000
H        2.93442000      14.45960000      12.70542000
H        1.18325000      14.58880000      12.97322000
H        2.12219000      16.06440000      12.62322000
Si       4.56579000       9.16150000      13.95382000
O        4.40096000       7.52662000      14.12602000
C        6.01516000       9.80855000      14.82592000
H        5.85456000      10.55230000      15.61962000
H        6.57302000       9.04795000      15.31322000
H        6.84941000      10.21360000      14.14712000
C        4.47318000       9.55617000      12.12502000
H        4.28616000      10.65180000      12.04992000
H        5.46063000       9.37357000      11.73852000
H        3.70832000       9.01981000      11.59992000
Si       3.90270000       6.25151000      15.07552000
O        3.34526000       5.15728000      14.03952000
C        2.31233000       6.81708000      15.95912000
H        1.34266000       6.99111000      15.40152000
H        2.12623000       6.26474000      16.85492000
H        2.65101000       7.88030000      16.32982000
C        5.28987000       5.94440000      16.26222000
H        5.89774000       5.05329000      15.87492000
H        5.86275000       6.85096000      16.40222000
H        4.93190000       5.64326000      17.20192000
Si       2.29950000       3.85602000      13.62852000
O        3.09285000       2.50274000      13.88242000
C        2.06656000       4.12281000      11.77902000
H        3.00712000       4.66299000      11.47692000
H        2.03996000       3.25636000      11.12822000
H        1.21538000       4.74949000      11.57362000
C       21.02220000       4.12578000      14.60342000
H        0.90069000       4.07241000      15.68392000
H       20.60690000       5.12385000      14.34192000
H       20.32940000       3.26546000      14.48972000
Si       4.41730000       1.87671000      14.61722000
O        5.86320000       2.61289000      14.29652000
C        4.51371000      17.67280000      13.78132000
H        4.34307000      17.68990000      12.68192000
H        5.43555000      17.12920000      13.98542000
H        3.68976000      17.00460000      14.15692000
C        6.42983000       2.70456000      11.52092000
H        6.47273000       1.68170000      11.00592000
H        5.34727000       3.01945000      11.55772000
H        7.07492000       3.30824000      10.82692000
Si       7.09458000       2.60796000      13.22232000
C        7.98482000       0.84247900      13.48962000
H        7.83578000      18.15440000      12.40522000
H        8.79211000       1.53933000      13.91602000
H        7.17561000      18.06770000      14.14622000
C        8.21728000       4.06102000      13.50172000
H        8.67637000       4.00921000      14.48752000
H        7.50683000       4.90032000      13.49142000
Si       9.24874000      16.79910000      13.49982000
O        8.32692000      15.54150000      12.98772000
C       10.43970000      17.05140000      12.02212000
H       10.60150000      15.98670000      11.72792000
H       10.04090000      17.58050000      11.10772000
H       11.41820000      17.40720000      12.30712000
C        9.86492000      16.50360000      15.27022000
H       10.68830000      15.82370000      15.16082000
H       10.30740000      17.41640000      15.65982000
H        9.03013000      16.10240000      15.83822000
Si       7.38017000      14.31130000      13.49802000
O        8.26262000      12.93770000      13.31252000
C        6.67169000      14.44720000      15.20222000
H        6.32388000      15.49120000      15.33662000
H        5.79630000      13.77060000      15.27612000
H        7.37562000      14.33000000      16.02902000
C        5.98896000      14.16660000      12.24442000
H        6.52939000      14.22910000      11.27552000
H        5.21965000      13.37540000      12.36992000
H        5.34339000      15.03890000      12.30632000
Si       9.28648000      12.04260000      12.35292000
O       10.07640000      11.17480000      13.46402000
C       10.44950000      13.17590000      11.29202000
H       11.10870000      13.74260000      11.99852000
H       11.11400000      12.43580000      10.79102000
H        9.88559000      13.80130000      10.61712000
C        8.15546000      11.01030000      11.35052000
H        7.46124000      10.50690000      11.91872000
H        7.71806000      11.63230000      10.58662000
H        8.72761000      10.30290000      10.80812000
Si      10.90010000      10.63230000      14.74122000
O       10.74940000       9.01120000      14.55962000
C        9.93280000      11.07840000      16.24672000
H       10.38190000      10.61000000      17.11562000
H        9.90019000      12.16120000      16.40072000
H        8.92723000      10.66630000      16.13072000
C       12.71790000      11.08490000      14.75722000
H       13.17130000      10.39950000      15.52572000
H       13.07050000      10.79800000      13.72582000
Si      11.34640000       7.51778000      14.72492000
O       10.59900000       6.57378000      13.69462000
C       10.77350000       6.85836000      16.53812000
H       11.08820000       5.91805000      15.98302000
H       11.53880000       7.66355000      16.93802000
H        9.69175000       7.19372000      16.49442000
C       13.22080000       7.46920000      14.66512000
H       13.79350000       6.98823000      15.47212000
H       13.36380000       6.88258000      13.71652000
H       13.58720000       8.48822000      14.55782000
Si      10.96140000       5.14810000      12.95762000
C        9.37584000       4.39209000      12.42832000
H        9.69601000       3.51996000      11.76192000
H        8.93051000       5.11324000      11.73312000
C       12.08470000       3.88448000      13.78862000
H       11.56460000       3.56240000      14.72882000
H       12.00240000       3.03054000      13.12062000
H       13.13620000       4.13298000      13.92262000
Si      17.61460000       1.16450000      14.87462000
O       17.59590000       1.26096000      16.56172000
C       19.15330000      18.12450000      13.95162000
H       18.84120000      18.14670000      12.90202000
H       19.97920000       1.30895000      14.09132000
H       19.51850000      17.09790000      14.33632000
C       16.58560000       2.44604000      14.03752000
H       16.41340000       2.24707000      12.98592000
H       15.62300000       2.50157000      14.54762000
H       17.02840000       3.44378000      14.09082000
Si      16.87020000      17.37300000      16.86712000
O       16.52120000      17.24770000      15.07112000
C       18.06310000      16.07990000      17.51862000
H       19.06090000      16.41110000      17.81762000
H       17.75640000      15.56260000      18.40152000
H       18.22810000      15.29120000      16.78722000
C       15.26540000      17.62690000      17.61112000
H       14.98080000      16.66980000      18.07462000
H       15.35080000       0.85013400      18.34872000
H       14.51470000      17.72380000      16.81262000
Si      15.35660000      16.43000000      14.07452000
O       15.16020000      14.87340000      14.60662000
C       13.68630000      17.28580000      14.23022000
H       12.99320000      16.74420000      13.59282000
H       13.16950000      17.04050000      15.19852000
H       13.72250000       0.82050000      14.15002000
C       16.04930000      16.72070000      12.36472000
H       17.13160000      16.42090000      12.19742000
H       15.50020000      15.92400000      11.74692000
H       15.84860000      17.73590000      11.90282000
Si      14.81630000      13.14560000      14.41292000
O       16.20840000      12.55510000      15.14262000
C       13.14480000      12.53190000      15.15802000
H       13.02870000      12.70470000      16.23102000
H       12.38950000      13.22330000      14.72822000
C       14.76220000      12.72870000      12.59822000
H       14.97950000      11.64410000      12.36762000
H       13.80630000      12.96410000      12.19342000
H       15.55260000      13.40780000      12.06512000
Si      17.87090000      12.42050000      14.99362000
O       17.99660000      10.91260000      14.23282000
C       18.64810000      13.75680000      13.95552000
H       19.78720000      13.63040000      13.85582000
H       18.25590000      13.83920000      12.91362000
H       18.46810000      14.72620000      14.51252000
C       18.47070000      12.22020000      16.76252000
H       19.24100000      11.34320000      16.76172000
H       18.94250000      13.10160000      17.08622000
H       17.72610000      11.85240000      17.44922000
Si      18.14500000       9.42681000      13.61922000
C       18.92000000       8.22507000      14.73722000
H       18.35590000       7.28348000      14.53482000
H       19.97750000       8.00571000      14.52442000
H       18.59560000       8.29245000      15.83212000
C       16.43130000       8.86960000      13.07622000
H       16.39580000       8.08968000      12.30902000
H       15.99180000       8.33302000      13.89982000
H       15.83090000       9.63750000      12.65432000
O        8.23988261      18.11122775      25.33494646
H        8.68328269      17.64964988      26.06189930
H        7.79648254      18.85646120      25.76638785
O        3.43187945       1.12549653      26.08420048
H        3.88481494       0.43133449      26.58530596
H        2.97894395       1.64702503      26.76315236
O        0.45285887      18.47956953      25.89696696
H       21.71088872      18.78546865      26.43920696
H        1.19482902      18.43641121      26.51804332
O        4.03489922       5.78760969      24.17225851
H        3.71839167       5.18705877      24.86311288
H        4.35140677       6.56136939      24.66137720
O       13.46076368       2.65788057      22.86842412
H       12.89258947       2.16678621      23.48007973
H       14.02893789       3.18554552      23.44882567
O       17.27387115       3.77263334      24.11799963
H       17.69256429       3.35188575      24.88336602
H       16.85517801       4.56472977      24.48596360
O        6.70150292       1.83247487      25.06819077
H        6.42121598       1.30266208      25.82901653
H        6.98178987       2.67334120      25.45870484
O       10.89389202       0.66963438      26.32531910
H       10.13181412       0.56030798      26.91302923
H       11.65596993       0.64393415      26.92255854
O        6.85764367       9.96127968      24.30028714
H        6.15745504      10.05685524      24.96264609
H        7.55783231       9.48169165      24.76703054
O       17.05292211      17.96022449      26.24852653
H       17.49335648      17.19062722      26.63821335
H       16.61248775      18.38362363      27.00010416
O        1.94683505       3.73008621      21.48599081
H        1.26750476       3.42951967      22.10751178
H        2.62616533       4.12324725      22.05348791
O        5.96967870      15.81583501      23.23022961
H        5.22081143      15.65071229      23.82188026
H        6.71854597      15.94541405      23.83066718
O        3.10033295      15.32841938      21.65198923
H        3.16314647      15.96271679      22.38126246
H        3.03751943      14.46881201      22.09385780
O       15.55086156      13.89766440      25.55205367
H       15.20844662      14.63528103      26.07816383
H       15.89327651      13.27769817      26.21274427
O        2.54911931      16.43220231      24.72832085
H        1.88237320      16.25674439      25.40860193
H        3.21586541      16.96544689      25.18572445
O        6.84161108       6.23633394      25.32248371
H        7.42216152       5.59961170      25.76482313
H        6.26106063       6.55457337      26.02945121
O       16.73727107      10.71104058      25.54978923
H       16.70752494       9.93901417      26.13391985
H       16.76701720      11.46414033      26.15812641
O        9.40590240       0.49633644      21.83709039
H        9.25615917       1.18464858      22.50186219
H        9.55564564      18.77458252      22.35953261
O        5.03355964       1.50401648      22.86029229
H        4.38601643       1.71376759      23.54935720
H        5.68110285       0.94183911      23.31058396
O       11.86552932      15.37386017      26.25486142
H       11.17090786      15.22956385      26.91425341
H       12.56015079      15.83883346      26.74416608
O        5.01457358       8.10895501      25.82023641
H        5.60041989       8.77068813      26.21648328
H        4.42872726       7.84967720      26.54665042
O       11.23644066       7.95069499      22.47692729
H       10.71443845       8.57139626      23.00641933
H       11.75844287       7.46490664      23.13239778
O       20.74401349       6.15536270      24.13812556
H       21.47423989       5.99101064      24.75284175
H       20.01378708       6.43308592      24.71062657
O       21.37920582      18.34693270      22.64348935
H       21.36601149      17.67379753      23.33978896
H       21.39240015       0.10536147      23.12830282
O       19.98184949       4.61049718      22.05055866
H       19.93130646       3.69396198      22.35963281
H       20.03239253       5.13038025      22.86620883
O        2.44300695      11.54075113      27.53525663
H        3.34578029      11.44862429      27.19668446
H        2.42216727      12.43503288      27.90666485
O       14.76394344      10.37052408      27.08888439
H       13.99092832      10.56056007      27.64065621
H       14.43737287       9.72879549      26.44107711
O        5.69968965       1.14378976      30.74701849
H        4.89090084       1.18199840      30.21549336
H        5.48423140       0.52130910      31.45709861
O        1.76683217      16.08726819      30.59874296
H        1.49128774      16.84023438      31.14209863
H        1.23985021      15.34857592      30.93747874
O        9.72803060      12.86339446      27.28634251
H        9.54783403      11.95324312      27.56432081
H       10.69475927      12.92281533      27.29114082
O        0.17073912      10.43419235      28.96688087
H       21.67609851       9.62218284      28.78224770
H        0.08649026      10.54711599      29.92514418
O       20.09262969      10.10625689      27.45729415
H       19.74898656       9.30534768      27.87987199
H       19.74365374      10.06318395      26.55480941
O       19.14689477      12.80472020      29.70308173
H       18.56010203      12.43543618      30.37941138
H       18.56850831      13.37797501      29.17870952
O        8.88284503      19.01365942      30.29299204
H        9.41476035       0.21062075      29.53240184
H        8.49163262      18.17340167      30.01185515
O       16.00162788       7.50050347      29.92611260
H       15.45810431       8.17296325      30.36257356
H       16.46623098       7.98962332      29.23111336
O        4.63607206       3.85904052      30.46952779
H        4.49505461       3.03847683      29.97464649
H        3.75437782       4.08913514      30.79784155
O        3.29755666       7.70139305      28.31259881
H        2.65902959       7.33200261      27.68494280
H        2.74576236       8.13163369      28.98232580
O       16.48247310      13.81280108      30.10012010
H       16.49685804      12.84447598      30.08406433
H       16.15289228      14.05682732      29.22265451
O       19.78798775       3.81417403      29.68364872
H       19.70073660       4.42469751      28.93681104
H       19.92355759       2.95087822      29.26596540
O       10.62383072       5.52388428      27.12401458
H       10.01099278       6.24192862      27.34071754
H       10.88509539       5.17033661      27.98706904
O       19.10288575      16.74716996      31.14759867
H       19.96828998      17.07257259      30.85896943
H       18.64854825      17.54089445      31.46649842
O       13.54091568       1.86544262      29.06483256
H       14.43518262       2.21154180      29.20128841
H       12.96362608       2.58453585      29.36107544
O       15.71718704      18.07971255      30.39133624
H       16.28603597      17.48377042      30.90063189
H       15.38626631      17.52672821      29.66827470
O        2.40729210       0.06228812      28.38788615
H        1.48252872      18.95863776      28.60973564
H        2.49492132       1.01766722      28.52089020
O       19.95206113       0.19100051      29.52602828
H       20.49920869       0.97031416      29.70327945
H       19.08351933       0.55941896      29.30689093
O        7.41360168       4.09592430      27.32971411
H        6.96607351       4.71970132      27.92025536
H        6.73249661       3.43900809      27.12313443
O        0.55579860      19.01790196      30.96423239
H        0.65584290       0.81287861      30.56100699
H        0.60946730       0.11091483      31.91571406
O        8.12370681      17.91313151      27.22401893
H        8.84943916      17.68495839      27.82349185
H        7.40367391      17.32368582      27.49276527
O       21.41605664      12.74217851      27.32990306
H       20.51676010      12.38321380      27.35288722
H       21.97693652      11.98322484      27.54789684
O        7.77756205       9.50193561      30.00179898
H        6.90502094       9.78100497      29.68729859
H        7.94179992      10.06820052      30.77023125
