300
 Atoms. Timestep: 50493
O 11.2347 3.05318 0.0629597
H 11.5633 3.02922 0.997712
H 10.7051 3.83698 0.00505719
O 20.3311 17.2439 2.36447
H 20.3152 16.3587 2.69641
H 20.8373 17.2306 1.49697
O 1.08996 4.53414 4.58946
H 2.02605 4.36987 4.90101
H 20.9638 3.63748 4.68198
O 13.0865 14.7573 6.12516
H 13.3153 13.912 6.41411
H 12.6637 14.5464 5.24593
O 16.1067 16.291 0.889377
H 15.2093 16.6098 0.715362
H 16.5896 17.0679 1.18467
O 3.2783 11.4047 7.9736
H 2.67974 12.1771 8.0943
H 2.76215 10.5904 7.95624
O 12.8155 8.19857 3.44789
H 11.9609 8.11905 3.85942
H 12.707 8.89174 2.76653
O 9.69522 12.8049 4.83279
H 8.95541 13.4072 4.58904
H 9.89707 12.9433 5.81337
O 8.41781 18.2036 0.868935
H 7.57295 17.9353 1.28788
H 8.21059 1.32949 0.194612
O 4.78634 7.2552 6.97897
H 5.43144 7.58928 6.35782
H 4.03806 7.82407 7.041
O 20.1034 11.5983 6.14388
H 19.3602 11.2295 5.67335
H 19.8775 11.4741 7.07778
O 18.0584 4.63582 7.19385
H 18.5812 5.22806 6.59769
H 18.2911 3.75189 7.14945
O 7.49473 12.7112 2.57897
H 8.33268 13.1693 2.55741
H 7.4658 12.1144 3.39731
O 4.22735 13.1097 5.69752
H 5.02616 12.5584 5.45317
H 3.69669 12.5158 6.28854
O 16.9321 9.02376 3.46726
H 17.9147 8.65921 3.45769
H 16.3918 8.5943 4.18402
O 14.0823 11.8994 3.3446
H 14.3992 11.476 4.13485
H 14.799 12.2722 2.80266
O 14.2455 7.78811 8.32939
H 13.3871 8.20518 8.37323
H 14.3549 7.464 7.37598
O 16.4177 8.67806 0.942395
H 15.5736 8.32804 0.598937
H 16.486 8.70259 1.91611
O 17.538 2.75073 3.80199
H 17.2896 3.69274 3.61052
H 16.7919 2.1784 4.26769
O 6.68704 16.8124 5.56647
H 5.89553 16.9362 6.12958
H 7.37153 17.4243 5.78729
O 13.8637 10.3587 5.93799
H 14.1402 9.4981 5.60696
H 14.499 10.6156 6.6373
O 15.0246 7.68893 5.06953
H 15.146 6.75378 5.47912
H 14.2627 7.5762 4.36113
O 10.0129 1.24687 3.12624
H 9.71331 0.780927 2.34961
H 9.99588 2.19361 2.77451
O 10.5407 10.3371 3.91201
H 11.1271 10.4677 3.12246
H 10.2468 11.1922 4.2397
O 13.4164 17.3307 0.885105
H 13.1735 16.4194 1.15079
H 13.0175 17.2846 8.39967
O 19.2634 7.89418 3.4172
H 19.445 7.28307 4.14772
H 19.9715 8.50879 3.40751
O 14.1548 6.00029 2.0495
H 14.3135 6.5608 1.25692
H 13.4064 6.446 2.44114
O 1.36073 3.98401 8.14947
H 20.8013 3.40132 8.25865
H 1.28499 4.77371 0.206343
O 3.70399 4.36048 5.57408
H 3.56523 3.74622 6.30606
H 3.75405 5.28308 5.9988
O 8.1108 6.58916 1.21792
H 7.18697 6.67953 1.05629
H 8.20765 6.13057 2.13709
O 15.5372 15.4702 5.03382
H 16.3413 15.2956 5.60623
H 14.7434 15.1596 5.54912
O 4.62446 2.21258 3.35606
H 3.86343 1.63439 3.40383
H 4.6382 3.01107 2.80422
O 20.3576 8.13728 8.24784
H 19.947 8.99219 8.11558
H 19.5937 7.66358 0.22047
O 8.56652 1.52016 5.4606
H 8.96755 1.11886 4.63552
H 9.31192 1.85339 5.91303
O 9.82965 16.2128 8.39451
H 9.15537 15.7541 7.88664
H 9.32402 16.9804 0.375702
O 18.7486 13.5217 3.67943
H 17.9368 13.9416 3.34332
H 19.3863 14.0819 4.15696
O 7.61435 14.4621 6.857
H 7.12104 14.9412 6.19624
H 6.94846 14.0286 7.45982
O 2.44266 8.83369 6.80417
H 2.03378 8.92283 5.94304
H 1.69814 8.27992 7.19925
O 6.00909 17.8369 1.77566
H 5.80076 17.0162 2.24476
H 5.62963 1.07697 2.22094
O 11.7112 6.34603 6.86897
H 10.8746 6.08235 7.36098
H 12.1239 5.55933 6.48641
O 8.52975 15.0604 3.3065
H 7.62338 15.3366 3.15481
H 8.89366 15.5109 2.50944
O 17.7645 18.2536 1.74531
H 18.5801 17.8534 2.10662
H 17.4492 1.3978 2.36189
O 16.9346 5.19413 2.95932
H 17.586 5.66023 2.35565
H 16.1055 5.37717 2.6238
O 15.4799 0.986398 4.34933
H 15.4167 17.6022 4.59893
H 14.6508 1.1804 3.97255
O 1.19058 9.58357 4.45015
H 1.48346 10.1498 3.72818
H 0.903264 10.3025 5.09662
O 7.20372 2.85436 8.21674
H 6.50102 2.69033 7.50281
H 7.86559 3.47577 7.84429
O 11.774 9.6941 7.63595
H 11.016 9.20941 7.35116
H 12.2372 9.98705 6.81328
O 10.3643 7.44184 4.61113
H 10.9737 7.09824 5.30524
H 10.2675 8.45577 4.68525
O 8.17698 9.21492 2.72064
H 8.46041 8.42181 2.2449
H 8.92744 9.62535 3.18093
O 5.24784 4.16461 1.42935
H 5.29394 5.12915 1.35081
H 6.05643 3.76953 1.09116
O 16.6977 12.229 1.29249
H 16.7166 11.5246 1.88666
H 16.6463 13.0466 1.76846
O 20.0731 1.91187 4.36991
H 20.3418 1.36436 3.61193
H 19.2248 2.34698 4.11578
O 5.27936 7.07168 1.37892
H 4.42268 7.27083 1.84624
H 5.04123 7.16548 0.435316
O 16.1199 11.7227 6.99387
H 16.5519 11.5614 6.10678
H 16.8705 11.3824 7.52801
O 4.61341 17.3931 7.8146
H 4.2628 0.810034 7.77202
H 5.11878 17.3356 0.174098
O 19.3554 1.83431 7.93673
H 19.4813 1.3165 7.16376
H 18.6337 1.47299 8.44352
O 13.7292 12.8412 8.17063
H 14.6429 12.5481 7.97902
H 13.6808 13.6935 0.175369
O 1.66845 16.8661 0.266156
H 1.86014 17.525 8.08526
H 2.56229 16.4896 0.486089
O 6.25184 2.70443 5.53064
H 5.57866 2.71471 4.83335
H 7.00268 2.15989 5.33675
O 3.017 17.6275 3.39816
H 2.15038 17.5668 2.90968
H 3.08996 16.8218 3.9416
O 9.17331 5.07669 7.65425
H 8.80037 5.80764 8.24657
H 8.55382 5.19915 6.96033
O 9.21962 8.40907 7.20449
H 8.98727 7.95436 7.99227
H 8.85579 9.31585 7.4034
O 11.4942 2.08333 6.05413
H 11.4896 2.32291 7.02215
H 11.4838 1.10708 5.96475
O 12.3929 10.3858 1.70303
H 13.162 10.9857 1.91596
H 12.3053 10.2342 0.719573
O 2.85237 7.42249 2.8093
H 2.2706 8.13975 3.05759
H 2.23344 6.78792 2.35626
O 3.48542 14.9782 1.06512
H 3.493 14.9307 2.05321
H 4.40211 14.9633 0.788757
O 20.0584 14.8428 7.48615
H 19.1242 15.1176 7.5809
H 20.6977 15.5799 7.79593
O 3.25726 11.316 2.54882
H 3.19605 11.3183 1.56964
H 4.08196 10.8097 2.72445
O 16.0021 1.31783 7.04139
H 15.3309 1.80338 7.49317
H 15.6695 1.245 6.11372
O 12.04 17.0749 7.18427
H 12.2323 16.1788 6.8175
H 11.1047 16.9671 7.55844
O 10.8213 4.0193 2.69274
H 11.5164 3.9429 3.3583
H 10.0721 4.44884 3.05517
O 14.0777 3.78543 8.23223
H 14.1877 4.02265 0.74192
H 13.1438 3.73488 8.16645
O 12.0475 13.9368 3.81109
H 12.5832 13.1508 3.57151
H 11.2535 13.51 4.18257
O 20.7027 15.215 4.4673
H 1.26153 14.7656 4.02679
H 20.8804 15.0175 5.42185
O 7.40901 5.26444 5.51317
H 6.77353 5.95406 5.65354
H 7.09571 4.32036 5.68296
O 3.71183 2.59074 7.97575
H 2.75852 2.88558 8.17318
H 4.29252 3.03971 0.228856
O 2.72953 13.8573 3.42101
H 3.19415 13.5416 4.21816
H 2.67848 13.0883 2.82043
O 19.7458 6.38226 5.87861
H 19.9872 6.95212 6.60636
H 20.3784 5.71894 5.54753
O 13.0567 1.76516 2.80451
H 12.1662 1.29522 2.99097
H 13.3869 1.32263 1.9693
O 17.1534 14.6527 7.30431
H 16.9152 13.707 7.14525
H 16.4243 14.9965 7.86624
O 3.83691 16.0296 5.51896
H 3.64799 15.1216 5.82945
H 4.0329 16.5238 6.30066
O 12.8012 4.44444 5.34981
H 13.7537 4.31828 5.24741
H 12.4303 3.4958 5.42641
O 7.21402 8.3348 5.20529
H 8.02899 8.36259 5.74985
H 7.53421 8.4076 4.28173
O 12.2294 14.9246 1.15862
H 11.9756 14.5176 2.01152
H 11.3274 15.2542 0.766987
O 1.56156 1.0927 6.62842
H 1.70696 0.896254 5.70865
H 1.30813 2.01942 6.75914
O 8.85016 5.74796 3.52007
H 8.39082 5.57212 4.37083
H 9.46267 6.45013 3.72387
O 17.7436 11.149 4.97103
H 17.9554 11.9361 4.39132
H 17.2762 10.4947 4.37555
O 7.96995 11.1135 7.71208
H 7.25318 10.7916 8.24386
H 8.59425 11.6871 8.13129
O 6.03181 10.1569 1.16011
H 6.66344 10.3978 1.83655
H 5.85991 9.20024 1.30584
O 18.4195 10.4452 8.29011
H 17.8394 9.80225 0.166642
H 18.8155 11.0013 0.563703
O 5.8484 13.4767 0.403065
H 6.52856 13.1837 1.07206
H 5.4509 12.6852 0.0862148
O 21.0183 5.93424 1.92334
H 20.1853 6.46794 2.09436
H 21.0899 5.23524 2.63337
O 5.97785 15.383 3.34944
H 6.05786 15.9275 4.17186
H 6.22411 14.4005 3.41744
O 15.3733 5.43599 6.57601
H 14.829 4.98844 7.30276
H 16.3095 5.15007 6.69491
O 10.589 12.5358 7.59927
H 11.2219 11.8657 7.96754
H 11.1403 13.3369 7.68915
O 16.3964 14.4165 2.77533
H 16.3692 15.216 2.2181
H 15.8997 14.6108 3.59577
O 19.8843 11.6622 1.73242
H 19.6218 12.4706 2.25706
H 20.7376 12.0088 1.31868
O 18.2089 6.68586 0.848207
H 18.1848 6.1027 0.0801654
H 17.4896 7.3449 0.872023
O 6.97368 11.2038 4.88646
H 7.18417 11.6753 5.72963
H 7.08317 10.2864 5.12312
O 1.56485 13.2105 0.361801
H 2.31994 13.8131 0.529108
H 21.0017 13.6474 8.33471
