         216
  Built with Packmol                                             
  O            4.401211       -1.772704       -0.324834
  H            4.986034       -2.302197        0.217245
  H            3.948421       -1.202678        0.296682
  O            1.568741       -1.351995       -5.881465
  H            2.036300       -2.174592       -5.736711
  H            1.859581       -0.782138       -5.169492
  O            0.106947        6.885458       -1.667879
  H           -0.325824        6.243480       -2.230733
  H            0.283963        7.629077       -2.244011
  O            4.133122        1.196249       -4.111620
  H            4.560593        1.203246       -4.968038
  H            3.199009        1.131132       -4.310175
  O           -2.340066        0.535114        0.707787
  H           -2.931693        0.735962       -0.017380
  H           -1.535593        1.010316        0.499850
  O           -2.549030        1.758429       -4.733336
  H           -2.727922        1.511283       -5.640610
  H           -1.807918        2.361512       -4.790554
  O           -1.076274        6.467765        0.096212
  H           -0.619380        5.885323        0.703040
  H           -0.621353        7.305821        0.179520
  O           -2.416876       -2.010956        2.916631
  H           -1.594729       -1.922768        2.434420
  H           -3.097256       -1.922334        2.249203
  O           -1.429619       -0.178210       -6.076431
  H           -1.973630       -0.819113       -6.534171
  H           -1.014868        0.327390       -6.775417
  O           -1.984662       -2.708034       -6.456365
  H           -2.665473       -2.432251       -5.842630
  H           -1.302116       -3.087625       -5.902945
  O           -2.541740       -1.642553       -4.072557
  H           -3.477338       -1.561709       -4.257897
  H           -2.480508       -2.378078       -3.463061
  O           -1.076805        3.888484       -4.142383
  H           -0.206462        3.941771       -4.537219
  H           -0.910952        3.678636       -3.223314
  O           -0.240182        2.575477        0.575675
  H           -1.089375        2.224275        0.843555
  H           -0.202691        3.444181        0.975900
  O           -3.476551        5.110195       -2.965439
  H           -4.006324        5.746268       -3.446046
  H           -3.434363        4.347917       -3.542833
  O           -1.737252        0.219441       -3.482324
  H           -1.579803        1.012736       -3.994305
  H           -1.185101        0.320659       -2.707008
  O            2.597968        4.233492       -2.160582
  H            2.806930        4.553980       -1.283170
  H            2.665078        3.281220       -2.090544
  O           -1.103473        0.397823        6.208510
  H           -1.528771        1.136914        6.643364
  H           -1.184620       -0.325462        6.830204
  O            0.466066       -3.047302        5.005911
  H            1.006849       -3.611382        5.558720
  H            0.077533       -2.417519        5.613073
  O            1.416785       -1.906065       -1.407745
  H            1.343904       -2.427156       -2.207360
  H            2.215391       -1.392276       -1.528076
  O            1.680055       -6.736936        2.143417
  H            1.419965       -5.868577        2.450885
  H            1.192850       -7.344471        2.699982
  O            4.817517        1.548130        1.664437
  H            5.702551        1.899731        1.567879
  H            4.363183        1.819365        0.866789
  O            3.937598       -4.288305       -1.941386
  H            3.678080       -4.091897       -1.041217
  H            4.199673       -3.442752       -2.305512
  O           -2.275282        1.253451       -2.531779
  H           -2.718930        1.501529       -1.720690
  H           -2.053468        2.086204       -2.948374
  O           -4.182549       -4.003405       -2.012709
  H           -4.393550       -4.925789       -1.868081
  H           -4.502840       -3.819557       -2.895797
  O           -2.550073        0.847786        2.425698
  H           -1.837790        1.182378        2.970612
  H           -2.148310        0.150907        1.906875
  O            0.163267       -0.921913        5.834477
  H           -0.513577       -1.125474        5.188973
  H            0.984645       -0.975113        5.345868
  O           -2.946796       -3.596452        6.091229
  H           -2.736074       -3.752228        5.170598
  H           -2.210562       -3.082025        6.422221
  O            5.507337        0.156612        0.064142
  H            5.402528       -0.089872        0.983105
  H            5.477242        1.113333        0.067350
  O            1.262599       -4.545043       -2.403463
  H            1.307569       -5.467247       -2.150978
  H            0.616626       -4.164518       -1.808358
  O            3.040554        5.882654        1.663008
  H            2.288709        5.290242        1.660098
  H            3.484832        5.702503        2.491497
  O            1.722654       -1.047506       -2.918920
  H            2.096954       -0.349328       -2.381632
  H            0.957151       -1.344657       -2.427048
  O            1.312571        1.525269       -5.683572
  H            1.420756        0.669077       -5.269492
  H            2.140547        1.677950       -6.138957
  O            5.032293       -4.204103       -0.799136
  H            4.379928       -4.530429       -0.179329
  H            5.835835       -4.128959       -0.284446
  O            1.233050        1.807313       -2.441452
  H            0.701382        1.327357       -1.806470
  H            1.536999        2.579775       -1.964852
  O            4.211994        3.863620       -3.722794
  H            5.043809        3.572125       -4.096082
  H            4.348680        3.829300       -2.776026
  O            3.006604       -2.997977        5.213722
  H            3.821315       -2.702950        4.806983
  H            2.353678       -2.934566        4.516659
  O           -0.700399       -3.895774        0.840730
  H           -0.312587       -3.703086        1.694372
  H           -1.575907       -4.225180        1.043729
  O           -1.150787       -3.343066        3.459303
  H           -1.937864       -2.879870        3.745990
  H           -0.571712       -3.326644        4.221296
  O           -1.337392       -6.307727        0.713517
  H           -2.261823       -6.094342        0.840503
  H           -1.208751       -7.119210        1.204614
  O           -0.503841        1.272244       -5.351058
  H           -1.376023        1.192335       -5.737248
  H           -0.577239        2.007521       -4.742608
  O           -0.272128        2.116860        4.669680
  H            0.164807        2.968243        4.691257
  H            0.111783        1.631512        5.399941
  O           -4.060481       -5.271660       -2.690764
  H           -3.514431       -4.755703       -3.283933
  H           -4.837626       -5.487161       -3.206357
  O           -0.168822       -2.022022       -6.227536
  H            0.238565       -1.203001       -6.509444
  H           -1.057535       -1.982052       -6.580838
  O            0.785265       -0.511879       -0.470688
  H            0.725361       -0.122274       -1.342956
  H            0.593081       -1.439416       -0.608427
  O           -6.169137       -3.901647       -2.501703
  H           -6.230938       -4.643507       -1.899991
  H           -6.059179       -3.139740       -1.932811
  O           -1.997033       -1.705456        0.225173
  H           -1.529825       -1.345776        0.979213
  H           -2.673484       -2.265065        0.606595
  O            3.948631       -1.468026        2.725884
  H            4.756707       -1.960155        2.580786
  H            4.242171       -0.582837        2.941537
  O            1.884252        3.085747       -5.587890
  H            1.965894        2.802921       -4.677079
  H            1.438271        3.931207       -5.537590
  O            5.183225       -1.536789        4.584653
  H            5.195700       -0.620179        4.309151
  H            6.037108       -1.878677        4.319649
  O           -2.816394       -0.904250       -0.109225
  H           -3.435658       -0.419202        0.436186
  H           -2.382287       -0.232421       -0.634989
  O            1.150356        1.412750        5.403047
  H            0.447942        0.900032        5.003088
  H            0.697312        2.096036        5.897115
  O           -0.284740        4.331497        3.449871
  H           -0.659798        4.924279        2.798587
  H           -0.739714        3.501222        3.308897
  O           -0.222319       -4.033220        5.317534
  H           -1.063044       -4.473237        5.191849
  H           -0.454419       -3.146311        5.592768
  O           -6.287633        0.681549       -0.306275
  H           -5.823432        1.191423        0.357636
  H           -7.157733        1.078244       -0.348568
  O            0.194496        6.675973        3.741289
  H           -0.354156        7.294350        3.258773
  H           -0.244398        5.832013        3.634827
  O            3.146768       -0.062043        1.659286
  H            3.543467        0.730928        1.298651
  H            3.769032       -0.758457        1.449465
  O           -0.327026       -0.196841        1.461100
  H            0.056543        0.453116        0.872320
  H           -0.604327       -0.908866        0.884598
  O           -5.313787       -4.413767        0.897133
  H           -5.369357       -4.645285        1.824248
  H           -4.391576       -4.198036        0.758506
  O           -2.382630       -5.712725       -3.628717
  H           -2.449662       -6.154775       -4.475080
  H           -2.134137       -6.404552       -3.015645
  O           -2.124482       -3.868588       -1.340749
  H           -3.072589       -3.959230       -1.436185
  H           -1.761695       -4.338261       -2.091764
  O           -6.817836        0.150275        2.587941
  H           -6.185208        0.854317        2.730553
  H           -7.054853       -0.141356        3.468285
  O           -3.443977        1.626476        0.132094
  H           -4.066689        2.235094        0.529644
  H           -2.613423        2.102274        0.126814
  O           -6.184731       -2.093357       -1.216619
  H           -6.866625       -2.439385       -0.640845
  H           -6.453895       -2.361145       -2.095295
  O           -2.958017        5.194431        4.345073
  H           -2.886993        4.381378        3.844942
  H           -3.266858        5.840622        3.710025
  O            3.290131        2.963674        0.094066
  H            4.143734        2.563457       -0.071522
  H            3.092670        3.448146       -0.707511
  O            0.778301        4.309033       -4.898201
  H            0.668214        3.360583       -4.830721
  H            1.714497        4.452430       -4.759614
  O           -1.932104        3.295781       -5.981135
  H           -1.981526        4.147396       -6.415349
  H           -1.140584        3.345257       -5.445151
  O            2.242409       -0.886164        0.268008
  H            2.151584       -1.583187       -0.381716
  H            2.140908       -0.076681       -0.232656
  O            1.056387       -3.822470       -1.013743
  H            0.882689       -3.358498       -0.194726
  H            1.958990       -4.129593       -0.928810
  O           -3.224942       -0.016268        6.132551
  H           -3.846794       -0.581305        6.591098
  H           -2.786081        0.472377        6.828869
  O           -3.177992        2.663614       -4.456776
  H           -3.834894        2.360834       -5.083701
  H           -2.610669        3.243469       -4.964856
  O           -4.565496       -0.434197       -5.014806
  H           -3.747605       -0.175752       -4.589964
  H           -4.405568       -1.327171       -5.320177
