========================================== 
PDMS MACE Automated Workflow Started 
Model: mp / mh-1 
Head:  omat_pbe 
Started at: Tue 04/07/2026 20:37:18.13 
========================================== 
[INFO] silicone_slab.lmpdat found. 
[INFO] Raw model found at: mace_pretained_models/mace-mh-1.model 
[INFO] MLIAP PT model not found. Triggering conversion... 
 Container lammps_melting-quenching_cuequ-newimage-mace_model_conversion-run-0fc950ac4d05 Creating 
 Container lammps_melting-quenching_cuequ-newimage-mace_model_conversion-run-0fc950ac4d05 Created 

==========
== CUDA ==
==========

CUDA Version 12.9.0

Container image Copyright (c) 2016-2023, NVIDIA CORPORATION & AFFILIATES. All rights reserved.

This container image and its contents are governed by the NVIDIA Deep Learning Container License.
By pulling and using the container, you accept the terms and conditions of this license:
https://developer.nvidia.com/ngc/nvidia-deep-learning-container-license

A copy of this license is made available in this container at /NGC-DL-CONTAINER-LICENSE for your convenience.

Failed to get GPU information from pynvml: Not Supported. Using default values for NVIDIA GeForce RTX 5080.
/workspace/convert_mace_to_mliap.py:59: UserWarning: Environment variable TORCH_FORCE_NO_WEIGHTS_ONLY_LOAD detected, since the`weights_only` argument was not explicitly passed to `torch.load`, forcing weights_only=False.
  model = torch.load(
/usr/local/lib/python3.10/dist-packages/mace/modules/models.py:85: UserWarning: To copy construct from a tensor, it is recommended to use sourceTensor.detach().clone() or sourceTensor.detach().clone().requires_grad_(True), rather than torch.tensor(sourceTensor).
  "atomic_numbers", torch.tensor(atomic_numbers, dtype=torch.int64)
/usr/local/lib/python3.10/dist-packages/torch/jit/_check.py:178: UserWarning: The TorchScript type system doesn't support instance-level annotations on empty non-base types in `__init__`. Instead, either 1) use a type annotation in the class body, or 2) wrap the type in `torch.jit.Attribute`.
  warnings.warn(
/usr/local/lib/python3.10/dist-packages/torch/jit/_check.py:178: UserWarning: The TorchScript type system doesn't support instance-level annotations on empty non-base types in `__init__`. Instead, either 1) use a type annotation in the class body, or 2) wrap the type in `torch.jit.Attribute`.
  warnings.warn(
/usr/local/lib/python3.10/dist-packages/torch/jit/_check.py:178: UserWarning: The TorchScript type system doesn't support instance-level annotations on empty non-base types in `__init__`. Instead, either 1) use a type annotation in the class body, or 2) wrap the type in `torch.jit.Attribute`.
  warnings.warn(
/usr/local/lib/python3.10/dist-packages/torch/jit/_check.py:178: UserWarning: The TorchScript type system doesn't support instance-level annotations on empty non-base types in `__init__`. Instead, either 1) use a type annotation in the class body, or 2) wrap the type in `torch.jit.Attribute`.
  warnings.warn(
GPU information: NVIDIA RTX A6000, 8, 6, 45, 84, 300, 2100
cuEquivariance conversion is available - GPU acceleration will be enabled!
Loading model from: /workspace/mace_pretained_models/mace-mh-1.model
Converting model to cuEquivariance format for GPU acceleration...
cuEquivariance conversion successful!
Model loaded and converted to float64
Using uniquely specified head: omat_pbe
Model saved to: /workspace/mace_pretained_models/mace-mh-1.model_omat_pbe.pt
Conversion successful!
[INFO] Starting LAMMPS simulation with model: mace_pretained_models/mace-mh-1.model_omat_pbe.pt 
 Container lammps_melting-quenching_cuequ-newimage-lammps_melt_quench-run-cfa5b4693feb Creating 
 Container lammps_melting-quenching_cuequ-newimage-lammps_melt_quench-run-cfa5b4693feb Created 

==========
== CUDA ==
==========

CUDA Version 12.9.0

Container image Copyright (c) 2016-2023, NVIDIA CORPORATION & AFFILIATES. All rights reserved.

This container image and its contents are governed by the NVIDIA Deep Learning Container License.
By pulling and using the container, you accept the terms and conditions of this license:
https://developer.nvidia.com/ngc/nvidia-deep-learning-container-license

A copy of this license is made available in this container at /NGC-DL-CONTAINER-LICENSE for your convenience.

LAMMPS (10 Dec 2025)
Failed to get GPU information from pynvml: Not Supported. Using default values for NVIDIA GeForce RTX 5080.
W0407 12:37:58.408000 1 torch/fx/_symbolic_trace.py:52] is_fx_tracing will return true for both fx.symbolic_trace and torch.export. Please use is_fx_tracing_symbolic_tracing() for specifically fx.symbolic_trace or torch.compiler.is_compiling() for specifically torch.export/compile.
KOKKOS mode with Kokkos version 4.7.1 is enabled
  using double precision
  using view layout = legacy
  will use up to 1 GPU(s) per node
WARNING: When using a single thread, the Kokkos Serial backend (i.e. Makefile.kokkos_mpi_only) gives better performance than the OpenMP backend (src/KOKKOS/kokkos.cpp:266)
  using 1 OpenMP thread(s) per MPI task
Reading data file ...
  orthogonal box = (0 0 0) to (22 19.079963 20)
  1 by 1 by 1 MPI processor grid
  reading atoms ...
  523 atoms
  read_data CPU = 0.033 seconds
Step 1: Quick Minimization

CITE-CITE-CITE-CITE-CITE-CITE-CITE-CITE-CITE-CITE-CITE-CITE-CITE

Your simulation uses code contributions which should be cited:
- KOKKOS package: https://doi.org/10.1145/3731599.3767498
The log file lists these citations in BibTeX format.

CITE-CITE-CITE-CITE-CITE-CITE-CITE-CITE-CITE-CITE-CITE-CITE-CITE

Neighbor list info ...
  update: every = 1 steps, delay = 0 steps, check = yes
  max neighbors/atom: 2000, page size: 100000
  master list distance cutoff = 7
  ghost atom cutoff = 7
  binsize = 7, bins = 4 3 3
  1 neighbor lists, perpetual/occasional/extra = 1 0 0
  (1) pair mliap/kk, perpetual
      attributes: full, newton on, kokkos_device
      pair build: full/bin/kk/device
      stencil: full/bin/3d
      bin: kk/device
Setting up cg/kk style minimization ...
  Unit style    : metal
  Current step  : 0
WARNING: Fix MINIMIZE/kk not compatible with sending data in Kokkos communication (src/KOKKOS/comm_kokkos.cpp:744)
WARNING: Fix with atom-based arrays not compatible with sending data in Kokkos communication, switching to legacy exchange/border communication (src/KOKKOS/comm_kokkos.cpp:751)
WARNING: Fix MINIMIZE/kk not compatible with Kokkos sorting on device (src/KOKKOS/atom_kokkos.cpp:217)
WARNING: Fix with atom-based arrays not compatible with Kokkos sorting on device, switching to legacy host sorting (src/KOKKOS/atom_kokkos.cpp:223)
Per MPI rank memory allocation (min/avg/max) = 118.4 | 118.4 | 118.4 Mbytes
   Step          CPU           S/CPU           Temp          Press          PotEng         KinEng         TotEng         Volume        Density          Fmax          Fnorm     
         0   0              0              0              136456.27     -2358.8385      0             -2358.8385      8395.1837      0.76196043     14.064215      89.148993    
       100   33.55961       2.9797718      0              2517.692      -2826.9398      0             -2826.9398      8395.1837      0.76196043     1.0596448      4.3850032    
       200   71.266221      2.6520549      0              1811.579      -2836.2265      0             -2836.2265      8395.1837      0.76196043     0.43037422     1.718318     
       287   125.94754      1.5910369      0              1491.6179     -2837.6305      0             -2837.6305      8395.1837      0.76196043     0.089616736    0.36630347   
Loop time of 125.967 on 1 procs for 287 steps with 523 atoms

97.8% CPU use with 1 MPI tasks x 1 OpenMP threads

Minimization stats:
  Stopping criterion = linesearch alpha is zero
  Energy initial, next-to-last, final = 
     -2358.83848166638  -2837.63048720672  -2837.63048720672
  Force two-norm initial, final = 89.148993 0.36630347
  Force max component initial, final = 14.064215 0.089616736
  Final line search alpha, max atom move = 5.9604645e-08 5.3415737e-09
  Iterations, force evaluations = 287 639

MPI task timing breakdown:
Section |  min time  |  avg time  |  max time  |%varavg| %total
---------------------------------------------------------------
Pair    | 125.29     | 125.29     | 125.29     |   0.0 | 99.46
Neigh   | 0.041074   | 0.041074   | 0.041074   |   0.0 |  0.03
Comm    | 0.11532    | 0.11532    | 0.11532    |   0.0 |  0.09
Output  | 0.01788    | 0.01788    | 0.01788    |   0.0 |  0.01
Modify  | 0          | 0          | 0          |   0.0 |  0.00
Other   |            | 0.5006     |            |       |  0.40

Nlocal:            523 ave         523 max         523 min
Histogram: 1 0 0 0 0 0 0 0 0 0
Nghost:           1832 ave        1832 max        1832 min
Histogram: 1 0 0 0 0 0 0 0 0 0
Neighs:              0 ave           0 max           0 min
Histogram: 1 0 0 0 0 0 0 0 0 0
FullNghs:        47608 ave       47608 max       47608 min
Histogram: 1 0 0 0 0 0 0 0 0 0

Total # of neighbors = 47608
Ave neighs/atom = 91.028681
Neighbor list builds = 26
Dangerous builds = 0
Initial density: 0.761960427262085 g/cm^3
Phase 1: Heating to 1000K to fluidize polymer (10,000 steps)
Setting up Verlet run ...
  Unit style    : metal
  Current step  : 287
  Time step     : 0.001
Per MPI rank memory allocation (min/avg/max) = 126.5 | 126.5 | 126.5 Mbytes
   Step          CPU           S/CPU           Temp          Press          PotEng         KinEng         TotEng         Volume        Density          Fmax          Fnorm     
       287   0              0              300            4061.2446     -2837.6305      20.242139     -2817.3883      8395.1837      0.76196043     0.089226454    0.36095281   
       300   2.4738044      5.25502        155.54305      3301.5437     -2827.4749      10.49508      -2816.9798      8395.7336      0.76191052     2.9988754      25.421263    
       400   21.729452      5.1932854      156.7103       3686.6476     -2824.8982      10.573839     -2814.3244      8418.4463      0.75985491     2.8769174      23.870075    
       500   40.876482      5.2227423      223.15311      2361.3217     -2825.2919      15.056987     -2810.2349      8478.782       0.75444772     3.1850705      23.386352    
       600   59.842935      5.2724669      259.43281      4874.0304     -2823.039       17.504916     -2805.534       8580.6279      0.74549297     2.7160725      27.179466    
       700   78.679583      5.3087999      307.51808      3638.5989     -2821.3441      20.749412     -2800.5947      8740.4894      0.73185808     3.4555806      28.413384    
       800   97.346479      5.3570774      329.55479      2316.5319     -2817.8778      22.236313     -2795.6415      8943.0023      0.71528526     4.4401598      32.995722    
       900   116.09385      5.3340822      366.03042      592.13121     -2817.8806      24.697462     -2793.1831      9149.9124      0.69911028     3.6999697      30.770034    
      1000   134.79179      5.3481813      379.70668      1254.9194     -2818.575       25.620251     -2792.9547      9353.5483      0.68388996     5.221185       32.075992    
      1100   153.32519      5.3956645      368.52577      2808.5333     -2820.3968      24.865832     -2795.531       9557.6984      0.66928224     5.3235043      31.958614    
      1200   171.80421      5.4115418      345.38834      1127.2002     -2821.2351      23.304662     -2797.9305      9769.5414      0.6547695      3.993729       29.948131    
      1300   190.22117      5.4297776      368.51171      519.68176     -2822.0107      24.864884     -2797.1458      9959.0534      0.64230982     3.3910431      29.391213    
      1400   208.53072      5.461632       381.79244      1974.2098     -2819.7197      25.760985     -2793.9587      10117.276      0.63226482     3.6382375      31.986914    
      1500   226.64598      5.5202071      408.12225      2532.5359     -2819.4319      27.537557     -2791.8943      10287.8        0.6217848      6.2174628      33.759532    
      1600   244.7262       5.5309074      401.02159      380.76424     -2818.7303      27.058449     -2791.6719      10479.346      0.61041954     4.4834478      31.788657    
      1700   262.56686      5.6051718      391.70131      939.90653     -2818.8641      26.429574     -2792.4346      10669.226      0.59955596     4.1779326      31.413178    
      1800   280.45752      5.5895054      391.37581      1160.769      -2818.3592      26.407612     -2791.9516      10854.567      0.58931857     4.0066279      34.058448    
      1900   298.25941      5.6173857      419.62454      16.25617      -2817.9134      28.31366      -2789.5998      11027.835      0.58005928     5.7224587      34.913692    
      2000   316.06679      5.6156494      413.56408      1897.9955     -2816.0554      27.904738     -2788.1506      11191.765      0.57156293     6.1134693      34.620576    
      2100   333.89358      5.6095335      423.48324     -566.91517     -2815.2839      28.574022     -2786.7098      11363.715      0.56291432     4.8010258      35.944595    
      2200   351.90989      5.5505259      428.99792      1824.1098     -2815.1149      28.946118     -2786.1688      11558.162      0.55344422     4.183728       35.816349    
      2300   369.62811      5.6439099      456.67715      288.5724      -2816.6165      30.813741     -2785.8028      11754.095      0.54421865     4.467988       33.641626    
      2400   387.15547      5.7053655      465.90671      1420.068      -2816.5284      31.436494     -2785.0919      11924.603      0.53643694     4.4837681      35.580695    
      2500   404.60244      5.7316526      462.5741       514.95487     -2815.2976      31.211631     -2784.086       12087.099      0.52922523     6.7424021      36.143638    
      2600   422.18069      5.6888481      467.96268      309.53692     -2814.6542      31.575219     -2783.079       12234.864      0.52283359     6.9298189      37.841108    
      2700   439.64226      5.7268566      492.7787       226.49913     -2814.3748      33.249649     -2781.1251      12387.204      0.51640368     8.981824       38.974379    
      2800   456.95775      5.775184       494.07479     -1826.4337     -2813.7519      33.337101     -2780.4148      12524.096      0.51075924     4.2649469      37.348288    
      2900   474.37408      5.7417354      467.64565      254.42777     -2812.9763      31.553827     -2781.4225      12655.518      0.50545522     5.9049601      36.377593    
      3000   491.6922       5.7742992      464.17083     -1664.9488     -2813.4488      31.319367     -2782.1294      12785.973      0.50029807     4.7635259      37.483886    
      3100   508.78835      5.849272       489.433        967.89979     -2816.1494      33.023902     -2783.1255      12917.007      0.4952229      8.8511901      37.561592    
      3200   525.72877      5.9030404      496.03676     -609.63966     -2814.221       33.469483     -2780.7515      13045.323      0.49035183     10.252411      41.410747    
      3300   542.56732      5.9387517      512.87895     -941.34958     -2810.9824      34.60589      -2776.3765      13148.469      0.48650515     5.3191354      39.414284    
      3400   559.258        5.9913695      521.78044      1329.3418     -2811.3531      35.206507     -2776.1466      13220.316      0.48386119     7.7467912      41.0955      
      3500   575.94046      5.99432        528.43506      1198.4104     -2812.2745      35.655519     -2776.619       13285.774      0.48147725     5.2585288      41.555306    
      3600   592.696        5.9681729      551.48645      3567.6389     -2814.0923      37.210884     -2776.8814      13345.597      0.47931895     7.4883765      44.429547    
      3700   609.3573       6.0019364      527.38434     -595.90829     -2812.2033      35.584623     -2776.6187      13411.218      0.47697368     10.779679      43.360783    
      3800   625.91653      6.0389262      533.33623      700.71442     -2812.0404      35.98622      -2776.0542      13461.024      0.47520886     7.2034104      39.633618    
      3900   642.56335      6.0071546      541.29886      597.34472     -2811.7655      36.523489     -2775.242       13509.464      0.47350494     5.80952        40.030832    
      4000   659.30634      5.9726479      541.88894      2886.8405     -2810.6178      36.563303     -2774.0545      13584.124      0.47090249     9.0508715      45.269752    
      4100   676.11472      5.9494143      526.38396     -1146.5021     -2811.0251      35.517123     -2775.508       13664.278      0.46814018     6.4695703      41.169946    
      4200   692.85105      5.9750232      515.21675      1243.8788     -2809.8411      34.76363      -2775.0775      13761.808      0.46482248     7.5281724      45.231364    
      4300   709.5085       6.0033219      564.37308     -589.65438     -2810.188       38.080394     -2772.1076      13860.694      0.46150632     10.021445      43.845314    
      4400   726.18504      5.996446       592.02212     -956.44088     -2807.9624      39.945979     -2768.0164      13962.48       0.45814194     6.7854368      41.820502    
      4500   742.68621      6.0601727      604.6841       632.01939     -2808.0785      40.800331     -2767.2782      14069.734      0.45464952     10.393471      46.939218    
      4600   759.31211      6.0147171      597.2543      -262.10798     -2806.8592      40.299015     -2766.5602      14171.029      0.45139965     7.6004547      44.856402    
      4700   775.74207      6.0864426      634.70409      1251.868      -2808.6368      42.825894     -2765.8109      14266.937      0.44836519     7.7580888      43.066589    
      4800   792.00755      6.1479873      633.29644     -639.88018     -2810.3908      42.730915     -2767.6599      14365.141      0.44530002     7.1227118      43.24331     
      4900   807.95451      6.2707887      592.33944      1186.996      -2807.2696      39.967391     -2767.3022      14432.552      0.44322014     8.2696233      43.836194    
      5000   823.9245       6.2617437      637.56601      787.29429     -2809.333       43.018999     -2766.314       14468.782      0.44211031     6.6627843      42.886682    
      5100   839.91879      6.2522302      667.5152      -631.88671     -2808.3065      45.039784     -2763.2667      14494.607      0.44132261     6.6983226      44.253638    
      5200   855.90318      6.2561032      745.71341      836.67593     -2808.4113      50.316115     -2758.0952      14526.513      0.44035329     6.7809626      45.54675     
      5300   872.27154      6.1093507      704.90888     -575.59458     -2805.5229      47.562878     -2757.9601      14548.671      0.43968262     5.9886775      45.750095    
      5400   888.81895      6.0432413      652.23194      1304.4169     -2802.1809      44.008565     -2758.1724      14592.919      0.43834943     11.970497      49.798782    
      5500   905.36398      6.0441105      632.94998     -336.96518     -2800.1741      42.707537     -2757.4665      14670.605      0.43602821     9.7392445      53.737962    
      5600   921.74951      6.1029474      618.80412      1825.7295     -2800.3971      41.753063     -2758.6441      14753.195      0.4335873      11.185712      49.229996    
      5700   937.75172      6.2491341      683.57339      1801.1871     -2804.3188      46.123291     -2758.1955      14858.815      0.43050525     8.891174       48.910219    
      5800   953.9576       6.170601       723.78487      1238.1131     -2803.8559      48.836513     -2755.0194      14953.943      0.42776664     8.728192       44.340312    
      5900   970.03807      6.2187236      680.37655      2730.4612     -2796.1399      45.907589     -2750.2324      15047.581      0.42510472     8.1092626      49.822504    
      6000   985.62054      6.4174688      826.45109      120.80886     -2799.9552      55.763792     -2744.1914      15174.07       0.42156111     9.0583975      49.280533    
      6100   1001.166       6.4327619      734.41999      1509.6398     -2797.5479      49.554105     -2747.9938      15272.433      0.41884602     13.13993       51.712769    
      6200   1017.5388      6.1076822      652.62931     -3006.1702     -2793.5058      44.035377     -2749.4705      15371.816      0.41613807     12.543657      51.535576    
      6300   1033.0361      6.4527186      703.90697     -437.77957     -2798.7646      47.495275     -2751.2693      15457.794      0.41382347     10.490161      47.351936    
      6400   1048.809       6.340006       720.33268     -189.42881     -2799.0264      48.60358      -2750.4228      15546.666      0.41145785     7.7181822      49.999047    
      6500   1064.694       6.2952308      741.88314     -2817.6059     -2802.4314      50.057672     -2752.3738      15613.131      0.40970628     6.3829341      46.636079    
      6600   1080.595       6.2889406      709.90986      1412.7922     -2801.8334      47.900313     -2753.9331      15646.291      0.40883796     7.1954707      46.708269    
      6700   1096.4089      6.3235478      737.23073     -1563.636      -2800.8883      49.743755     -2751.1446      15684.772      0.40783491     7.050766       45.983688    
      6800   1112.2374      6.3176864      772.49997      2397.4148     -2798.6284      52.123505     -2746.5049      15702.475      0.40737513     7.6631566      51.136402    
      6900   1128.2277      6.2537883      794.80379      326.60746     -2798.669       53.628428     -2745.0406      15719.75       0.40692745     6.8667359      48.864654    
      7000   1144.1421      6.2836394      750.21381      1242.8713     -2795.6278      50.619773     -2745.0081      15713.736      0.40708319     11.53177       51.361968    
      7100   1160.1576      6.2439306      751.53497     -151.41081     -2795.3327      50.708917     -2744.6238      15733.543      0.4065707      10.410573      52.254175    
      7200   1176.1308      6.2605005      819.39402      1242.1078     -2800.858       55.287625     -2745.5704      15750.461      0.406134       6.7015591      48.981029    
      7300   1192.1503      6.2423881      775.90883     -221.75098     -2795.1707      52.353514     -2742.8172      15760.805      0.40586746     9.9866435      48.303278    
      7400   1208.3074      6.1892458      752.38456      2232.9709     -2790.7182      50.766242     -2739.952       15771.952      0.40558061     7.8281933      56.656578    
      7500   1224.2526      6.2714723      829.98729     -3419.5924     -2792.5559      56.002393     -2736.5535      15820.024      0.40434817     7.603255       49.886567    
      7600   1240.3089      6.2280936      863.63785      1320.7879     -2791.795       58.272924     -2733.5221      15834.371      0.40398181     6.9263731      48.341774    
      7700   1256.3042      6.2518077      817.83613     -2288.5292     -2790.8356      55.182508     -2735.6531      15859.031      0.40335362     9.8582574      54.31        
      7800   1272.3143      6.2460574      868.05549     -1449.7195     -2794.6138      58.570999     -2736.0428      15879.559      0.40283221     8.4586952      48.281538    
      7900   1288.2712      6.2668989      807.38169      286.42694     -2786.3228      54.477107     -2731.8457      15897.051      0.40238896     15.214847      56.838269    
      8000   1304.3266      6.2284436      886.08572     -825.54491     -2790.808       59.787567     -2731.0205      15911.742      0.40201743     6.0339845      48.62053     
      8100   1320.3807      6.2289424      866.04219      1897.3153     -2787.1754      58.435154     -2728.7402      15927.894      0.40160976     9.7282907      52.664423    
      8200   1336.5513      6.1840567      856.31102      1263.9956     -2785.0677      57.778555     -2727.2892      15953.515      0.40096478     10.688982      56.618158    
      8300   1352.6892      6.196585       870.70071     -1353.1356     -2784.8805      58.749482     -2726.131       15973.845      0.40045447     8.4974218      47.753497    
      8400   1368.9358      6.155133       843.72922      1752.2769     -2783.6633      56.929613     -2726.7337      15991.621      0.40000933     10.16317       53.402702    
      8500   1385.1642      6.1620313      800.2535      -1014.2086     -2784.8859      53.996141     -2730.8898      16052.843      0.39848378     9.8279493      53.141188    
      8600   1401.0337      6.3013842      838.99101      136.28904     -2786.8273      56.609908     -2730.2173      16132.529      0.39651551     17.540375      59.515481    
      8700   1417.2589      6.1632644      866.29703     -329.68838     -2781.7686      58.452349     -2723.3163      16214.578      0.39450904     10.003064      54.687265    
      8800   1433.2849      6.2398597      875.75231     -64.675808     -2779.4455      59.090332     -2720.3552      16264.687      0.39329362     9.7847249      54.271616    
      8900   1449.1958      6.2850261      864.23204      1875.7891     -2774.153       58.313016     -2715.84        16315.943      0.3920581      10.076869      56.659668    
      9000   1465.1566      6.2653225      954.6892       359.85022     -2778.2817      64.416504     -2713.8652      16390.714      0.39026963     10.965558      57.967628    
      9100   1481.1417      6.2558221      902.15735      1726.4246     -2777.7837      60.871981     -2716.9117      16489.891      0.38792237     18.600232      59.583158    
      9200   1497.1655      6.2407255      944.78625     -880.45455     -2781.7412      63.748315     -2717.9928      16619.965      0.38488637     8.7320112      50.832561    
      9300   1513.114       6.270205       896.0014      -1418.8417     -2776.1221      60.456616     -2715.6655      16764.688      0.38156379     12.361362      55.405606    
      9400   1528.8408      6.3585712      967.36079      3050.8597     -2775.4854      65.271504     -2710.2139      16915.308      0.3781662      11.467226      58.713254    
      9500   1544.6576      6.3223706      1017.959       79.002652     -2773.6572      68.68556      -2704.9716      17082.835      0.37445761     14.011327      55.584874    
      9600   1560.4886      6.3167092      1027.6985      796.40982     -2774.033       69.342718     -2704.6903      17239.532      0.37105402     7.6303139      54.934337    
      9700   1576.2953      6.3264312      1054.6977      968.35952     -2778.7447      71.164458     -2707.5803      17403.457      0.36755903     14.617318      56.353821    
      9800   1592.1533      6.3059762      1022.7076     -1416.7797     -2772.8887      69.005964     -2703.8827      17600.999      0.3634338      9.3554084      55.015505    
      9900   1607.9567      6.3277362      955.8918      -173.09103     -2772.683       64.497648     -2708.1853      17845.975      0.35844485     8.4524209      52.566136    
     10000   1623.8178      6.3047412      947.04885      704.51426     -2774.0944      63.900981     -2710.1934      18134.313      0.35274553     11.164684      56.709736    
     10100   1639.5643      6.3506219      992.06628     -446.04835     -2777.1139      66.938478     -2710.1754      18397.564      0.34769808     8.3009668      53.235578    
     10200   1655.3185      6.3475294      985.24864     -1757.1268     -2775.5052      66.478465     -2709.0267      18659.835      0.34281105     8.9274903      54.264588    
     10287   1668.9628      6.3762959      1033.4679     -429.00783     -2781.0304      69.732004     -2711.2984      18853.915      0.3392822      7.3311474      53.59859     
Loop time of 1668.96 on 1 procs for 10000 steps with 523 atoms

Performance: 0.518 ns/day, 46.360 hours/ns, 5.992 timesteps/s, 3.134 katom-step/s
97.5% CPU use with 1 MPI tasks x 1 OpenMP threads

MPI task timing breakdown:
Section |  min time  |  avg time  |  max time  |%varavg| %total
---------------------------------------------------------------
Pair    | 1632.1     | 1632.1     | 1632.1     |   0.0 | 97.79
Neigh   | 3.36       | 3.36       | 3.36       |   0.0 |  0.20
Comm    | 4.2156     | 4.2156     | 4.2156     |   0.0 |  0.25
Output  | 1.2948     | 1.2948     | 1.2948     |   0.0 |  0.08
Modify  | 23.399     | 23.399     | 23.399     |   0.0 |  1.40
Other   |            | 4.627      |            |       |  0.28

Nlocal:            523 ave         523 max         523 min
Histogram: 1 0 0 0 0 0 0 0 0 0
Nghost:            956 ave         956 max         956 min
Histogram: 1 0 0 0 0 0 0 0 0 0
Neighs:              0 ave           0 max           0 min
Histogram: 1 0 0 0 0 0 0 0 0 0
FullNghs:        28470 ave       28470 max       28470 min
Histogram: 1 0 0 0 0 0 0 0 0 0

Total # of neighbors = 28470
Ave neighs/atom = 54.435946
Neighbor list builds = 2243
Dangerous builds = 0
Phase 2: Compressing fluid to 2 GPa at 1000K (20,000 steps)
Setting up Verlet run ...
  Unit style    : metal
  Current step  : 10287
  Time step     : 0.001
Per MPI rank memory allocation (min/avg/max) = 126.1 | 126.1 | 126.1 Mbytes
   Step          CPU           S/CPU           Temp          Press          PotEng         KinEng         TotEng         Volume        Density          Fmax          Fnorm     
     10287   0              0              1033.4679     -411.65311     -2781.0304      69.732004     -2711.2984      18853.915      0.3392822      7.3310365      53.644904    
     10300   2.009829       6.4681942      1019.345      -405.69022     -2778.9383      68.779079     -2710.1593      18854.121      0.33927849     7.760411       52.407513    
     10400   17.58777       6.4193336      1033.6939      1523.2892     -2777.8029      69.747252     -2708.0556      18856.49       0.33923587     11.764701      59.726338    
     10500   33.142777      6.4287978      1023.7327     -2867.3366     -2777.428       69.075129     -2708.3529      18847.602      0.33939584     9.3237221      50.470291    
     10600   48.892265      6.3494126      906.19118      8.688237      -2771.5896      61.144158     -2710.4455      18839.643      0.33953923     8.3203109      54.22189     
     10700   64.714558      6.3201966      973.28335     -885.26868     -2775.0701      65.671122     -2709.3989      18838.558      0.33955877     8.8555956      53.788995    
     10800   80.570872      6.3066354      994.87727     -3391.239      -2767.666       67.128146     -2700.5379      18819.079      0.33991025     21.532057      61.414628    
     10900   96.213767      6.3926786      1035.4757     -285.82544     -2766.4421      69.867478     -2696.5746      18778.367      0.34064717     9.2972443      59.611568    
     11000   111.96882      6.3471725      1016.4662     -320.96635     -2768.7047      68.584834     -2700.1199      18729.191      0.3415416      8.2352053      57.208597    
     11100   127.84289      6.2995791      973.88371     -776.5369      -2767.8396      65.71163      -2702.128       18650.324      0.34298587     10.430155      57.130645    
     11200   143.84157      6.2505151      998.04265     -641.80596     -2769.2405      67.341726     -2701.8987      18560.666      0.34464268     10.404792      54.83805     
     11300   159.78416      6.272506       1050.6131     -544.33253     -2772.9319      70.888855     -2702.0431      18444.357      0.34681599     9.1513565      53.487169    
     11400   175.82297      6.2348788      972.91064      305.20506     -2771.0699      65.645974     -2705.4239      18295.64       0.34963509     7.9726457      54.624037    
     11500   191.80911      6.2554188      1045.0437      1091.8625     -2774.6642      70.513064     -2704.1511      18124.018      0.35294589     8.2070292      55.729298    
     11600   207.73275      6.2799724      1062.2858      1312.4633     -2772.8577      71.676452     -2701.1812      17931.83       0.35672867     12.218713      59.697342    
     11700   223.86334      6.199401       1090.7392      2.0687208     -2775.3978      73.596311     -2701.8015      17709.166      0.36121394     10.75015       53.09339     
     11800   239.99477      6.1990681      1102.6824      1161.5271     -2779.1185      74.402165     -2704.7163      17470.601      0.36614641     11.759748      56.652848    
     11900   255.94183      6.2707563      1006.8377     -382.91829     -2772.4876      67.93516      -2704.5524      17218.08       0.37151632     13.490321      56.307696    
     12000   272.06043      6.204012       990.96956      670.11388     -2771.9049      66.864477     -2705.0404      16955.164      0.37727726     24.861877      66.990729    
     12100   288.35329      6.1376608      996.58598     -1865.545      -2773.4268      67.243439     -2706.1833      16703.534      0.38296074     9.2844397      54.02518     
     12200   304.77485      6.0895549      1021.5045      2238.4593     -2779.2192      68.924785     -2710.2944      16454.807      0.38874948     11.748884      53.0284      
     12300   321.20085      6.0879063      969.4313      -382.34942     -2775.7489      65.41121      -2710.3377      16221.504      0.39434061     15.561918      63.256844    
     12400   337.66289      6.0745831      1032.9891     -240.21128     -2774.8023      69.699695     -2705.1026      16000.307      0.39979218     10.787641      55.266914    
     12500   354.2052       6.0451046      1069.086      -27.344204     -2773.9055      72.135293     -2701.7702      15787.148      0.4051902      7.1203584      55.583289    
     12600   370.64905      6.0812996      1098.228       842.11936     -2776.5722      74.101612     -2702.4706      15573.136      0.4107585      9.1011748      55.496467    
     12700   387.20463      6.040262       982.60229     -791.9179      -2773.6287      66.299906     -2707.3288      15361.828      0.41640864     12.985415      55.852499    
     12800   403.85252      6.0067669      972.51995     -706.59233     -2773.3117      65.619612     -2707.6921      15140.619      0.42249248     11.47452       56.711861    
     12900   420.49816      6.0075784      996.70457      1126.0401     -2775.7732      67.25144      -2708.5218      14916.581      0.42883807     9.9151695      57.289744    
     13000   437.07914      6.0310062      999.42038      3166.7426     -2778.7038      67.434687     -2711.2691      14674.551      0.43591097     8.514483       57.52772     
     13100   453.71859      6.0098086      981.15018      288.38583     -2778.8593      66.201927     -2712.6574      14430.26       0.44329054     11.806287      58.323842    
     13200   470.40686      5.9922403      982.42319      3319.7656     -2777.5486      66.287822     -2711.2608      14191.931      0.45073484     17.590419      61.99562     
     13300   487.11928      5.9835723      1002.6716     -1143.9875     -2778.1107      67.654056     -2710.4566      13969.181      0.45792216     7.7442241      54.138459    
     13400   503.76007      6.0093231      952.73324      1109.5734     -2776.7634      64.284528     -2712.4789      13747.842      0.46529469     10.551518      57.449218    
     13500   520.55313      5.954849       1072.5943      753.82041     -2778.8616      72.372006     -2706.4896      13537.686      0.47251782     8.5676786      51.602518    
     13600   537.35943      5.9501486      1091.2266      973.07361     -2783.3708      73.629199     -2709.7416      13343.984      0.47937691     8.9838714      52.191188    
     13700   554.2954       5.9045947      945.10157     -636.42038     -2774.2356      63.76959      -2710.466       13152.925      0.48634032     13.009142      54.663601    
     13800   571.17675      5.9236967      932.69081      1492.5184     -2768.5601      62.932189     -2705.6279      12958.939      0.49362047     10.489292      61.216598    
     13900   588.1082       5.9061678      970.22939     -1105.3522     -2775.0406      65.46506      -2709.5756      12763.147      0.50119284     8.224856       55.027101    
     14000   605.16765      5.8618531      983.91593      2494.8713     -2775.565       66.388543     -2709.1765      12573.128      0.50876741     22.556342      61.388282    
     14100   622.17486      5.8798602      1023.4289     -207.63084     -2777.7729      69.054629     -2708.7183      12387.446      0.5163936      12.065921      57.468842    
     14200   639.11901      5.9017416      956.35451      4507.206      -2771.3161      64.528869     -2706.7872      12199.113      0.5243658      10.896051      60.406079    
     14300   656.0453       5.9079694      957.04225     -1744.9438     -2768.6539      64.575273     -2704.0787      12014.894      0.5324057      14.552316      58.877663    
     14400   673.16961      5.8396517      988.96072      2736.4224     -2775.5066      66.728933     -2708.7776      11837.589      0.54038012     7.6890892      55.457992    
     14500   690.50974      5.7669679      1002.4784      388.62474     -2773.9305      67.641025     -2706.2894      11664.96       0.54837717     10.354819      55.246543    
     14600   708.00168      5.7169188      1111.1847      699.4091      -2772.0296      74.975853     -2697.0537      11495.611      0.55645568     11.98659       56.778077    
     14700   725.67078      5.6595971      958.864       -1923.2512     -2764.8302      64.698193     -2700.132       11326.86       0.56474588     16.563346      60.603569    
     14800   743.42531      5.6323658      1007.8854      6732.2741     -2768.9674      68.005851     -2700.9616      11152.669      0.57356652     17.034591      63.817613    
     14900   761.09822      5.6583773      981.7062      -483.71297     -2769.9405      66.239443     -2703.7011      10989.402      0.58208789     9.517353       56.870943    
     15000   778.83813      5.6370076      1037.6299     -1693.6373     -2771.3759      70.012827     -2701.363       10823.514      0.59100932     7.7789539      54.57382     
     15100   796.61109      5.6265265      955.25913      3555.0739     -2763.1628      64.45496      -2698.7078      10656.058      0.60029684     10.629339      60.923122    
     15200   814.23206      5.675056       955.35686      2022.8286     -2765.3841      64.461554     -2700.9226      10494.52       0.60953696     20.560976      67.19512     
     15300   831.97273      5.6367642      930.13853      1251.8543     -2764.7729      62.759977     -2702.0129      10342.765      0.61848044     8.7830288      56.455493    
     15400   849.78761      5.6132844      979.9727       3126.8489     -2765.8489      66.122478     -2699.7265      10194.932      0.62744882     14.924376      62.597348    
     15500   867.67952      5.5891191      1088.984       4601.2053     -2776.3646      73.477881     -2702.8867      10052.262      0.63635403     9.963775       56.154635    
     15600   885.86345      5.4993621      1024.6414     -86.631126     -2772.1845      69.136446     -2703.0481      9908.2482      0.6456033      11.380556      55.774701    
     15700   904.18482      5.4581064      1052.9011      2935.5651     -2773.2925      71.043232     -2702.2492      9767.2057      0.65492608     8.9512656      57.42093     
     15800   922.64717      5.4164291      952.30971      2995.1965     -2767.2292      64.255951     -2702.9733      9631.1381      0.6641788      14.260495      65.678083    
     15900   941.12377      5.4122522      1066.5819      2689.187      -2767.204       71.966332     -2695.2377      9501.0667      0.67327154     7.027289       54.682805    
     16000   959.74826      5.3692729      1047.6814     -1006.9983     -2767.6096      70.691039     -2696.9185      9374.6128      0.68235328     7.1191254      56.955598    
     16100   978.18793      5.423092       1059.7173      2645.954      -2770.4432      71.503146     -2698.94        9245.938       0.69184952     11.552231      57.986436    
     16200   996.68657      5.4058013      966.44968     -1423.0444     -2767.9962      65.210028     -2702.7861      9127.9101      0.70079544     23.422195      68.415701    
     16300   1015.1456      5.4174163      1020.6462      96.297478     -2773.6009      68.866873     -2704.734       9009.9623      0.70996943     7.8622881      51.66726     
     16400   1033.8304      5.3519422      919.05849      5969.2627     -2766.0948      62.012364     -2704.0824      8894.5111      0.71918486     11.06589       62.996016    
     16500   1052.5257      5.3489236      1009.3559      510.66186     -2770.3835      68.105074     -2702.2784      8786.0298      0.72806465     7.4481031      55.632666    
     16600   1071.4403      5.2869317      1008.5563     -810.00912     -2766.3015      68.051121     -2698.2504      8678.2576      0.73710623     12.30426       58.903129    
     16700   1090.6116      5.2161223      999.85127      4468.0731     -2766.9253      67.46376      -2699.4615      8576.5288      0.74584928     7.6424473      56.424291    
     16800   1109.8945      5.1859399      969.50117      3277.9403     -2762.6357      65.415924     -2697.2198      8477.7068      0.75454341     14.278791      64.595192    
     16900   1129.1909      5.1823145      978.84367     -1962.415      -2762.7739      66.046298     -2696.7276      8379.2829      0.76340635     8.6041925      55.187188    
     17000   1148.592       5.1543574      1032.9005      6035.3389     -2766.4812      69.693718     -2696.7875      8280.7923      0.7724862      12.516084      58.00035     
     17100   1168.0557      5.1377655      1009.9577      623.68335     -2765.0865      68.145677     -2696.9409      8186.2795      0.78140476     9.3357364      53.58214     
     17200   1187.3691      5.1777393      946.15178      5535.8076     -2764.0235      63.840452     -2700.1831      8091.3712      0.7905703      7.1830387      58.472815    
     17300   1206.8322      5.1379357      1025.8234      6866.6449     -2766.261       69.216197     -2697.0448      7996.6296      0.79993673     7.1928171      56.58475     
     17400   1226.3573      5.1216042      1002.5237      131.22326     -2762.9187      67.644078     -2695.2746      7900.4838      0.80967166     11.27662       59.482208    
     17500   1246.0404      5.0805031      1091.4899      2835.9093     -2770.6369      73.646966     -2696.99        7807.9322      0.81926912     8.9372154      57.423874    
     17600   1265.7644      5.0699605      1103.2589      4250.2988     -2771.2713      74.441064     -2696.8302      7719.3415      0.82867144     8.3241599      57.289326    
     17700   1285.64        5.0313036      1040.0289      5501.9955     -2767.365       70.174695     -2697.1903      7632.0147      0.83815323     10.832081      59.722851    
     17800   1305.7733      4.9669035      997.49299      5008.757      -2762.7055      67.304638     -2695.4009      7548.8381      0.84738839     11.602693      62.570974    
     17900   1325.8953      4.969689       1015.0232     -340.50119     -2765.0902      68.487466     -2696.6027      7469.6537      0.8563714      13.974029      57.399855    
     18000   1346.197       4.9256944      1035.4903      3060.4604     -2766.7849      69.86846      -2696.9164      7392.4684      0.86531284     10.579481      59.182357    
     18100   1366.3926      4.9515636      1039.9594      6950.1137     -2765.9336      70.170007     -2695.7636      7319.1281      0.87398358     9.5102017      58.275458    
     18200   1386.762       4.9093189      984.51186      2608.3603     -2762.3671      66.428752     -2695.9383      7249.5916      0.88236664     13.638041      60.704748    
     18300   1407.2968      4.8697873      1072.4859      9275.0022     -2768.4202      72.364691     -2696.0555      7182.4971      0.89060916     10.631148      60.546838    
     18400   1427.9874      4.8331078      1012.9639      7868.744      -2764.9368      68.348521     -2696.5883      7116.8396      0.89882562     13.413195      61.62487     
     18500   1448.7512      4.8160774      1086.5744     -1146.4698     -2768.3687      73.315296     -2695.0534      7061.3558      0.90588804     8.4087234      56.606792    
     18600   1469.9188      4.7241946      990.04043      3151.3333     -2762.7859      66.801785     -2695.9841      7007.8925      0.91279907     8.9224036      55.869249    
     18700   1491.0679      4.7283365      1018.2463      6999.4655     -2765.844       68.704943     -2697.139       6958.2699      0.91930866     10.517659      57.192205    
     18800   1512.3475      4.6993499      1046.3338      8864.9601     -2763.8231      70.600114     -2693.223       6910.1601      0.92570905     18.108575      66.002689    
     18900   1533.609       4.703329       1024.0487      6991.104      -2762.6756      69.096453     -2693.5792      6863.6691      0.93197934     8.9733844      56.319474    
     19000   1554.8045      4.7179926      1079.5851      9117.0396     -2759.6549      72.843705     -2686.8111      6823.6481      0.93744544     7.6342125      58.359969    
     19100   1576.0906      4.6978853      1116.0983      10152.114     -2764.8765      75.30739      -2689.5691      6788.9205      0.94224078     10.981767      58.423506    
     19200   1597.3806      4.6970395      1075.6553      4220.129      -2764.9938      72.578546     -2692.4153      6755.1954      0.94694489     10.502922      59.181751    
     19300   1618.6912      4.6925185      1046.2003      7159.9381     -2766.271       70.591105     -2695.6799      6720.6173      0.951817       11.826958      57.732623    
     19400   1640.1266      4.6651746      980.92126      5895.9468     -2764.8094      66.186481     -2698.6229      6681.9788      0.95732088     7.6980553      59.207066    
     19500   1661.6388      4.6485211      1031.7172      12247.441     -2767.5024      69.613875     -2697.8885      6638.8117      0.96354559     18.23521       65.772651    
     19600   1683.2135      4.6350621      945.92329      5539.7761     -2761.2652      63.825035     -2697.4401      6595.1805      0.96992004     8.4186131      56.964982    
     19700   1704.8481      4.6222212      1053.1228      8909.1951     -2769.1333      71.058192     -2698.0751      6551.8337      0.97633702     8.9558141      58.705782    
     19800   1726.5564      4.6065309      1046.3956      11706.642     -2767.1504      70.604281     -2696.5461      6508.0599      0.98290395     13.060087      64.866254    
     19900   1748.5418      4.5484841      1086.8273      14273.776     -2770.0677      73.33236      -2696.7353      6468.294       0.98894666     7.9954681      55.620822    
     20000   1770.5115      4.5517057      1071.3594      1633.7663     -2767.8229      72.288683     -2695.5342      6432.357       0.99447182     8.1811669      58.118328    
     20100   1792.582       4.5309465      1072.1469      13132.551     -2767.1595      72.341818     -2694.8177      6392.3635      1.0006937      12.364298      62.322042    
     20200   1814.9109      4.4784907      1117.8151      11465.387     -2770.5974      75.423226     -2695.1741      6358.3896      1.0060405      12.085537      63.051063    
     20300   1837.0562      4.5156435      994.34816      2266.9097     -2762.8395      67.092445     -2695.7471      6328.0221      1.0108684      14.86244       62.18168     
     20400   1859.2472      4.5063249      1049.8071      9636.7108     -2766.2901      70.834468     -2695.4557      6297.046       1.015841       12.738924      63.284354    
     20500   1881.5232      4.4891426      1202.3816      8792.191      -2766.5307      81.129249     -2685.4015      6263.7868      1.0212349      10.841667      60.287318    
     20600   1903.811       4.4867493      1066.8045      1107.1554     -2760.2654      71.981349     -2688.284       6236.2727      1.0257406      7.9911112      53.504006    
     20700   1926.0027      4.5062059      1065.3155      15313.122     -2758.6718      71.880883     -2686.791       6219.9405      1.0284339      7.8295568      55.362774    
     20800   1948.3114      4.4825372      1006.2861      7803.9978     -2756.1325      67.897942     -2688.2345      6208.6821      1.0302988      6.6629138      56.914847    
     20900   1970.7522      4.4561763      990.29095      16742.699     -2757.0867      66.818689     -2690.268       6199.7945      1.0317758      6.9307685      56.218585    
     21000   1993.1834      4.4580864      990.95271      9606.0778     -2756.8196      66.863341     -2689.9562      6195.1345      1.0325519      8.216451       55.822415    
     21100   2015.6097      4.4590413      1022.2405      12620.417     -2759.2329      68.974447     -2690.2585      6193.7076      1.0327898      14.273272      62.664736    
     21200   2038.0699      4.4523121      953.87719      10995.026     -2754.2618      64.361715     -2689.9         6190.6214      1.0333046      14.207025      61.547201    
     21300   2061.1708      4.3288525      1073.2742      16398.702     -2760.9878      72.417884     -2688.5699      6184.2583      1.0343678      17.415976      69.042091    
     21400   2083.5974      4.4589716      1053.9629      4474.2813     -2757.7655      71.114875     -2686.6506      6171.7501      1.0364642      12.182111      61.358782    
     21500   2108.1543      4.0721807      1079.4838      8726.5233     -2751.3605      72.836871     -2678.5237      6157.0125      1.0389451      11.847517      58.710884    
     21600   2139.071       3.2344945      1035.7901      11409.448     -2747.0172      69.888689     -2677.1285      6143.3257      1.0412597      8.6529089      58.521749    
     21700   2176.4039      2.6786073      1044.8928      6390.8109     -2750.9386      70.502883     -2680.4358      6129.9697      1.0435284      9.0228012      60.294136    
     21800   2211.9014      2.8170998      1054.327       15680.481     -2755.8189      71.139443     -2684.6795      6111.2949      1.0467172      8.9017628      57.348094    
     21900   2249.9787      2.6262369      1101.7077      17414.212     -2762.4218      74.336399     -2688.0854      6090.5174      1.0502881      7.5096808      55.068094    
     22000   2286.9336      2.7060011      955.58531      11173.006     -2755.4511      64.476968     -2690.9741      6070.9812      1.0536679      9.0970308      60.831746    
     22100   2324.8823      2.6351319      1013.5758      15164.52      -2759.7241      68.389805     -2691.3343      6052.7465      1.0568422      7.4621905      57.260634    
     22200   2364.3632      2.5328726      1000.7106      13205.06      -2759.8225      67.521746     -2692.3008      6035.1662      1.0599207      10.064524      60.4643      
     22300   2407.771       2.3037312      966.24794      15665.843     -2754.7821      65.196416     -2689.5857      6014.6649      1.0635335      10.749731      60.947196    
     22400   2451.8326      2.2695527      1065.4233      20110.188     -2761.7059      71.888152     -2689.8177      6002.4469      1.0656984      10.13663       59.80504     
     22500   2474.805       4.353056       1027.6158      13671.361     -2756.6121      69.337139     -2687.275       5992.005       1.0675555      9.0198085      59.63569     
     22600   2497.7842      4.3517517      961.10542      13312.773     -2751.4799      64.84943      -2686.6305      5980.958       1.0695273      9.071826       62.250132    
     22700   2521.0771      4.2931489      983.95285      10955.561     -2750.1252      66.391034     -2683.7341      5972.4078      1.0710584      11.98977       63.48346     
     22800   2544.871       4.2027645      967.54992      2839.9763     -2750.8732      65.284265     -2685.5889      5968.505       1.0717588      11.424436      57.213633    
     22900   2573.0593      3.5475772      1069.0243      4671.0216     -2754.9918      72.131125     -2682.8607      5969.3434      1.0716083      9.3122279      59.442128    
     23000   2602.3419      3.4149972      1039.5309      14328.272     -2751.6316      70.141099     -2681.4905      5965.7987      1.072245       13.471297      64.58316     
     23100   2629.4666      3.6866646      1038.0498      15316.881     -2752.4558      70.04116      -2682.4147      5963.6917      1.0726238      8.7534068      56.0832      
     23200   2659.6032      3.3182334      1103.2128      11741.15      -2759.6375      74.437958     -2685.1996      5959.7437      1.0733344      9.6015334      54.57056     
     23300   2686.5571      3.710029       1019.4475      15071.295     -2755.7756      68.785992     -2686.9896      5954.9505      1.0741983      12.148889      58.489557    
     23400   2713.0714      3.7715499      1046.0514      11282.461     -2757.514       70.581058     -2686.933       5952.8871      1.0745706      8.2516062      61.12302     
     23500   2738.7315      3.897113       953.35797      10330.036     -2749.7907      64.326681     -2685.4641      5946.9668      1.0756404      20.115335      64.44013     
     23600   2763.2769      4.074073       1063.8788      12692.044     -2757.7527      71.783942     -2685.9688      5939.7518      1.076947       12.189478      62.104166    
     23700   2787.8846      4.0637638      1031.5317      8119.1984     -2754.8059      69.601358     -2685.2046      5932.824       1.0782045      7.9877406      57.872122    
     23800   2815.493       3.6220876      1019.5161      16856.15      -2752.118       68.790619     -2683.3274      5930.0066      1.0787168      12.899866      61.411233    
     23900   2843.1182      3.6198907      1035.6856      8090.0812     -2753.478       69.881638     -2683.5963      5934.1254      1.0779681      10.899824      59.523869    
     24000   2868.5901      3.9258884      1005.2846      19611.098     -2749.7904      67.830365     -2681.9601      5938.9051      1.0771005      12.282561      64.266919    
     24100   2899.9922      3.1844968      1059.8558      11959.686     -2756.1733      71.512497     -2684.6608      5948.4809      1.0753666      8.9290059      58.533262    
     24200   2924.1431      4.1406412      1149.8793      12826.295     -2764.0658      77.586723     -2686.479       5957.8813      1.0736699      8.4627409      57.515473    
     24300   2950.5433      3.7878482      998.35604      5709.1556     -2755.3329      67.362872     -2687.9701      5959.2598      1.0734215      9.6254669      53.893206    
     24400   2977.048       3.7729229      945.23884      9932.0401     -2748.6658      63.778852     -2684.887       5954.8388      1.0742185      22.983729      70.402935    
     24500   3001.058       4.1649233      1037.4799      16832.888     -2758.3193      70.002708     -2688.3166      5945.2906      1.0759437      11.030926      58.546059    
     24600   3026.2484      3.9697676      1041.2711      5887.8974     -2759.1642      70.258515     -2688.9057      5936.1123      1.0776073      9.5214388      56.403066    
     24700   3063.7214      2.6685888      1042.2858      26243.268     -2754.866       70.326979     -2684.539       5923.8015      1.0798468      9.2965597      58.713086    
     24800   3098.4331      2.8808726      1061.8783      10477.424     -2758.0885      71.648961     -2686.4396      5911.9695      1.0820079      12.326537      59.023412    
     24900   3137.1212      2.5847711      948.69106      14177.458     -2749.3638      64.011787     -2685.352       5892.6177      1.0855613      8.5841552      61.562622    
     25000   3175.2514      2.6225947      956.59768      9132.8808     -2748.817       64.545276     -2684.2717      5871.9417      1.0893837      10.209691      58.878779    
     25100   3216.6762      2.414012       1021.5474      16042.822     -2756.5002      68.92768      -2687.5725      5851.7019      1.0931517      7.9552931      55.725363    
     25200   3256.0239      2.5414428      1098.9826      16010.17      -2761.7795      74.152531     -2687.627       5828.9064      1.0974267      10.460799      55.342011    
     25300   3295.8484      2.5110195      1084.9229      20049.969     -2760.0715      73.203869     -2686.8677      5801.2444      1.1026596      13.160147      59.852659    
     25400   3338.2305      2.3594808      1043.982       15130.703     -2758.3981      70.441428     -2687.9566      5776.2321      1.1074343      10.211782      57.744165    
     25500   3377.3758      2.5545938      1030.0441      19341.735     -2757.7862      69.500982     -2688.2852      5753.4091      1.1118274      9.2562771      58.87543     
     25600   3401.0226      4.2289072      1032.2193      14653.288     -2758.2424      69.647755     -2688.5947      5736.5834      1.1150884      7.5107948      54.974112    
     25700   3432.2057      3.2068618      1109.7425      18708.944     -2760.1767      74.878536     -2685.2981      5722.9632      1.1177423      13.535511      59.029941    
     25800   3458.9677      3.7366444      1075.2728      16085.823     -2755.2613      72.552737     -2682.7086      5712.1315      1.1198618      12.289096      60.064715    
     25900   3484.5469      3.9094175      981.95676      14156.178     -2748.4034      66.25635      -2682.147       5702.7229      1.1217094      19.27389       65.231363    
     26000   3519.3893      2.8700651      994.44443      24370.266     -2750.3245      67.098941     -2683.2256      5700.8379      1.1220803      10.214062      58.124863    
     26100   3554.9934      2.808667       966.57924      15361.646     -2748.7147      65.21877      -2683.4959      5707.3117      1.1208075      14.609594      62.586482    
     26200   3583.7365      3.4790965      1069.9395      16930.711     -2755.2016      72.19288      -2683.0087      5721.7813      1.1179731      11.217618      59.711324    
     26300   3614.3257      3.2691333      1024.134       717.19881     -2752.6652      69.102207     -2683.563       5739.7662      1.1144701      6.8167425      53.185769    
     26400   3649.6119      2.833968       1327.5476      10195.983     -2742.1871      89.574677     -2652.6124      5756.1146      1.1113048      9.7931247      56.522424    
     26500   3684.2439      2.8874959      1157.0788      16057.075     -2738.2961      78.072496     -2660.2236      5779.1499      1.1068752      10.741988      58.914871    
     26600   3716.5193      3.0983375      1062.2963      22835.117     -2739.2315      71.677163     -2667.5543      5806.5268      1.1016565      10.439331      58.509296    
     26700   3763.8759      2.1116415      1086.9484      18782.904     -2746.9106      73.340535     -2673.5701      5834.6922      1.0963385      7.5581199      55.983113    
     26800   3821.7177      1.7288521      1054.1272      16264.623     -2752.0531      71.125964     -2680.9272      5865.6899      1.0905448      7.4386798      56.614874    
     26900   3895.3309      1.3584528      977.58479      16995.539     -2750.1565      65.961356     -2684.1951      5900.8991      1.0840378      10.398997      59.22819     
     27000   3967.3745      1.3880471      993.8669       21432.439     -2748.6539      67.059972     -2681.5939      5929.9739      1.0787227      11.764419      59.692398    
     27100   4043.5072      1.3134974      968.48379      17759.602     -2748.4712      65.347277     -2683.1239      5954.0926      1.0743531      13.584188      62.131633    
     27200   4118.36        1.3359554      981.38581      12807.098     -2750.1235      66.217825     -2683.9057      5969.6669      1.0715502      13.556322      61.369543    
     27300   4171.0298      1.8986189      988.83697      8579.8352     -2752.8427      66.720584     -2686.1221      5969.4239      1.0715938      11.757384      60.154115    
     27400   4234.7864      1.5684665      1029.2161      16629.818     -2754.9927      69.445118     -2685.5476      5950.9326      1.0749236      6.7791043      56.855059    
     27500   4310.9919      1.3122404      960.77909      12517.929     -2751.9122      64.827412     -2687.0848      5918.4056      1.0808313      8.135142       59.066193    
     27600   4381.717       1.4139251      975.03575      15868.969     -2752.1163      65.789363     -2686.327       5874.1823      1.0889682      22.735091      69.196739    
     27700   4428.2223      2.1502927      1048.32        11031.397     -2757.2077      70.734133     -2686.4735      5818.8746      1.0993187      7.27419        55.453007    
     27800   4462.8035      2.8917465      980.06798      17612.269     -2752.4779      66.128906     -2686.349       5760.9226      1.1103773      10.559267      61.179296    
     27900   4491.5539      3.4782161      948.71136      13688.184     -2748.9879      64.013156     -2684.9747      5700.1921      1.1222074      10.46271       56.731807    
     28000   4523.0178      3.1782426      1027.54        16339.123     -2752.2407      69.332027     -2682.9086      5643.3043      1.1335199      8.2620172      54.515202    
     28100   4564.5831      2.4058479      1019.9011      12899.107     -2750.5439      68.816597     -2681.7273      5593.8238      1.1435465      9.876186       60.028917    
     28200   4605.3666      2.4519772      1050.6594      17695.551     -2749.4018      70.891975     -2678.5098      5544.4305      1.153734       11.63468       61.835997    
     28300   4637.7755      3.0855722      1214.2612      18482.058     -2743.5346      81.930815     -2661.6038      5506.1193      1.1617616      7.7505216      56.014685    
     28400   4672.828       2.8528615      1093.5447      18882.495     -2744.2059      73.785609     -2670.4203      5479.896       1.167321       11.489502      62.623159    
     28500   4698.1834      3.9439336      1019.5132      17827.024     -2746.0661      68.790426     -2677.2757      5465.6471      1.1703642      13.097786      61.650514    
     28600   4726.6916      3.5077633      995.84167      11779.271     -2746.2871      67.193218     -2679.0939      5452.7528      1.1731318      10.926904      55.159401    
     28700   4758.7789      3.1164992      1021.1759      21256.962     -2749.1658      68.902612     -2680.2631      5446.1854      1.1745465      11.618309      57.852702    
     28800   4791.9123      3.0180972      995.54415      12596.142     -2747.6313      67.173143     -2680.4581      5452.8841      1.1731036      6.5711007      53.968524    
     28900   4823.9264      3.1236246      1001.5663      28554.102     -2748.6941      67.57948      -2681.1146      5465.1329      1.1704743      15.496939      65.272669    
     29000   4849.7916      3.8661964      1141.5835      16888.414     -2746.0907      77.026969     -2669.0637      5483.7999      1.16649        7.4427573      54.493498    
     29100   4883.7404      2.9456123      1052.7889      19898.514     -2745.5821      71.035666     -2674.5464      5503.6713      1.1622783      9.263093       56.865493    
     29200   4928.718       2.223332       1070.4779      24810.655     -2751.2646      72.22921      -2679.0354      5525.0587      1.1577791      8.6013353      55.870486    
     29300   4973.5663      2.2297354      993.22654      16358.156     -2748.439       67.016765     -2681.4223      5547.2147      1.1531549      9.6373214      57.232718    
     29400   5014.4814      2.4440868      944.77895      14617.087     -2747.6355      63.747822     -2683.8877      5570.4297      1.1483491      10.910179      59.132173    
     29500   5055.3257      2.4483226      993.86603      17560.56      -2752.1542      67.059913     -2685.0943      5588.2189      1.1446935      7.9884957      54.72513     
     29600   5096.274       2.4421043      938.93803      22466.065     -2748.026       63.353713     -2684.6723      5596.9502      1.1429077      10.096164      58.673859    
     29700   5138.1993      2.385194       1040.9055      16155.134     -2752.9983      70.233845     -2682.7644      5601.4679      1.141986       11.538608      57.559611    
     29800   5179.1994      2.4390201      1002.1978      23355.569     -2745.9497      67.622092     -2678.3276      5593.5477      1.143603       15.596779      59.408631    
     29900   5220.0864      2.4457639      976.80321      21699.899     -2748.3098      65.90862      -2682.4012      5583.1927      1.145724       7.3329109      53.740571    
     30000   5264.2618      2.2637027      971.54356      23697.38      -2745.8493      65.553732     -2680.2956      5575.0402      1.1473994      9.2359711      56.78413     
     30100   5305.7699      2.4091682      1016.5742      15648.48      -2743.6392      68.592118     -2675.0471      5568.1972      1.1488095      8.3308862      55.236384    
     30200   5349.6447      2.2792131      976.51084      19844.668     -2740.7334      65.888893     -2674.8445      5562.1589      1.1500566      11.674261      60.244126    
     30287   5385.5276      2.4245576      1052.7586      27997.548     -2747.1123      71.033616     -2676.0786      5556.8447      1.1511565      9.3348223      57.921952    
Loop time of 5385.53 on 1 procs for 20000 steps with 523 atoms

Performance: 0.321 ns/day, 74.799 hours/ns, 3.714 timesteps/s, 1.942 katom-step/s
97.8% CPU use with 1 MPI tasks x 1 OpenMP threads

MPI task timing breakdown:
Section |  min time  |  avg time  |  max time  |%varavg| %total
---------------------------------------------------------------
Pair    | 5300.8     | 5300.8     | 5300.8     |   0.0 | 98.43
Neigh   | 10.087     | 10.087     | 10.087     |   0.0 |  0.19
Comm    | 12.486     | 12.486     | 12.486     |   0.0 |  0.23
Output  | 3.0666     | 3.0666     | 3.0666     |   0.0 |  0.06
Modify  | 48.803     | 48.803     | 48.803     |   0.0 |  0.91
Other   |            | 10.25      |            |       |  0.19

Nlocal:            523 ave         523 max         523 min
Histogram: 1 0 0 0 0 0 0 0 0 0
Nghost:           2449 ave        2449 max        2449 min
Histogram: 1 0 0 0 0 0 0 0 0 0
Neighs:              0 ave           0 max           0 min
Histogram: 1 0 0 0 0 0 0 0 0 0
FullNghs:        70276 ave       70276 max       70276 min
Histogram: 1 0 0 0 0 0 0 0 0 0

Total # of neighbors = 70276
Ave neighs/atom = 134.37094
Neighbor list builds = 5894
Dangerous builds = 34
===========================================
Density after high-T compression: 1.15115647862447 g/cm^3
===========================================
Phase 3: Thermal quench under high pressure to lock density (40,000 steps)
Setting up Verlet run ...
  Unit style    : metal
  Current step  : 30287
  Time step     : 0.001
Per MPI rank memory allocation (min/avg/max) = 142.2 | 142.2 | 142.2 Mbytes
   Step          CPU           S/CPU           Temp          Press          PotEng         KinEng         TotEng         Volume        Density          Fmax          Fnorm     
     30287   0              0              1052.7586      28069.292     -2747.1123      71.033616     -2676.0786      5556.8447      1.1511565      9.3426264      58.012887    
     30300   5.2478226      2.4772154      1091.6576      25362.021     -2749.683       73.658282     -2676.0247      5556.914       1.1511421      8.266251       59.084866    
     30400   46.041782      2.4513433      1047.7682      17804.737     -2746.9484      70.696899     -2676.2515      5557.21        1.1510808      16.829588      61.86678     
     30500   88.378091      2.3620386      1074.7463      17951.82      -2746.251       72.517213     -2673.7338      5553.8469      1.1517778      9.878191       56.129066    
     30600   129.3749       2.4392142      1097.3406      22899.769     -2742.0168      74.041737     -2667.975       5550.1845      1.1525379      12.974713      63.152031    
     30700   170.13904      2.4531363      1085.393       21229.684     -2740.0377      73.235585     -2666.8021      5549.733       1.1526316      9.1602052      57.826602    
     30800   211.00085      2.447273       1057.4663      13389.552     -2742.2538      71.351262     -2670.9025      5547.2259      1.1531526      9.2713235      59.065335    
     30900   251.87454      2.4465618      1069.2714      11023.404     -2746.7381      72.1478       -2674.5903      5544.7327      1.1536711      6.9663815      53.014973    
     31000   292.74813      2.4465675      1040.7757      25350.578     -2745.4482      70.225084     -2675.2231      5534.2404      1.1558583      11.566974      61.19097     
     31100   333.55377      2.4506413      1016.7857      15475.525     -2743.9013      68.60639      -2675.2949      5520.6569      1.1587023      10.559285      60.33182     
     31200   374.34139      2.4517248      989.53411      20651.62      -2744.9185      66.767622     -2678.1508      5499.1955      1.1632243      9.7585518      62.606442    
     31300   406.77482      3.0832388      1043.2933      21441.003     -2746.8786      70.39496      -2676.4836      5476.0105      1.1681493      10.843665      59.19634     
     31400   436.79357      3.3312507      1169.1765      23402.517     -2740.5592      78.888777     -2661.6704      5454.7118      1.1727105      12.66643       61.016863    
     31500   473.45723      2.7274966      1073.3865      25661.022     -2739.5353      72.425461     -2667.1099      5441.1172      1.1756405      8.6577706      59.200046    
     31600   509.43274      2.7796682      1135.1891      21102.07      -2745.0215      76.595514     -2668.426       5431.2466      1.1777771      9.7421258      57.803339    
     31700   551.63527      2.3695193      1047.7536      25883.952     -2745.1451      70.695911     -2674.4492      5426.4077      1.1788273      7.2258941      56.505819    
     31800   592.46902      2.4489622      1045.5547      27054.202     -2749.7141      70.547547     -2679.1665      5432.3985      1.1775273      10.514839      56.565435    
     31900   634.27598      2.3919432      937.97677      19222.16      -2743.7063      63.288853     -2680.4175      5445.73        1.1746447      7.5429587      57.865237    
     32000   674.48601      2.4869419      937.65822      17410.533     -2745.8116      63.267359     -2682.5442      5463.9716      1.1707231      9.838985       54.965301    
     32100   699.30719      4.0288099      1038.5605      29202.363     -2753.0875      70.07562      -2683.0119      5481.956       1.1668824      10.507289      57.628142    
     32200   733.05222      2.9634032      950.06092      26822.857     -2749.3167      64.104216     -2685.2125      5503.9025      1.1622295      15.212189      63.547481    
     32300   774.32784      2.4227269      1041.1819      17448.514     -2745.2905      70.252497     -2675.038       5527.2812      1.1573136      10.421634      55.121788    
     32400   815.52611      2.4272975      977.30632      22742.45      -2743.5878      65.942567     -2677.6452      5555.6108      1.1514121      10.485294      59.66366     
     32500   856.64975      2.4316911      1023.721       19407.825     -2747.3237      69.074339     -2678.2493      5584.3727      1.1454819      10.558254      60.822824    
     32600   899.22396      2.3488401      958.79216      14355.478     -2745.4181      64.693346     -2680.7247      5610.5833      1.1401306      15.902946      61.754614    
     32700   940.99765      2.393851       1009.3716      21821.583     -2750.2919      68.106133     -2682.1858      5634.533       1.1352845      8.0440211      61.541985    
     32800   982.47584      2.4109046      955.95988      12529.373     -2745.4553      64.502241     -2680.953       5648.6019      1.1324568      16.880841      65.344651    
     32900   1024.2842      2.3918658      958.53624      6563.5673     -2743.7532      64.676078     -2679.0771      5654.8318      1.1312092      18.388149      64.152327    
     33000   1070.2959      2.173364       977.09325      20709.461     -2742.4996      65.92819      -2676.5714      5645.9897      1.1329808      9.8374085      58.884053    
     33100   1112.2721      2.3823022      960.85493      13486.208     -2743.1702      64.832529     -2678.3377      5632.8316      1.1356274      10.54964       60.884292    
     33200   1155.0108      2.3397959      974.64916      17511.905     -2744.9955      65.763278     -2679.2322      5611.0476      1.1400363      12.673154      54.142533    
     33300   1200.8284      2.1825657      965.50854      20917.128     -2745.5942      65.146526     -2680.4477      5590.0254      1.1443236      9.5607045      59.58742     
     33400   1242.1126      2.4222301      934.61483      18351.605     -2745.2802      63.06201      -2682.2181      5571.6259      1.1481025      9.6787088      59.123281    
     33500   1282.792       2.4582549      967.9896       17365.339     -2747.5056      65.313932     -2682.1917      5549.5317      1.1526734      16.497727      62.247794    
     33600   1323.8282      2.4368704      958.70741      17676.307     -2747.6         64.687628     -2682.9123      5523.0188      1.1582068      12.328778      56.6669      
     33700   1364.9799      2.4300196      1029.5753      19836.146     -2751.2128      69.469351     -2681.7434      5494.9139      1.1641307      9.7935486      57.832118    
     33800   1393.4425      3.5134218      979.9691       20578.641     -2748.1735      66.122235     -2682.0513      5465.0575      1.1704905      9.8877926      55.943452    
     33900   1431.4357      2.6320434      946.89206      20472.61      -2748.2897      63.890402     -2684.3993      5434.1824      1.1771408      8.5459889      57.713231    
     34000   1478.1238      2.1418733      1021.1124      13042.828     -2751.2985      68.898331     -2682.4002      5404.9232      1.1835132      8.9821266      54.453232    
     34100   1516.179       2.6277649      988.37914      31342.957     -2748.1767      66.689692     -2681.487       5378.1255      1.1894103      14.231571      63.683184    
     34200   1540.8706      4.0499745      1008.182       21951.431     -2750.8486      68.025864     -2682.8228      5360.4866      1.1933241      8.9066585      54.87369     
     34300   1567.3307      3.7792677      936.32544      21312.14      -2744.815       63.177431     -2681.6376      5353.7375      1.1948284      13.211244      59.228463    
     34400   1594.4247      3.6908518      954.97959      21145.508     -2749.5056      64.436098     -2685.0695      5354.7783      1.1945962      12.618819      57.366112    
     34500   1628.9056      2.9001553      1070.3272      26668.195     -2744.9999      72.219041     -2672.7809      5371.477       1.1908825      9.7511871      59.480299    
     34600   1664.5841      2.8028082      949.05673      20827.094     -2743.4352      64.03646      -2679.3987      5403.67        1.1837876      7.6537408      57.509601    
     34700   1699.3389      2.8773007      909.01575      24435.44      -2744.851       61.334743     -2683.5162      5445.2418      1.17475        10.221835      62.998007    
     34800   1734.5075      2.8434507      1046.2142      23429.564     -2751.2965      70.592042     -2680.7045      5502.5815      1.1625085      15.605439      56.018123    
     34900   1773.069       2.5932594      881.00692      19688.185     -2746.1453      59.444881     -2686.7005      5569.0774      1.1486279      8.8974543      58.489255    
     35000   1822.8426      2.0090962      940.90462      21760.536     -2754.801       63.486406     -2691.3146      5640.5756      1.1340683      15.376852      57.483473    
     35100   1865.1712      2.3624668      947.0004       15488.946     -2758.4367      63.897711     -2694.5389      5710.7422      1.1201342      8.6552995      55.242782    
     35200   1929.3562      1.5579975      912.25015      17531.901     -2756.8561      61.55298      -2695.3031      5764.9017      1.1096109      9.3846551      54.507272    
     35300   2043.8852      0.87314152     887.32614      8268.5477     -2754.8913      59.871263     -2695.0201      5800.7768      1.1027485      9.3116368      55.512637    
     35400   2143.0825      1.0080918      955.74322      14475.92      -2759.3133      64.487623     -2694.8256      5811.404       1.1007319      11.559887      58.022888    
     35500   2245.9736      0.97190152     1028.3506      14705.438     -2762.2642      69.386716     -2692.8775      5797.1345      1.1034413      15.628205      56.297053    
     35600   2349.5607      0.96537046     959.00407      14214.637     -2756.4623      64.707645     -2691.7547      5764.3576      1.1097156      16.832721      61.162136    
     35700   2381.8455      3.0974363      1084.0936      18123.582     -2748.1802      73.147908     -2675.0323      5715.5381      1.1191943      10.803621      60.718446    
     35800   2416.7596      2.8641694      1079.3111      14142.981     -2747.5419      72.825216     -2674.7167      5655.6802      1.1310395      6.4654935      50.234201    
     35900   2451.6037      2.8699308      997.29185      18734.112     -2747.1287      67.291066     -2679.8376      5590.7162      1.1441822      8.4139479      55.022199    
     36000   2489.5892      2.6325821      954.30339      22661.089     -2751.1172      64.390472     -2686.7267      5527.3917      1.1572905      11.807916      60.495859    
     36100   2528.9061      2.5434388      938.65595      23898.695     -2754.5813      63.33468      -2691.2467      5472.4051      1.1689189      12.482716      57.398789    
     36200   2567.949       2.5612812      929.0525       15927.923     -2757.5171      62.686698     -2694.8304      5434.8484      1.1769965      6.4358474      50.339368    
     36300   2607.6089      2.5214422      884.34812      24365.633     -2754.5958      59.670324     -2694.9255      5403.2013      1.1838903      7.6714075      50.919388    
     36400   2646.7101      2.5574644      907.33079      18803.888     -2754.866       61.221053     -2693.645       5381.1622      1.1887391      9.1858613      51.689947    
     36500   2685.6287      2.5694662      939.48058      24390.025     -2753.7864      63.390321     -2690.3961      5366.7275      1.1919364      16.777483      62.362364    
     36600   2724.7575      2.555663       933.67283      28870.005     -2750.3599      62.99845      -2687.3614      5361.6495      1.1930653      12.944131      59.786495    
     36700   2762.5082      2.6489544      911.72808      24559.296     -2750.419       61.517754     -2688.9012      5370.6429      1.1910674      8.681405       55.380728    
     36800   2798.7469      2.759479       859.38539      16740.921     -2750.6088      57.985994     -2692.6228      5389.9568      1.1867995      8.6221582      55.457116    
     36900   2834.1984      2.8207595      900.39276      30257.779     -2752.7734      60.752917     -2692.0205      5411.7914      1.1820111      9.3970449      57.403636    
     37000   2869.8821      2.8023962      905.02697      15719.401     -2752.7308      61.065605     -2691.6651      5439.9996      1.175882       6.2703685      51.552661    
     37100   2908.0165      2.6223032      846.13466      27823.366     -2748.5169      57.091917     -2691.425       5469.9311      1.1694476      12.554245      57.48146     
     37200   2946.5214      2.5970721      888.40493      18891.365     -2750.4173      59.944052     -2690.4732      5499.42        1.1631768      12.506813      53.930471    
     37300   2984.0938      2.6615292      929.80349      30426.274     -2750.8764      62.73737      -2688.1391      5522.5755      1.1582997      19.767825      70.725046    
     37400   3023.2726      2.5524003      881.79489      21017.975     -2746.6797      59.498049     -2687.1816      5542.685       1.1540973      14.30437       65.134588    
     37500   3068.074       2.2320751      983.45748      15732.421     -2749.1626      66.357609     -2682.805       5559.2677      1.1506548      8.0756554      56.250864    
     37600   3103.4429      2.8273429      983.14978      24405.872     -2743.5106      66.336847     -2677.1738      5569.1526      1.1486124      20.087988      66.3225      
     37700   3138.2023      2.8769222      999.66806      11367.831     -2737.9345      67.451398     -2670.4831      5569.9212      1.1484539      11.230411      55.407791    
     37800   3173.5967      2.8253022      1061.025       21452.56      -2740.7376      71.591386     -2669.1463      5562.1673      1.1500549      14.361494      60.522123    
     37900   3209.2547      2.8044218      1103.0474      27015.064     -2740.0713      74.426795     -2665.6445      5555.3075      1.151475       15.042976      58.917877    
     38000   3252.9883      2.2865712      976.14652      15409.748     -2740.1887      65.864311     -2674.3244      5544.9796      1.1536197      7.8919514      56.025161    
     38100   3299.9237      2.1305855      994.65867      21971.598     -2747.8488      67.113396     -2680.7354      5526.008       1.1575803      7.1869824      51.938121    
     38200   3338.8228      2.5707572      1034.3325      22828.524     -2748.3998      69.790341     -2678.6095      5502.6293      1.1624984      8.8121251      57.651383    
     38300   3377.0201      2.6179879      883.09066      17749.182     -2743.0544      59.585479     -2683.4689      5476.5522      1.1680337      8.7715736      50.550571    
     38400   3415.6309      2.5899484      1052.9032      24773.2       -2747.2623      71.043375     -2676.2189      5448.5473      1.1740373      8.0633429      48.837374    
     38500   3454.33        2.5840344      973.21048      17127.356     -2745.0895      65.666205     -2679.4233      5424.0729      1.1793348      13.985341      59.446736    
     38600   3491.2066      2.7117508      926.38128      16406.025     -2747.4206      62.506461     -2684.9141      5401.5757      1.1842466      8.8307358      50.40587     
     38700   3526.6223      2.8236032      840.55504      27415.787     -2742.5289      56.715439     -2685.8135      5382.8054      1.1883762      9.5471632      56.08313     
     38800   3563.0363      2.7461991      880.10961      23349.924     -2748.2193      59.384336     -2688.835       5370.1158      1.1911843      9.1261371      51.425405    
     38900   3597.0671      2.9385117      827.39262      14644.305     -2747.0383      55.82732      -2691.2109      5361.7485      1.1930432      10.949288      53.282241    
     39000   3631.9848      2.8638764      820.03961      11505.097     -2745.9309      55.331185     -2690.5998      5357.1133      1.1940755      9.8230947      54.392032    
     39100   3668.6437      2.727856       875.30036      23667.143     -2746.6539      59.059837     -2687.5941      5361.7642      1.1930397      18.880529      57.305521    
     39200   3705.9647      2.6794543      904.15327      26741.972     -2742.5287      61.006653     -2681.522       5375.6025      1.1899685      9.3839771      54.325424    
     39300   3740.6739      2.8810792      925.26801      19907.466     -2747.209       62.431345     -2684.7777      5397.6067      1.1851174      12.766462      56.633728    
     39400   3775.4748      2.8734907      868.49671      12085.871     -2747.0721      58.60077      -2688.4713      5420.4823      1.180116       9.6051107      51.292867    
     39500   3810.8108      2.8299778      987.75324      15571.73      -2758.8142      66.64746      -2692.1668      5440.3143      1.175814       8.1740292      48.553416    
     39600   3844.306       2.9854999      922.69516      21123.156     -2754.671       62.257745     -2692.4133      5455.3099      1.1725819      11.376271      50.995234    
     39700   3880.5669      2.7577874      910.30383      26129.291     -2757.2573      61.421655     -2695.8357      5467.1433      1.1700439      14.813511      50.942435    
     39800   3916.2559      2.8019881      851.478        23581.648     -2755.4341      57.452453     -2697.9816      5478.8992      1.1675334      14.716571      61.544384    
     39900   3953.0651      2.7167126      919.9201       10034.405     -2760.2838      62.070501     -2698.2133      5485.4964      1.1661292      6.3021504      47.492939    
     40000   3992.1045      2.5615136      922.11759      12819.064     -2760.8189      62.218774     -2698.6001      5483.1403      1.1666303      6.5108028      49.778466    
     40100   4031.217       2.5567281      783.16855      12312.654     -2749.3344      52.843355     -2696.491       5470.0811      1.1694155      10.239108      54.171797    
     40200   4070.5284      2.5437886      848.29621      14729.966     -2752.8849      57.237765     -2695.6471      5447.0024      1.1743703      14.450443      58.085917    
     40300   4109.4095      2.5719477      847.61692      23696.376     -2752.291       57.191931     -2695.0991      5419.3336      1.1803661      14.19918       58.768834    
     40400   4148.6685      2.5471848      850.34133      13933.867     -2753.1954      57.375757     -2695.8196      5391.327       1.1864978      11.073908      53.696317    
     40500   4187.9561      2.5453296      894.40546      29772.978     -2756.0627      60.348931     -2695.7138      5359.759       1.1934861      8.3837467      53.917383    
     40600   4226.1743      2.6165544      782.08627      15312.782     -2745.105       52.770329     -2692.3347      5329.7597      1.2002038      10.497604      53.092167    
     40700   4255.2112      3.4438921      857.01316      22586.143     -2748.4893      57.825931     -2690.6634      5306.8298      1.2053897      9.9652039      51.678591    
     40800   4294.7491      2.5292238      902.42743      20850.212     -2748.3066      60.890204     -2687.4163      5290.9221      1.2090138      14.687538      55.134404    
     40900   4341.975       2.1174793      935.20049      26896.907     -2749.1476      63.101527     -2686.0461      5282.0477      1.2110451      9.1972911      57.517017    
     41000   4388.9302      2.1296913      915.48213      24655.804     -2746.3792      61.771054     -2684.6082      5284.1511      1.210563       25.643867      67.070554    
     41100   4435.8804      2.1299141      846.68887      14186.445     -2744.6273      57.129312     -2687.498       5295.8021      1.2078997      9.8544425      52.205864    
     41200   4481.5125      2.1914417      873.13253      20488.31      -2743.942       58.913566     -2685.0284      5310.0399      1.204661       16.067114      61.112225    
     41300   4511.6342      3.3198688      915.78233      19868.916     -2737.3467      61.79131      -2675.5554      5329.4623      1.2002708      11.232023      57.747358    
     41400   4566.4263      1.8250792      37117.374      490580.12     -2644.3602      2504.4501     -139.91009      5621.7038      1.1378753      71.575857      127.46193    
     41500   4676.8501      0.90560214     31497.392      356021.8      -2674.0271      2125.2486     -548.77846      6448.3189      0.99201015     10.575761      40.994736    
     41600   4704.072       3.6735142      6503.3027      64677.407     -2691.9785      438.80252     -2253.176       6986.9368      0.9155368      19.324034      51.700126    
     41700   4730.6253      3.7660015      19276.241      185931.22     -2701.5219      1300.6411     -1400.8808      7324.1756      0.87338127     8.2912435      33.273764    
     41800   4755.8313      3.967321       2153.4929      11537.646     -2689.6012      145.30434     -2544.2969      7676.8888      0.83325393     8.74101        34.180429    
     41900   4779.2757      4.2654087      623.63149      5680.6453     -2688.7451      42.078783     -2646.6664      7802.1709      0.81987409     26.561325      61.011099    
     42000   4801.9433      4.4115878      487.6066       65.824188     -2708.2361      32.900668     -2675.3354      7787.3918      0.82143006     8.8278146      38.651564    
     42100   4825.5868      4.2294774      565.55994      1395.5754     -2711.6633      38.160476     -2673.5029      7706.1363      0.83009144     7.3950199      36.164056    
     42200   4850.6478      3.9902776      827.95809      4120.7523     -2703.9847      55.865475     -2648.1193      7593.4604      0.84240879     6.6283163      43.753505    
     42300   4875.9092      3.9586048      1096.3379      5158.9603     -2693.1142      73.974079     -2619.1401      7469.165       0.85642743     11.812221      50.437629    
     42400   4901.6987      3.8775453      969.14538      9151.0918     -2696.2762      65.391918     -2630.8843      7353.6214      0.86988402     15.837601      51.966713    
     42500   4927.5944      3.8616406      1015.9595      5512.2109     -2711.5449      68.550646     -2642.9943      7246.1665      0.88278371     7.5784596      43.425638    
     42600   4953.679       3.8336805      670.10729      6945.8113     -2721.9048      45.214682     -2676.6901      7144.2376      0.89537864     8.1460767      45.607708    
     42700   4979.9858      3.8013042      627.82576      8691.4469     -2732.8702      42.361787     -2690.5085      7043.8852      0.90813487     10.32989       45.614155    
     42800   5006.3113      3.7985929      684.78678      7882.7914     -2726.4781      46.205163     -2680.273       6942.5003      0.92139683     8.8148098      44.194207    
     42900   5033.2022      3.7187283      894.04481      11102.058     -2721.441       60.324597     -2661.1164      6842.6647      0.93484015     8.9379274      50.600364    
     43000   5060.2905      3.6916392      1028.0102      10138.237     -2710.7248      69.363751     -2641.361       6750.8871      0.94754922     7.9471147      51.39463     
     43100   5087.6268      3.658136       678.76251      7217.7438     -2712.8165      45.798683     -2667.0178      6672.096       0.95873887     6.0888294      44.302709    
     43200   5114.961       3.6584234      658.88986      11138.783     -2730.3241      44.4578       -2685.8663      6595.1427      0.9699256      7.1636449      41.791695    
     43300   5142.7919      3.5931237      620.70863      5061.8494     -2726.6096      41.881567     -2684.728       6515.4955      0.98178225     9.0814918      41.396734    
     43400   5170.9415      3.552448       767.42778      10216.08      -2717.9939      51.781266     -2666.2126      6434.0837      0.99420493     10.724026      52.268377    
     43500   5198.9093      3.5755434      941.49016      14129.433     -2705.6186      63.525915     -2642.0927      6357.839       1.0061277      20.064337      62.160047    
     43600   5227.0779      3.5500488      966.52562      16291.271     -2707.9261      65.215152     -2642.7109      6287.8816      1.0173216      9.9164399      48.978866    
     43700   5260.4567      2.9959143      749.65913      16518.484     -2725.0104      50.582347     -2674.428       6228.508       1.0270193      7.6656253      45.786863    
     43800   5382.6365      0.81846613     626.23029      7426.8332     -2738.1876      42.254135     -2695.9335      6173.997       1.036087       7.3167669      41.575551    
     43900   5511.9021      0.77360071     636.45916      11080.389     -2739.0178      42.944316     -2696.0735      6124.1179      1.0445256      7.6572233      43.238046    
     44000   5687.8717      0.56828        735.76024      16229.276     -2730.7209      49.644536     -2681.0764      6072.4299      1.0534165      7.4766357      44.763664    
     44100   5884.263       0.50918744     1093.6631      27939.895     -2700.1214      73.793601     -2626.3278      6035.5834      1.0598475      26.200371      63.819346    
     44200   6085.1904      0.49769238     757.45623      15333.574     -2727.5973      51.108447     -2676.4889      6023.0609      1.062051       8.3049072      45.709014    
     44300   6280.3703      0.51234782     598.12215      14731.36      -2742.5918      40.357572     -2702.2342      6006.4266      1.0649922      6.1284195      41.348889    
     44400   6510.0312      0.43542452     581.66491      14417.488     -2746.6932      39.247139     -2707.4461      5976.6862      1.0702917      7.230457       41.40316     
     44500   6756.4744      0.40577296     704.45162      20389.246     -2738.8805      47.532025     -2691.3485      5942.6115      1.0764287      12.100339      46.275051    
     44600   6986.3699      0.43498034     847.33896      28587.072     -2725.7861      57.173176     -2668.613       5911.7586      1.0820465      15.39698       55.807688    
     44700   7160.8634      0.57308706     946.12669      20306.131     -2726.5613      63.838759     -2662.7225      5888.9965      1.0862288      9.3472632      50.403728    
     44800   7321.4578      0.62268706     800.55956      28075.528     -2732.76        54.016792     -2678.7432      5869.4334      1.0898493      9.1977285      51.620802    
     44900   7477.5685      0.64057107     672.53807      16998.087     -2740.8795      45.378696     -2695.5008      5855.5219      1.0924385      10.23284       49.693829    
     45000   7634.0452      0.63907254     645.69645      16619.615     -2746.7349      43.56759      -2703.1673      5840.9971      1.0951551      9.8074322      43.972766    
     45100   7785.131       0.66187559     715.96745      19588.609     -2743.4026      48.309041     -2695.0936      5825.377       1.0980916      7.2933441      46.198029    
     45200   7936.2141      0.66188764     766.81853      18389.468     -2732.8161      51.740157     -2681.0759      5808.6882      1.1012465      9.0856863      49.626469    
     45300   8107.9006      0.58245685     819.79557      21353.093     -2730.2229      55.314719     -2674.9082      5792.5979      1.1043055      8.1875036      50.697197    
     45400   8284.4869      0.56629531     798.93905      20328.641     -2736.6076      53.90745      -2682.7002      5776.2432      1.1074322      14.925446      54.930169    
     45500   8460.5146      0.56809231     717.86942      16348.276     -2742.4191      48.437374     -2693.9817      5763.3485      1.1099099      8.7052362      44.643233    
     45600   8621.8214      0.61993671     707.80762      17737.78      -2746.6933      47.758467     -2698.9348      5750.4187      1.1124056      6.8787927      46.434483    
     45700   8792.9433      0.58437872     664.432        14124.377     -2741.3356      44.831749     -2696.5039      5731.2947      1.1161174      10.829531      49.717125    
     45800   8972.1772      0.55793022     712.7833       18922.299     -2734.2881      48.094195     -2686.1939      5706.3425      1.1209979      13.138885      52.035292    
     45900   9053.5996      1.2281629      913.72171      18625.185     -2723.959       61.652272     -2662.3067      5680.1842      1.1261603      7.7320568      49.410886    
     46000   9106.0287      1.9073389      710.59512      17816.08      -2725.0283      47.94655      -2677.0817      5659.4291      1.1302903      10.0491        52.547825    
     46100   9154.653       2.0565842      622.10033      22964.677     -2737.3928      41.97547      -2695.4174      5644.6129      1.1332571      9.2432364      48.782533    
     46200   9202.6155      2.084965       620.03243      12978.218     -2746.034       41.835941     -2704.198       5632.034       1.1357882      8.1787574      45.363969    
     46300   9253.7762      1.9546245      669.49304      14578.214     -2744.476       45.173237     -2699.3028      5617.695       1.1386873      9.0310658      49.171381    
     46400   9369.9911      0.86047449     730.15524      15294.746     -2738.4394      49.266346     -2689.1731      5598.9994      1.1424895      10.903013      51.440819    
     46500   9479.8334      0.91039627     836.93634      21897.731     -2734.5453      56.471271     -2678.074       5576.9259      1.1470114      10.767712      57.485236    
     46600   9587.944       0.92497848     796.78493      18156.427     -2734.2783      53.762104     -2680.5162      5556.7591      1.1511742      14.707867      57.805736    
     46700   9703.1047      0.8683521      1072.6814      29698.45      -2736.0351      72.377885     -2663.6572      5548.7872      1.1528281      8.7460009      52.865389    
     46800   9810.0669      0.93490998     599.8161       29119.471     -2749.5283      40.471869     -2709.0564      5554.8458      1.1515707      11.142472      49.333004    
     46900   9916.8128      0.93680348     494.09298      16527.926     -2754.468       33.338329     -2721.1297      5555.1293      1.1515119      8.8213864      47.543793    
     47000   10021.333      0.95675209     575.0516       14201.994     -2748.8312      38.800914     -2710.0303      5543.0856      1.1540139      8.5105283      46.591904    
     47100   10140.811      0.83697363     749.44574      25756.423     -2733.0282      50.567949     -2682.4603      5523.0963      1.1581905      11.022365      57.456771    
     47200   10270.497      0.77109733     871.98661      26589.892     -2720.8533      58.836246     -2662.0171      5505.8018      1.1618286      14.715693      66.724851    
     47300   10376.635      0.94216323     825.88856      19216.525     -2731.2883      55.725836     -2675.5624      5493.0683      1.1645218      10.909327      58.41971     
     47400   10469.209      1.0802149      645.3264       19965.431     -2745.0228      43.542621     -2701.4802      5480.5382      1.1671842      14.523729      58.176811    
     47500   10556.026      1.1518527      547.14462      16278.218     -2750.2252      36.917924     -2713.3073      5467.9624      1.1698686      9.093562       45.532445    
     47600   10641.578      1.1688783      624.08638      19573.087     -2749.9074      42.109477     -2707.7979      5450.0066      1.1737229      9.744819       44.416112    
     47700   10711.554      1.4290596      719.47242      23953.066     -2735.6115      48.545535     -2687.066       5427.1951      1.1786563      17.724979      61.720612    
     47800   10758.237      2.1420993      809.81263      15128.474     -2724.3201      54.641132     -2669.6789      5406.5926      1.1831477      9.2109328      58.260227    
     47900   10806.836      2.0576671      826.61604      17136.967     -2728.6674      55.774922     -2672.8925      5391.4953      1.1864608      10.45828       55.889395    
     48000   10853.724      2.1327663      691.7941       22506.563     -2736.561       46.677974     -2689.883       5379.1177      1.1891909      9.9841477      51.765273    
     48100   10900.352      2.1446261      621.13617      17459.588     -2747.0755      41.910415     -2705.1651      5368.9125      1.1914513      13.486455      49.238872    
     48200   10946.54       2.1650433      593.22665      24064.864     -2748.7196      40.027254     -2708.6923      5357.0533      1.1940889      9.9192249      50.836242    
     48300   10983.736      2.6885119      640.55874      21689.047     -2744.2764      43.22093      -2701.0555      5343.1334      1.1971997      10.04639       49.423209    
     48400   11025.257      2.4083979      758.86646      18349.051     -2737.0492      51.203601     -2685.8456      5330.3248      1.2000765      12.106292      55.570577    
     48500   11053.418      3.5509854      843.16741      20302.451     -2737.3332      56.891705     -2680.4415      5314.9994      1.2035369      16.194463      53.861544    
     48600   11086.599      3.0138247      731.1522       16184.933     -2732.6879      49.333614     -2683.3543      5305.833       1.2056161      7.7867204      47.502522    
     48700   11129.044      2.355938       691.67705      29670.208     -2744.3439      46.670076     -2697.6738      5302.2691      1.2064265      7.1374114      46.156779    
     48800   11165.592      2.7361338      641.53308      25462.23      -2750.0745      43.286672     -2706.7878      5303.9088      1.2060535      7.4001846      44.109816    
     48900   11195.14       3.3843719      574.16139      16162.361     -2745.8971      38.740848     -2707.1563      5308.3214      1.205051       9.6422423      46.885853    
     49000   11223.583      3.5158061      710.33136      23245.58      -2744.6854      47.928753     -2696.7566      5311.0807      1.2044249      11.452043      49.972953    
     49100   11251.61       3.5679955      832.50517      15926.806     -2740.0751      56.172283     -2683.9028      5314.9134      1.2035564      6.1823499      46.311911    
     49200   11279.808      3.5463637      792.62758      18418.261     -2738.9485      53.481591     -2685.4669      5319.569       1.202503       8.1743948      49.148317    
     49300   11308.938      3.4328287      688.54719      15766.103     -2746.2651      46.458892     -2699.8062      5324.6054      1.2013656      6.8315492      44.040052    
     49400   11340.134      3.2056047      611.05141      22354.913     -2752.1933      41.229958     -2710.9633      5330.0772      1.2001323      8.0622004      44.967469    
     49500   11368.571      3.5165516      573.5235       20189.301     -2750.8728      38.697808     -2712.175       5334.678       1.1990973      9.3648947      47.565418    
     49600   11405.307      2.7221311      630.22095      15556.19      -2746.831       42.523399     -2704.3076      5333.7825      1.1992986      9.1050218      48.493928    
     49700   11443.135      2.6435163      764.04882      21914.139     -2744.811       51.553274     -2693.2577      5328.7685      1.200427       8.0991553      50.988509    
     49800   11471.544      3.5199662      731.43424      32360.314     -2737.2246      49.352644     -2687.8719      5327.0576      1.2008126      14.485836      60.208098    
     49900   11500.333      3.4735303      709.03395      15793.542     -2744.8466      47.841212     -2697.0053      5330.9844      1.1999281      7.8303751      50.711216    
     50000   11528.536      3.5458213      601.22495      18967.316     -2747.8681      40.56693      -2707.3011      5335.4316      1.1989279      9.5673243      48.763659    
     50100   11564.168      2.8064573      517.93316      27102.052     -2745.5643      34.946916     -2710.6174      5336.5222      1.1986829      10.474072      53.352107    
     50200   11593.859      3.3680258      805.91906      22152.735     -2736.0561      54.378418     -2681.6777      5335.8149      1.1988418      9.8338781      52.147361    
     50300   11622.059      3.5460517      715.56361      22583.354     -2743.2342      48.281793     -2694.9524      5337.7514      1.1984068      9.4991296      49.814802    
     50400   11654.303      3.1013714      602.35284      13250.918     -2750.0146      40.643033     -2709.3716      5336.8266      1.1986145      7.4522661      46.799646    
     50500   11695.564      2.4235908      6289.2225      86039.911     -2694.019       424.35772     -2269.6612      5456.4004      1.1723476      8.1791518      41.177482    
     50600   11822.958      0.7849689      19362.906      229523.73     -2690.1812      1306.4888     -1383.6924      6015.2949      1.0634221      17.26777       59.047253    
     50700   11888.862      1.5173399      15929.159      170432.91     -2672.7467      1074.8008     -1597.9458      6569.7362      0.97367651     17.01496       52.068413    
     50800   11916.124      3.6681007      820.92742      1265.599      -2709.0353      55.391089     -2653.6442      6870.2019      0.93109313     9.3645362      33.432225    
     50900   11942.948      3.7281162      406.63658      6448.048      -2730.9584      27.437314     -2703.521       6915.4185      0.92500516     10.242276      38.817064    
     51000   11969.751      3.7308335      347.4378       2387.1327     -2738.2096      23.442947     -2714.7666      6879.2231      0.92987212     8.1639139      31.900302    
     51100   11996.61       3.7232641      553.55824      7225.9563     -2740.4103      37.350675     -2703.0597      6812.3886      0.93899484     5.3172927      32.316223    
     51200   12023.52       3.7160443      793.78367      7892.6559     -2726.0094      53.559597     -2672.4498      6737.988       0.94936319     7.1093111      41.341461    
     51300   12050.637      3.6876779      891.95586      762.10854     -2718.0968      60.183647     -2657.9131      6660.3958      0.96042307     6.5471549      42.279035    
     51400   12077.86       3.6733542      728.83154      15239.578     -2728.8406      49.17703      -2679.6635      6582.49        0.97178997     13.425674      45.463943    
     51500   12105.064      3.6760237      508.98293      7248.7714     -2739.9545      34.34301      -2705.6115      6514.2267      0.98197347     6.6554795      37.326904    
     51600   12132.776      3.6084772      440.82561      7550.6938     -2743.3352      29.744177     -2713.5911      6442.4903      0.99290763     8.4806364      36.668078    
     51700   12160.557      3.5995866      520.84803      13749.099     -2739.897       35.143594     -2704.7534      6369.8285      1.0042339      7.7968976      38.935274    
     51800   12188.639      3.5609802      722.24788      14878.133     -2732.8095      48.732806     -2684.0766      6302.7214      1.0149263      7.2687532      42.461032    
     51900   12217.114      3.5119219      803.96174      14566.387     -2724.6395      54.24635      -2670.3931      6242.9893      1.024637       7.432801       45.731126    
     52000   12259.224      2.374693       668.00988      11164.587     -2726.05        45.073162     -2680.9769      6188.258       1.0336993      7.4738209      44.372026    
     52100   12435.409      0.56758549     516.88181      13638.52      -2735.0167      34.875978     -2700.1407      6135.9755      1.0425071      11.155457      45.002566    
     52200   12623.091      0.53281775     507.75462      7704.2882     -2744.2928      34.260131     -2710.0327      6083.8443      1.0514401      10.976704      39.281753    
     52300   12814.259      0.52310052     555.67801      14118.984     -2743.1017      37.493705     -2705.608       6025.4798      1.0616246      8.0387464      40.634606    
     52400   13022.893      0.47930666     652.54196      12588.491     -2733.0398      44.029483     -2689.0103      5967.7881      1.0718876      8.6912894      43.988072    
     52500   13260.391      0.42105638     754.79347      14744.54      -2730.2021      50.92878      -2679.2733      5912.9051      1.0818367      12.060027      48.040674    
     52600   13416.318      0.64132624     660.99669      7832.8594     -2727.7631      44.599956     -2683.1631      5864.9431      1.0906837      6.7601688      44.752233    
     52700   13565.777      0.669081       590.44081      12663.254     -2739.8366      39.839282     -2699.9973      5818.1871      1.0994486      8.2500886      42.263982    
     52800   13710.956      0.68880471     530.70925      12862.036     -2744.51        35.808968     -2708.701       5770.6609      1.1085035      9.5980905      40.041425    
     52900   13897.125      0.53714507     523.60747      12925.284     -2741.5135      35.329783     -2706.1838      5721.6523      1.1179983      6.5135445      39.303892    
     53000   14032.771      0.73721509     578.34241      20357.204     -2737.6566      39.022958     -2698.6337      5674.7468      1.1272393      12.07957       48.008639    
     53100   14099.95       1.4885587      657.35297      16655.321     -2733.0795      44.3541       -2688.7254      5633.8454      1.135423       6.7353595      45.065019    
     53200   14191.455      1.0928392      645.9612       17187.864     -2730.6862      43.585454     -2687.1007      5601.9829      1.141881       9.2917476      48.448062    
     53300   14293.57       0.97928651     667.21787      15792.334     -2735.5753      45.019722     -2690.5556      5574.0879      1.1475954      9.0297246      46.050247    
     53400   14411.499      0.84796366     551.74803      13867.247     -2737.9758      37.228534     -2700.7473      5547.8061      1.153032       14.92611       49.614667    
     53500   14561.654      0.66597941     509.66317      13907.054     -2740.5812      34.388909     -2706.1923      5521.0501      1.1586198      11.999085      46.023421    
     53600   14688.842      0.78623881     510.63584      14904.94      -2739.1917      34.454538     -2704.7371      5496.6676      1.1637593      10.828458      45.520713    
     53700   14808.032      0.83899343     665.58999      32117.576     -2730.8491      44.909883     -2685.9392      5473.55        1.1686744      10.209294      52.88411     
     53800   14899.556      1.0926184      669.14265      16548.983     -2730.2137      45.149595     -2685.0641      5457.8755      1.1720307      6.9254709      47.005211    
     53900   14971.453      1.3908649      606.07602      20310.324     -2736.6086      40.89425      -2695.7144      5444.5261      1.1749044      10.002719      45.920778    
     54000   15027.001      1.8002497      531.17386      20128.724     -2739.7692      35.840317     -2703.9289      5433.7377      1.1772371      7.1342985      45.554804    
     54100   15074.204      2.1185372      828.45413      23255.888     -2729.5721      55.898945     -2673.6732      5421.926       1.1798017      7.7271634      43.220932    
     54200   15122.068      2.0892362      570.11752      19094.804     -2734.8968      38.467993     -2696.4288      5410.2183      1.1823548      8.1938003      47.303104    
     54300   15169.102      2.1261184      535.24763      13772.736     -2743.6411      36.115189     -2707.526       5396.3573      1.1853918      5.9433649      39.279697    
     54400   15216.581      2.1061867      450.32428      19361.88      -2745.2749      30.385088     -2714.8898      5376.6709      1.1897321      6.4444854      42.007735    
     54500   15263.589      2.1273302      508.20676      19716.345     -2743.5237      34.290639     -2709.2331      5356.2639      1.1942649      9.963805       48.199441    
     54600   15301.385      2.6457663      640.09867      24129.855     -2738.6404      43.189887     -2695.4505      5335.3338      1.1989499      9.0443631      50.506746    
     54700   15330.523      3.431975       629.3632       23757.112     -2727.6679      42.465524     -2685.2024      5318.2447      1.2028024      14.483016      60.916116    
     54800   15364.745      2.9220374      649.13614      28231.125     -2735.9437      43.799679     -2692.144       5303.9072      1.2060539      24.976533      59.453384    
     54900   15410.661      2.1779067      532.67663      22604.397     -2739.2074      35.941714     -2703.2657      5293.5295      1.2084183      14.559784      54.446065    
     55000   15448.835      2.6195468      537.87926      20904.398     -2745.0792      36.292755     -2708.7865      5286.1741      1.2100997      16.618661      54.044575    
     55100   15494.832      2.1740618      519.92293      26113.698     -2737.0914      35.081174     -2702.0102      5278.6236      1.2118306      9.9682353      47.766873    
     55200   15542.329      2.1053999      534.06027      17206.681     -2734.3161      36.035073     -2698.281       5276.082       1.2124144      7.9776752      46.548703    
     55300   15590.058      2.0951621      611.3532       26362.958     -2734.7156      41.250321     -2693.4653      5278.2246      1.2119222      15.190409      52.524034    
     55400   15637.736      2.0974077      638.14967      20466.935     -2735.3799      43.05838      -2692.3215      5282.4371      1.2109558      16.264331      54.341359    
     55500   15684.828      2.1235223      580.71917      21253.294     -2734.6367      39.183327     -2695.4534      5287.8595      1.209714       8.6913191      47.014434    
     55600   15726.856      2.3793729      515.65953      16675.155     -2732.2549      34.793506     -2697.4614      5293.638       1.2083935      9.018913       47.918552    
     55700   15760.883      2.9388228      474.60612      15360.174     -2734.7401      32.023476     -2702.7166      5298.9999      1.2071708      9.3773706      48.236403    
     55800   15798.345      2.6693899      31886.953      453999.13     -2671.5437      2151.5337     -520.00993      5316.3196      1.203238       55.886327      138.02611    
     55900   15871.271      1.371249       21170.747      272312.06     -2671.6509      1428.4706     -1243.1803      5700.9847      1.1220514      13.881686      47.35352     
     56000   16056.223      0.5406791      6394.3987      74873.083     -2679.9482      431.45435     -2248.4939      6094.8856      1.0495353      17.28763       46.534905    
     56100   16181.362      0.79911662     1972.7698      25219.714     -2706.2007      133.11026     -2573.0904      6323.5836      1.011578       15.155166      34.261971    
     56200   16209.853      3.5098311      753.03896      6210.934      -2715.7289      50.810397     -2664.9185      6490.056       0.9856306      7.0109543      24.929203    
     56300   16238.096      3.5407313      257.59736      4282.5895     -2723.4624      17.381071     -2706.0813      6535.0931      0.97883805     8.5159962      28.997446    
     56400   16265.877      3.599497       235.08073      2674.2126     -2727.4721      15.861789     -2711.6103      6508.6656      0.98281248     6.1995191      22.637386    
     56500   16293.903      3.5681327      410.37893      9032.724      -2721.7092      27.689824     -2694.0193      6456.0369      0.99082423     8.5974912      32.15387     
     56600   16322.463      3.5013913      728.79961      17745.229     -2703.1404      49.174876     -2653.9656      6397.4265      0.99990173     17.968508      46.573849    
     56700   16350.629      3.5504747      817.75303      17191.455     -2707.6967      55.176901     -2652.5198      6348.0173      1.0076844      6.1192916      39.178537    
     56800   16379.297      3.4881218      547.26132      11241.017     -2723.7867      36.925798     -2686.8609      6303.4287      1.0148124      8.7792112      38.256449    
     56900   16411.153      3.1391957      383.37519      13881.173     -2732.8695      25.867779     -2707.0017      6254.8927      1.022687       8.4431144      32.255492    
     57000   16576.21       0.60585093     380.81982      5312.1254     -2736.0553      25.695358     -2710.3599      6204.2402      1.0310364      6.4768238      31.471526    
     57100   16773.855      0.5059579      475.65047      12020.422     -2728.2275      32.093943     -2696.1335      6145.3867      1.0409105      12.509514      39.149357    
     57200   16963.324      0.52778997     619.09641      8757.5962     -2716.9142      41.772785     -2675.1414      6087.8661      1.0507455      15.677684      48.93148     
     57300   17158.668      0.51191714     671.72372      11338.77      -2711.3447      45.323749     -2666.0209      6036.4619      1.0596932      9.7463361      44.430794    
     57400   17359.423      0.4981204      561.87566      14191.843     -2711.7862      37.911883     -2673.8743      5991.0902      1.0677185      8.9638042      41.11669     
     57500   17589.864      0.4339502      523.91932      16306.421     -2723.1219      35.350825     -2687.7711      5953.5175      1.0744569      7.5843126      36.750558    
     57600   17822.443      0.429961       382.7086       13212.576     -2731.6301      25.822802     -2705.8073      5913.9221      1.0816507      8.4677012      32.990282    
     57700   17998.44       0.56819246     417.02829      14406.687     -2735.2047      28.138481     -2707.0662      5868.9591      1.0899374      7.0400907      35.858601    
     57800   18150.767      0.6564819      494.56047      10071.11      -2731.8126      33.369872     -2698.4427      5819.2686      1.0992443      9.3808532      39.960641    
     57900   18307.696      0.63722878     569.06958      12271.434     -2722.4526      38.397285     -2684.0553      5769.1664      1.1087907      13.518148      45.461546    
     58000   18508.6        0.49775222     610.216        17559.75      -2717.6487      41.17359      -2676.4751      5727.4821      1.1168604      14.551761      47.65145     
     58100   18707.599      0.5025144      553.76573      18470.834     -2722.0771      37.364676     -2684.7124      5696.2537      1.1229833      10.421527      42.648606    
     58200   18829.128      0.82284917     459.33523      18928.458     -2730.1363      30.993092     -2699.1432      5673.3165      1.1275235      7.8359153      37.043541    
     58300   18877.303      2.0757792      376.42357      14084.584     -2727.7324      25.398727     -2702.3337      5650.7451      1.1320273      12.838353      43.606872    
     58400   18931.049      1.8605879      513.15604      23945.411     -2731.7548      34.624586     -2697.1302      5622.8334      1.1376467      7.1777568      40.058755    
     58500   19020.13       1.1225773      582.55954      22562.059     -2725.5801      39.307503     -2686.2726      5597.264       1.1428437      9.5465632      42.926945    
     58600   19117.602      1.0259288      560.61861      12855.083     -2713.8301      37.827066     -2676.003       5575.0262      1.1474023      9.1257755      41.736397    
     58700   19224.61       0.93451199     478.87122      12865.575     -2712.4113      32.311259     -2680.1001      5554.6918      1.1516026      10.253016      42.887537    
     58800   19335.813      0.89925675     532.88481      23514.477     -2727.3629      35.955761     -2691.4072      5533.4181      1.1560301      13.294526      42.609018    
     58900   19477.467      0.70594789     490.91851      20984.946     -2729.5861      33.124135     -2696.462       5510.3699      1.1608654      15.738416      46.881606    
     59000   19581.588      0.96041233     468.46604      13804.995     -2726.5228      31.609182     -2694.9136      5488.7486      1.1654383      11.72426       40.703572    
     59100   19684.413      0.97252926     502.19315      18711.51      -2721.6268      33.884878     -2687.7419      5467.775       1.1699087      9.8060584      45.246885    
     59200   19772.843      1.1308437      689.13806      24533.833     -2703.2535      46.498761     -2656.7547      5452.0222      1.173289       16.222613      59.431559    
     59300   19852.411      1.2567877      483.11274      12225.187     -2723.7967      32.597451     -2691.1993      5441.0976      1.1756447      5.9543293      38.841367    
     59400   19902.77       1.985735       370.33377      18330.832     -2733.7563      24.987825     -2708.7685      5427.3301      1.178627       7.4843453      38.183512    
     59500   19949.84       2.124473       359.34962      19844.061     -2734.8598      24.246683     -2710.6131      5410.4833      1.1822969      8.3152516      37.373183    
     59600   19996.681      2.1348961      403.10475      15348.588     -2725.4133      27.199008     -2698.2143      5389.7043      1.1868551      11.966713      46.060655    
     59700   20043.398      2.1405479      589.47888      17644.809     -2716.2415      39.774378     -2676.4671      5367.9757      1.1916592      10.454527      46.40585     
     59800   20090.358      2.1294729      728.06191      17112.551     -2718.0008      49.1251       -2668.8757      5350.3097      1.1955939      6.9081514      44.304698    
     59900   20124.919      2.8934536      587.29179      15143.155     -2721.7374      39.626806     -2682.1106      5337.765       1.1984038      6.6304185      41.599058    
     60000   20154.407      3.3912092      368.95652      20506.415     -2727.6981      24.894897     -2702.8032      5327.5421      1.2007034      9.6595179      45.067841    
     60100   20185.541      3.2118994      372.22501      19704.685     -2736.7347      25.115434     -2711.6192      5317.7494      1.2029145      9.2053393      38.874446    
     60200   20214.703      3.4290769      393.66213      17377.772     -2735.0812      26.561878     -2708.5193      5306.5482      1.2054536      7.9773366      37.099176    
     60300   20248.413      2.9664785      503.07402      22063.074     -2724.7666      33.944314     -2690.8223      5293.374       1.2084538      8.9035382      46.423045    
     60400   20293.608      2.2126521      591.49609      13983.724     -2713.9622      39.910486     -2674.0517      5283.9958      1.2105986      9.1083272      43.85359     
     60500   20340.726      2.1223342      644.17912      22459.405     -2722.1848      43.465211     -2678.7196      5280.2088      1.2114668      12.512399      52.255981    
     60600   20387.03       2.1596164      482.56472      19519.449     -2732.0389      32.560473     -2699.4784      5276.9598      1.2122127      9.5413429      44.432999    
     60700   20434.725      2.0966485      394.64399      16524.9       -2740.4589      26.628128     -2713.8307      5270.7636      1.2136378      11.023973      37.198972    
     60800   20481.885      2.1204647      346.66011      12042.121     -2742.0939      23.390474     -2718.7034      5262.3255      1.2155838      8.1062994      36.796935    
     60900   20529.796      2.0872042      347.16246      20386.002     -2733.13        23.424369     -2709.7057      5248.4018      1.2188087      17.009408      61.141831    
     61000   20583.49       1.8624081      524.41353      18693.26      -2730.9561      35.384172     -2695.5719      5233.2183      1.2223449      12.434943      47.865326    
     61100   20608.71       3.9650991      624.88878      19936.259     -2723.7971      42.163618     -2681.6335      5222.0454      1.2249602      11.931547      53.041151    
     61200   20633.716      3.9989707      516.55844      19403.239     -2721.3709      34.854159     -2686.5167      5212.1019      1.2272971      6.6710654      39.928377    
     61300   20658.865      3.9763537      514.69252      24461.903     -2733.5165      34.728258     -2698.7882      5205.4583      1.2288635      10.481624      42.244024    
     61400   20687.672      3.471398       417.79416      14572.166     -2734.4408      28.190158     -2706.2506      5198.9661      1.2303981      12.409889      43.609379    
     61500   20713.27       3.9065923      366.64051      14948.836     -2732.4971      24.738627     -2707.7584      5190.5637      1.2323898      6.6553339      35.88095     
     61600   20748.73       2.8200893      364.3036       13836.892     -2728.2641      24.580947     -2703.6831      5181.3938      1.2345709      8.6996274      39.701312    
     61700   20779.064      3.2966417      485.49324      23223.397     -2725.7102      32.758072     -2692.9522      5172.8237      1.2366162      10.797245      43.438121    
     61800   20810.972      3.1339645      489.64829      17159.267     -2717.4602      33.038429     -2684.4218      5168.1884      1.2377253      13.639972      48.14581     
     61900   20846.713      2.7978791      468.23189      15262.841     -2717.5383      31.593383     -2685.945       5168.981       1.2375356      19.120058      50.646068    
     62000   20887.72       2.4386163      455.31307      17096.424     -2725.7663      30.721701     -2695.0446      5173.2138      1.236523       6.9477175      40.540871    
     62100   20921.325      2.9757704      370.14771      12521.249     -2727.7818      24.975271     -2702.8066      5176.2915      1.2357878      8.0653713      37.835499    
     62200   20964.759      2.3023513      457.15268      19358.334     -2727.1404      30.845827     -2696.2946      5178.7898      1.2351916      9.8969114      41.596851    
     62300   21012.109      2.1119166      458.45947      22278.357     -2730.2831      30.934001     -2699.3491      5180.4285      1.2348009      7.8776897      39.454385    
     62400   21060.755      2.0556623      456.40553      21549.946     -2734.5985      30.795414     -2703.8031      5182.0912      1.2344047      8.784561       38.220634    
     62500   21109.562      2.0488985      400.21692      20423.79      -2733.8654      27.004155     -2706.8612      5184.005       1.233949       5.8092553      36.461505    
     62600   21156.156      2.1461773      431.39885      23922.102     -2737.8437      29.108118     -2708.7356      5187.1914      1.233191       7.9424635      37.212247    
     62700   21197.348      2.4276945      428.46369      26259.29      -2735.1376      28.910072     -2706.2275      5191.707       1.2321184      6.6563908      37.967457    
     62800   21245.629      2.0711939      471.24595      28281.769     -2729.952       31.796753     -2698.1552      5199.4053      1.2302941      11.243263      39.81078     
     62900   21294.081      2.0639096      431.70324      22335.735     -2728.7515      29.128656     -2699.6229      5209.1005      1.2280043      8.27472        40.326837    
     63000   21342.527      2.0641543      452.60963      20441.594     -2736.4567      30.53929      -2705.9174      5218.2325      1.2258553      6.0867868      39.074763    
     63100   21391.739      2.032036       409.87648      24928.7       -2740.235       27.655922     -2712.5791      5225.9348      1.2240485      6.4299         36.541431    
     63200   21442.964      1.9521668      391.47787      20061.483     -2740.4801      26.414498     -2714.0656      5231.8214      1.2226713      10.398196      38.938559    
     63300   21492.379      2.0236591      393.05312      14233.587     -2737.0791      26.520786     -2710.5583      5233.9777      1.2221676      10.529104      44.324154    
     63400   21541.874      2.0204329      446.53631      20728.853     -2734.5807      30.1295       -2704.4512      5230.0438      1.2230868      8.7270223      42.201361    
     63500   21590.599      2.0522946      491.44896      16574.676     -2736.5403      33.159927     -2703.3804      5222.1143      1.224944       10.14035       42.837703    
     63600   21639.319      2.0525795      434.80542      19687.115     -2734.2376      29.337972     -2704.8996      5212.3256      1.2272445      8.8998602      40.820911    
     63700   21688.368      2.0387497      380.45941      16350.405     -2739.03        25.67104      -2713.359       5204.4727      1.2290962      13.622393      40.111034    
     63800   21737.086      2.0526242      366.66137      17255.971     -2742.4102      24.740035     -2717.6702      5194.0936      1.2315523      7.289169       36.029344    
     63900   21785.368      2.0711642      364.95208      21032.201     -2740.7407      24.624702     -2716.116       5181.3583      1.2345793      5.6091165      36.633517    
     64000   21822.367      2.7028436      400.84474      16761.038     -2735.3873      27.046516     -2708.3408      5171.0952      1.2370296      7.9068855      40.484225    
     64100   21862.933      2.4650616      454.87061      19720.949     -2731.7234      30.691847     -2701.0315      5158.906       1.2399524      9.4984256      45.812572    
     64200   21896.805      2.9523651      496.78003      24301.638     -2736.1798      33.519634     -2702.6602      5148.3595      1.2424924      10.793625      43.199888    
     64300   21926.475      3.370375       392.82678      23453.096     -2739.1477      26.505514     -2712.6422      5142.8645      1.24382        11.139777      45.985202    
     64400   21956.206      3.3634603      332.47071      21486.405     -2742.6881      22.43306      -2720.255       5137.9247      1.2450159      6.0591237      36.718755    
     64500   21987.133      3.2334126      329.55482      20691.318     -2742.9771      22.236314     -2720.7407      5134.5568      1.2458325      6.993512       36.765264    
     64600   22031.08       2.2754621      395.39009      22347.996     -2738.4328      26.67847      -2711.7543      5133.2669      1.2461456      12.890209      46.516796    
     64700   22072.408      2.4196677      419.96038      16233.502     -2735.1675      28.336321     -2706.8312      5131.9912      1.2464553      9.149083       42.660958    
     64800   22103.328      3.2342001      439.71772      21317.974     -2735.178       29.669424     -2705.5086      5130.6404      1.2467835      8.3196418      41.278417    
     64900   22139.713      2.7483861      364.4212       20714.345     -2738.6579      24.588881     -2714.069       5132.4172      1.2463519      8.2846269      37.604527    
     65000   22168.738      3.4452561      374.31897      17042.297     -2744.9209      25.256722     -2719.6642      5134.4686      1.2458539      6.9882108      36.173446    
     65100   22197.945      3.4238958      327.91714      20629.717     -2742.7196      22.125814     -2720.5938      5135.3351      1.2456437      9.5839705      39.367551    
     65200   22226.981      3.4440386      345.55392      15900.133     -2737.8724      23.315835     -2714.5566      5137.9252      1.2450157      6.7544414      38.037755    
     65300   22256.059      3.4389559      503.65681      23405.426     -2739.8688      33.983637     -2705.8851      5139.8382      1.2445524      11.026675      42.435343    
     65400   22284.879      3.4698223      443.13624      21634.712     -2734.8825      29.900084     -2704.9824      5140.3336      1.2444324      9.2687731      43.668938    
     65500   22323.927      2.5609708      404.35984      11730.199     -2740.0474      27.283693     -2712.7637      5139.7388      1.2445764      15.994801      45.000648    
     65600   22356.316      3.0874025      399.71473      22078.319     -2741.9052      26.97027      -2714.935       5136.237       1.245425       8.6105607      40.012828    
     65700   22385.42       3.4359923      280.78204      11692.302     -2741.7984      18.94543      -2722.853       5132.4428      1.2463456      10.871359      37.005771    
     65800   22420.606      2.8420408      404.41017      20735.523     -2742.4405      27.287089     -2715.1534      5125.5709      1.2480166      6.4826366      37.593107    
     65900   22468.249      2.0989515      375.62446      20986.565     -2740.0723      25.344808     -2714.7275      5116.0624      1.2503362      8.9526109      40.990896    
     66000   22518.204      2.0018067      406.6105       21848.253     -2740.3852      27.435554     -2712.9496      5108.0196      1.2523049      9.4700898      40.07723     
     66100   22566.889      2.0539885      359.09008      18786.904     -2738.3729      24.229171     -2714.1438      5100.5761      1.2541324      9.4792507      42.083251    
     66200   22617.58       1.9727406      383.57605      25033.912     -2740.3332      25.881332     -2714.4519      5093.2824      1.2559284      11.388771      38.503781    
     66300   22666.913      2.0270532      379.88177      24159.788     -2741.2276      25.632065     -2715.5955      5087.7226      1.2573008      12.189734      43.680632    
     66400   22717.035      1.9951524      378.18772      18574.963     -2731.8897      25.517761     -2706.3719      5083.3052      1.2583934      16.417615      46.492037    
     66500   22742.221      3.9704327      345.08349      19191.997     -2744.1278      23.284093     -2720.8437      5080.538       1.2590788      7.4429115      35.990355    
     66600   22767.422      3.968132       285.10795      15679.881     -2747.5694      19.237315     -2728.3321      5076.2226      1.2601492      8.73165        36.796259    
     66700   22792.766      3.9455687      285.79321      20735.161     -2747.6417      19.283553     -2728.3581      5067.2796      1.2623732      10.862315      42.780911    
     66800   22817.962      3.968961       399.91977      17589.529     -2744.0901      26.984105     -2717.106       5055.1178      1.2654102      5.1914716      34.712047    
     66900   22843.391      3.9324994      575.92137      26031.485     -2725.6653      38.859601     -2686.8057      5042.9428      1.2684653      7.5894238      39.467832    
     67000   22879.084      2.8016431      365.01534      17670.714     -2731.2761      24.62897      -2706.6471      5037.6661      1.2697939      7.0016107      35.442453    
     67100   22920.925      2.3899975      286.56711      21141.141     -2740.6198      19.33577      -2721.284       5035.0504      1.2704536      7.7558121      33.396647    
     67200   22953.712      3.0500514      235.20481      19594.063     -2740.6544      15.870161     -2724.7842      5031.6675      1.2713077      8.6785552      32.444553    
     67300   22994.856      2.4304919      324.03645      19189.793     -2741.512       21.86397      -2719.648       5028.9472      1.2719954      6.6165376      30.399767    
     67400   23037.082      2.3681853      400.77221      17586.252     -2734.0771      27.041622     -2707.0355      5026.4373      1.2726306      11.676396      42.213494    
     67500   23080.152      2.3218097      470.13071      23013.182     -2733.8598      31.721503     -2702.1383      5029.038       1.2719724      8.2237316      40.109093    
     67600   23123.426      2.3108513      384.20697      19170.626     -2740.1303      25.923902     -2714.2064      5039.149       1.2694203      6.1257636      36.653787    
     67700   23152.862      3.3971657      278.62316      17108.392     -2744.8854      18.799762     -2726.0856      5050.3528      1.2666041      5.5525237      32.819219    
     67800   23178.734      3.8652922      272.47457      16881.191     -2748.4022      18.384893     -2730.0173      5061.6888      1.2637675      5.3996563      31.735851    
     67900   23203.974      3.9619094      334.20047      21925.664     -2748.5178      22.549775     -2725.9681      5071.3528      1.2613593      7.2853835      33.89431     
     68000   23229.343      3.9417563      390.50725      17756.849     -2739.6119      26.349006     -2713.2629      5078.5314      1.2595763      7.6129506      40.480876    
     68100   23254.889      3.914515       414.41897      21403.079     -2734.4496      27.962421     -2706.4872      5085.0415      1.2579637      13.038471      46.535299    
     68200   23280.441      3.9135897      377.39611      20241.018     -2737.4973      25.464348     -2712.033       5092.2734      1.2561772      8.9431292      40.927371    
     68300   23305.985      3.914818       306.94579      26403.362     -2742.5732      20.710798     -2721.8624      5096.9191      1.2550322      16.749839      45.744194    
     68400   23331.56       3.9100994      276.28951      18426.638     -2748.0369      18.642302     -2729.3946      5095.7914      1.25531        6.7298287      35.064845    
     68500   23356.92       3.9433089      263.97163      19944.256     -2745.9686      17.811168     -2728.1574      5090.428       1.2566326      7.6141715      36.949866    
     68600   23382.057      3.9781035      323.59106      21600.115     -2743.8049      21.833917     -2721.971       5082.9227      1.2584881      9.9575178      37.692569    
     68700   23407.473      3.934574       390.41706      14252.303     -2739.324       26.342921     -2712.9811      5072.3405      1.2611136      7.6228458      37.165907    
     68800   23432.974      3.9213529      369.32481      21474.319     -2736.382       24.919747     -2711.4623      5060.6312      1.2640316      9.3623764      39.519152    
     68900   23459.466      3.7747411      315.58128      15072.041     -2740.1839      21.293466     -2718.8904      5051.032       1.2664338      10.128587      38.778251    
     69000   23495.195      2.7988561      323.47548      17547.231     -2745.9142      21.826118     -2724.0881      5042.0953      1.2686785      12.529007      37.750365    
     69100   23531.709      2.7387006      331.75942      21365.969     -2747.8424      22.385067     -2725.4573      5032.6576      1.2710576      13.253891      39.834262    
     69200   23573.94       2.367906       270.41286      17865.264     -2740.9705      18.245782     -2722.7247      5023.1016      1.2734757      10.310541      39.762597    
     69300   23615.8        2.3889252      391.44188      22042.319     -2743.5174      26.412069     -2717.1053      5014.6646      1.2756183      7.4485667      34.010336    
     69400   23657.306      2.4092932      329.98501      22442.978     -2738.6864      22.265341     -2716.421       5007.9036      1.2773404      10.503003      38.054799    
     69500   23697.846      2.466721       332.78102      15523.108     -2741.6333      22.453999     -2719.1793      5002.6698      1.2786768      8.1614337      32.63518     
     69600   23738.581      2.4548449      289.22309      22000.677     -2744.0587      19.51498      -2724.5437      4996.921       1.2801479      9.8919454      36.9454      
     69700   23780.654      2.3768373      274.33233      23139.556     -2744.1304      18.510244     -2725.6202      4990.3704      1.2818283      7.5053497      34.296401    
     69800   23822.867      2.3689374      292.3929       16799.243     -2743.1195      19.728858     -2723.3906      4986.2507      1.2828873      7.3906283      34.90946     
     69900   23864.891      2.379596       315.51805      17476.089     -2741.7926      21.2892       -2720.5034      4982.4173      1.2838744      8.5250731      38.455598    
     70000   23907.217      2.3626322      288.03686      20049.158     -2737.6262      19.43494      -2718.1913      4980.0293      1.28449        10.279275      37.623058    
     70100   23949.229      2.3802759      318.82169      19553.509     -2741.1327      21.51211      -2719.6206      4980.0387      1.2844876      8.6044652      39.759878    
     70200   23991.396      2.3714912      318.34092      20310.242     -2745.4775      21.47967      -2723.9978      4980.5464      1.2843566      8.2008122      36.636264    
     70287   24027.939      2.3807838      275.09417      20231.301     -2744.5474      18.561648     -2725.9858      4981.5701      1.2840927      6.9953437      31.138255    
Loop time of 24027.9 on 1 procs for 40000 steps with 523 atoms

Performance: 0.144 ns/day, 166.861 hours/ns, 1.665 timesteps/s, 870.653 atom-step/s
99.0% CPU use with 1 MPI tasks x 1 OpenMP threads

MPI task timing breakdown:
Section |  min time  |  avg time  |  max time  |%varavg| %total
---------------------------------------------------------------
Pair    | 23854      | 23854      | 23854      |   0.0 | 99.28
Neigh   | 21.879     | 21.879     | 21.879     |   0.0 |  0.09
Comm    | 26.813     | 26.813     | 26.813     |   0.0 |  0.11
Output  | 5.6914     | 5.6914     | 5.6914     |   0.0 |  0.02
Modify  | 98.621     | 98.621     | 98.621     |   0.0 |  0.41
Other   |            | 20.94      |            |       |  0.09

Nlocal:            523 ave         523 max         523 min
Histogram: 1 0 0 0 0 0 0 0 0 0
Nghost:           2624 ave        2624 max        2624 min
Histogram: 1 0 0 0 0 0 0 0 0 0
Neighs:              0 ave           0 max           0 min
Histogram: 1 0 0 0 0 0 0 0 0 0
FullNghs:        78320 ave       78320 max       78320 min
Histogram: 1 0 0 0 0 0 0 0 0 0

Total # of neighbors = 78320
Ave neighs/atom = 149.75143
Neighbor list builds = 12056
Dangerous builds = 1584
Density after 300K quench: 1.28409269642849 g/cm^3
Phase 4: Pressure release at 300K (20,000 steps)
Setting up Verlet run ...
  Unit style    : metal
  Current step  : 70287
  Time step     : 0.001
Per MPI rank memory allocation (min/avg/max) = 151.2 | 151.2 | 151.2 Mbytes
   Step          CPU           S/CPU           Temp          Press          PotEng         KinEng         TotEng         Volume        Density          Fmax          Fnorm     
     70287   0              0              275.09417      20240.91      -2744.5474      18.561648     -2725.9858      4981.5701      1.2840927      6.9971771      31.132683    
     70300   5.4471992      2.3865455      266.21079      24628.126     -2743.6052      17.962252     -2725.643       4981.7436      1.284048       10.280629      39.31648     
     70400   48.92688       2.2999207      369.90535      22746.634     -2743.0067      24.958918     -2718.0478      4980.6044      1.2843417      9.6910729      37.417902    
     70500   92.633568      2.2879835      299.39687      22179.36      -2736.0557      20.201443     -2715.8543      4978.6452      1.2848471      13.369275      37.446236    
     70600   135.5023       2.3327022      323.16691      25398.39      -2736.1458      21.805298     -2714.3405      4977.5973      1.2851176      8.9050823      40.168352    
     70700   178.74998      2.3122633      330.48086      20806.276     -2736.1749      22.298798     -2713.8761      4985.4368      1.2830968      7.5228171      34.882852    
     70800   222.36499      2.2927883      341.27793      17944.495     -2738.3341      23.027317     -2715.3068      5004.0236      1.2783309      12.636609      36.216889    
     70900   265.68647      2.3083238      322.62083      18121.921     -2738.5745      21.768452     -2716.806       5033.5206      1.2708397      8.9447749      36.213238    
     71000   299.37695      2.9681979      376.02057      18891.746     -2743.546       25.371535     -2718.1745      5068.3066      1.2621174      9.2746468      36.166833    
     71100   324.77574      3.9371942      299.09312      14704.17      -2739.4933      20.180948     -2719.3124      5100.4821      1.2541555      5.8606724      32.707574    
     71200   350.09196      3.9500381      326.19274      17482.324     -2741.0897      22.009462     -2719.0803      5124.2612      1.2483356      10.434774      41.318271    
     71300   375.37638      3.9550037      312.06826      12261.965     -2741.6982      21.05643      -2720.6418      5133.7688      1.2460237      7.8465089      38.675879    
     71400   400.75875      3.939743       357.0526       16710.04      -2745.2         24.091694     -2721.1083      5123.2356      1.2485855      7.792814       36.158896    
     71500   425.79701      3.9938882      297.70154      17636.692     -2742.2517      20.087053     -2722.1646      5097.1257      1.2549814      9.2862924      37.616126    
     71600   451.11635      3.9495492      308.76498      21165.573     -2741.9767      20.833545     -2721.1432      5061.6685      1.2637726      8.2947989      38.276633    
     71700   484.98733      2.9523799      335.39784      16662.646     -2743.1604      22.630565     -2720.5299      5029.0026      1.2719814      10.230211      35.637747    
     71800   528.56859      2.2945644      288.93995      25581.541     -2738.2636      19.495875     -2718.7677      5007.0569      1.2775564      14.504452      48.404737    
     71900   572.21125      2.2913357      328.69407      25436.506     -2738.6937      22.178237     -2716.5154      4996.1264      1.2803515      10.967562      46.834791    
     72000   615.3842       2.3162638      341.10127      19323.426     -2739.1626      23.015398     -2716.1472      5005.2479      1.2780182      9.2272434      37.985669    
     72100   658.83297      2.3015602      352.32873      20216.46      -2741.6319      23.772957     -2717.859       5023.5847      1.2733532      6.8416542      35.188995    
     72200   701.43591      2.3472582      296.90406      18975.168     -2738.2243      20.033244     -2718.191       5053.3162      1.2658614      15.904081      45.995951    
     72300   727.32934      3.8619846      355.0822       18475.755     -2743.0512      23.958744     -2719.0924      5088.0087      1.2572301      8.1644074      37.952917    
     72400   752.73646      3.9359046      286.29016      15817.955     -2737.8933      19.317083     -2718.5763      5116.5302      1.2502218      9.9333429      41.583716    
     72500   777.92969      3.9693193      348.12199      8225.2048     -2741.467       23.489112     -2717.9778      5131.1918      1.2466495      8.962899       37.666245    
     72600   803.14917      3.9651896      353.51863      10782.38      -2742.8934      23.853244     -2719.0402      5134.7001      1.2457977      9.205172       36.228421    
     72700   828.23746      3.9859229      356.11785      13868.099     -2743.0453      24.028623     -2719.0166      5123.2194      1.2485895      10.642365      40.426236    
     72800   853.59113      3.9442023      343.72853      18442.779     -2740.6993      23.192669     -2717.5066      5105.1432      1.2530105      11.346616      41.702029    
     72900   879.02007      3.9325264      331.75606      14863.257     -2741.42        22.38484      -2719.0352      5080.9205      1.258984       6.9425439      38.953535    
     73000   904.64123      3.9030247      360.70962      20389.49      -2741.4004      24.338447     -2717.0619      5057.4942      1.2648156      11.402315      40.708791    
     73100   940.35288      2.8002069      329.14946      17218.305     -2739.2624      22.208963     -2717.0535      5045.3585      1.2678579      9.6119743      40.566987    
     73200   983.44851      2.3204209      351.90275      19665.757     -2737.4933      23.744214     -2713.749       5045.9214      1.2677165      8.1803509      40.924725    
     73300   1013.8407      3.290315       298.76251      17406.654     -2735.0137      20.15864      -2714.8551      5058.781       1.2644939      10.442537      41.682039    
     73400   1039.4209      3.9092769      314.42923      19841.646     -2736.5532      21.215734     -2715.3374      5083.1744      1.2584258      11.687693      46.477228    
     73500   1064.931       3.9200172      574.12797      19054.107     -2731.6618      38.738593     -2692.9232      5108.9482      1.2520773      10.425123      42.819801    
     73600   1090.3849      3.9286743      397.43972      16390.944     -2729.307       26.816766     -2702.4902      5148.1547      1.2425419      12.430919      44.392173    
     73700   1115.678       3.9536508      354.63706      13799.242     -2733.8256      23.928708     -2709.8969      5187.2796      1.23317        11.517012      42.196402    
     73800   1140.8061      3.9796103      329.91165      14870.453     -2736.1597      22.260391     -2713.8993      5219.0611      1.2256606      7.7317512      37.302884    
     73900   1165.8708      3.9896692      321.42766      22152.468     -2738.7689      21.687944     -2717.081       5235.0895      1.221908       19.560229      58.178393    
     74000   1190.9063      3.9943176      308.46051      7818.7917     -2740.7172      20.813001     -2719.9042      5235.1386      1.2218966      8.2697162      37.808997    
     74100   1216.1591      3.9599584      308.15052      13973.112     -2743.3444      20.792085     -2722.5523      5223.8203      1.224544       5.0612993      33.185598    
     74200   1241.3626      3.9677051      304.25698      19637.662     -2742.008       20.529373     -2721.4787      5200.9326      1.2299328      15.529956      48.520802    
     74300   1266.5621      3.9683432      294.53684      21182.639     -2741.1243      19.873518     -2721.2508      5180.6804      1.2347409      10.380991      39.663993    
     74400   1292.0018      3.9308518      335.33767      16879.254     -2742.261       22.626505     -2719.6345      5162.2323      1.2391534      12.962848      40.341219    
     74500   1317.1277      3.9799584      312.62694      18493.929     -2739.1864      21.094126     -2718.0923      5149.3089      1.2422634      21.856362      47.145186    
     74600   1342.5213      3.9379972      9776.895       151435.26     -2693.7232      659.68422     -2034.039       5180.7051      1.234735       17.115856      55.796019    
     74700   1366.7336      4.1301466      6493.3479      67903.653     -2666.2892      438.13083     -2228.1584      6212.6385      1.0296427      7.8333916      33.270956    
     74800   1388.8944      4.5124589      1898.3967      4561.9738     -2692.936       128.09203     -2564.8439      7206.496       0.88764328     4.3946979      23.969505    
     74900   1409.8922      4.7624007      9224.9278      82448.262     -2661.1992      622.44089     -2038.7583      7491.6503      0.85385696     24.962286      54.15278     
     75000   1430.2071      4.9224945      116070.98      1042694.8     -2664.9032      7831.7499      5166.8467      7931.2341      0.80653246     7.6088137      28.241345    
     75100   1449.5319      5.1747138      436.20557     -560.14574     -2683.6311      29.432445     -2654.1987      8915.4102      0.71749899     2.890882       14.551266    
     75200   1468.3534      5.3130822      138.30631     -1489.7558     -2693.0417      9.3320518     -2683.7096      8807.7464      0.72626952     5.5081938      17.815839    
     75300   1487.1719      5.3139157      147.95016      803.97343     -2698.4267      9.982759      -2688.4439      8558.1507      0.74745093     4.92118        17.123353    
     75400   1506.1985      5.2558039      243.71085      569.44759     -2697.7615      16.444096     -2681.3174      8293.4264      0.7713094      4.0679353      19.94909     
     75500   1525.6967      5.1286548      467.89973      7449.6886     -2697.645       31.570971     -2666.074       8056.9509      0.79394772     5.3407639      25.938823    
     75600   1545.4323      5.067008       397.2811       5970.4576     -2696.052       26.806063     -2669.246       7860.1248      0.81382903     6.4736761      29.205658    
     75700   1565.4215      5.0026835      286.09401      4706.9154     -2707.5588      19.303849     -2688.255       7682.9204      0.83259977     5.4459169      23.573348    
     75800   1585.8015      4.9067676      224.0718       5562.4165     -2714.1566      15.118975     -2699.0376      7515.4579      0.8511521      3.9398752      22.464106    
     75900   1606.2591      4.8881756      222.95302      1479.6025     -2716.4612      15.043486     -2701.4177      7338.4817      0.87167865     3.9596634      21.519942    
     76000   1626.8942      4.8461153      274.57357      6719.81       -2714.3803      18.526521     -2695.8538      7163.0461      0.89302759     5.4125101      24.147279    
     76100   1647.8591      4.7698582      373.42297      6159.2199     -2711.024       25.196265     -2685.8277      7015.6768      0.91178627     8.3528628      29.922369    
     76200   1669.211       4.6834352      394.5844       6495.2667     -2712.2424      26.624107     -2685.6183      6874.103       0.93056473     6.0262674      28.083394    
     76300   1690.5245      4.6918613      327.9495       11235.639     -2715.1489      22.127998     -2693.0209      6745.4328      0.94831539     7.3256684      30.573611    
     76400   1712.2445      4.6040461      355.0799       9083.454      -2721.6162      23.958589     -2697.6576      6633.3305      0.96434178     5.6706424      28.116743    
     76500   1734.0709      4.5816148      223.26142      9350.3029     -2728.2601      15.064295     -2713.1958      6522.998       0.98065304     6.4588235      26.04536     
     76600   1756.305       4.497601       201.52066      6781.3179     -2729.873       13.597364     -2716.2757      6407.9097      0.9982659      3.4508185      21.707547    
     76700   1778.8939      4.4269378      261.01279      9460.0814     -2727.5641      17.611523     -2709.9526      6305.0615      1.0145496      7.7696746      29.835568    
     76800   1801.4512      4.4331642      364.43483      6359.5895     -2721.5911      24.589801     -2697.0013      6210.5813      1.0299837      11.047151      34.46801     
     76900   1824.1962      4.3965615      401.67159      12722.234     -2720.2843      27.102307     -2693.1819      6126.2069      1.0441694      9.7294041      36.876031    
     77000   1846.9885      4.3874485      304.21526      3046.9056     -2724.574       20.526559     -2704.0474      6059.5746      1.0556513      5.7128619      28.630282    
     77100   1869.8827      4.3679195      246.89918      5835.5103     -2732.4279      16.659225     -2715.7687      6005.0923      1.0652289      5.0372344      25.972337    
     77200   1893.0295      4.3202622      203.41666      6737.0755     -2732.1507      13.725294     -2718.4254      5946.1396      1.07579        5.6685667      25.604674    
     77300   1916.2158      4.312882       309.80899      17279.742     -2735.7806      20.903989     -2714.8766      5886.3992      1.0867081      5.8374189      26.700281    
     77400   1939.6384      4.2693836      333.51635      9167.4313     -2730.3178      22.503614     -2707.8142      5840.0562      1.0953315      5.6348606      27.439421    
     77500   1963.1411      4.2548265      343.47425      13032.97      -2728.1233      23.175512     -2704.9478      5796.6318      1.103537       11.603436      34.224683    
     77600   1986.7971      4.2272603      306.29005      10237.215     -2730.2086      20.666552     -2709.5421      5763.3187      1.1099157      8.112097       28.478562    
     77700   2010.3661      4.2428613      262.18484      9530.8792     -2733.0449      17.690606     -2715.3543      5733.8959      1.1156111      4.7023611      27.882305    
     77800   2033.9447      4.2411234      273.36578      11847.001     -2736.3373      18.445027     -2717.8923      5705.4334      1.1211765      8.4022712      29.771648    
     77900   2057.6582      4.2170183      295.82406      16369.878     -2736.2119      19.960372     -2716.2515      5678.076       1.1265784      4.8982314      26.908078    
     78000   2081.6391      4.1699915      272.62275      11021.96      -2732.3594      18.394892     -2713.9645      5675.091       1.127171       6.0909799      29.90595     
     78100   2105.6114      4.171472       320.62169      12615.64      -2730.0611      21.633562     -2708.4276      5672.3647      1.1277127      8.9951604      32.427734    
     78200   2129.678       4.1551423      330.26293      14880.561     -2733.4546      22.284093     -2711.1706      5674.897       1.1272095      6.8063688      28.899567    
     78300   2153.711       4.1609486      309.03909      9762.2416     -2738.5524      20.852041     -2717.7004      5693.6337      1.1235001      3.4180608      26.412537    
     78400   2178.1673      4.0889269      249.55031      10012.688     -2740.1714      16.838107     -2723.3333      5704.4861      1.1213627      13.627633      34.197511    
     78500   2201.8407      4.2241495      229.70775      9120.2038     -2738.3941      15.499254     -2722.8949      5703.5827      1.1215403      9.0224998      33.97396     
     78600   2225.5952      4.209714       302.51593      8344.8391     -2737.7208      20.411898     -2717.3089      5698.6635      1.1225084      8.8391105      29.12744     
     78700   2249.2323      4.2306425      384.59916      11175.275     -2733.2624      25.950365     -2707.312       5694.6058      1.1233083      5.1854671      31.445059    
     78800   2273.1271      4.1850169      341.91405      14839.75      -2737.3879      23.070238     -2714.3177      5702.363       1.1217802      5.2329627      30.111585    
     78900   2296.8012      4.224026       289.67632      8341.3033     -2740.95        19.545561     -2721.4045      5707.444       1.1207815      7.751683       28.747961    
     79000   2320.5803      4.2053736      226.75486      9932.2602     -2738.7199      15.300011     -2723.4199      5707.0054      1.1208677      4.1531117      26.815366    
     79100   2344.3016      4.2156222      249.56271      11679.68      -2737.396       16.838943     -2720.557       5700.2267      1.1222006      17.496792      39.482014    
     79200   2368.1216      4.1981506      292.21054      7990.8864     -2733.4685      19.716554     -2713.7519      5682.4942      1.1257025      7.3282212      32.178711    
     79300   2392.0157      4.1851256      381.63384      5818.581      -2732.7367      25.750284     -2706.9864      5672.0843      1.1277685      9.7915909      35.113615    
     79400   2415.9524      4.177696       298.74584      8873.1684     -2734.659       20.157516     -2714.5015      5678.2271      1.1265484      16.972025      46.987613    
     79500   2439.9199      4.172307       299.99444      10761.942     -2742.7348      20.241764     -2722.493       5688.3325      1.1245471      7.5877125      29.979141    
     79600   2463.6726      4.2100558      261.06759      10800.951     -2745.1096      17.615221     -2727.4944      5698.1888      1.1226019      6.3180143      30.827197    
     79700   2487.379       4.2182665      270.73641      10822.255     -2743.277       18.267614     -2725.0094      5698.8647      1.1224688      9.9859806      30.544667    
     79800   2511.2033      4.1973927      287.75864      13187.43      -2736.6157      19.416168     -2717.1995      5686.9676      1.124817       6.3212223      32.797287    
     79900   2535.2901      4.1516618      327.3604       7162.734      -2730.3227      22.088249     -2708.2345      5685.5477      1.1250979      8.7059474      35.049092    
     80000   2559.0407      4.2104128      380.53221      15058.61      -2733.0082      25.675952     -2707.3322      5700.3529      1.1221757      6.4988045      32.625789    
     80100   2582.4831      4.2657653      306.16465      9577.2055     -2738.3953      20.658091     -2717.7372      5724.6247      1.1174178      7.0344604      32.896099    
     80200   2606.0855      4.2368698      239.81146      9438.1775     -2742.2106      16.18099      -2726.0296      5742.6882      1.113903       7.6061486      30.62536     
     80300   2629.7379      4.2278882      276.49434      9599.9655     -2745.4729      18.656122     -2726.8168      5757.2897      1.111078       6.4545807      27.453138    
     80400   2653.4596      4.2155602      268.10464      5647.2342     -2740.7154      18.090037     -2722.6254      5765.0499      1.1095824      7.337723       28.826793    
     80500   2677.293       4.1957787      295.28338      9118.9066     -2735.4106      19.923891     -2715.4867      5770.6224      1.1085109      9.3042729      36.940024    
     80600   2700.9773      4.2222247      367.85905      12313.796     -2732.481       24.820846     -2707.6602      5787.2714      1.1053219      5.6902014      32.418117    
     80700   2724.6428      4.2255486      283.66397      11066.419     -2746.2966      19.139884     -2727.1567      5813.0448      1.1004212      8.2066229      30.073359    
     80800   2748.2005      4.2448967      184.3293       8825.5075     -2747.0464      12.437397     -2734.609       5828.4264      1.0975171      6.8991091      26.829799    
     80900   2771.5747      4.2782283      244.3799       11231.717     -2748.9756      16.489239     -2732.4863      5832.163       1.096814       8.8072023      30.256035    
     81000   2795.0816      4.2540647      280.28961      10730.258     -2740.8861      18.912204     -2721.9739      5827.351       1.0977197      6.6329285      33.250991    
     81100   2818.5688      4.2576463      410.80387      7149.9839     -2734.592       27.718497     -2706.8735      5815.2132      1.1000109      4.4002279      32.592746    
     81200   2842.181       4.2350933      368.95208      8081.042      -2730.7427      24.894597     -2705.8481      5817.1361      1.0996473      7.5566405      38.377729    
     81300   2865.6509      4.2607799      335.07519      5660.1307     -2740.1007      22.608795     -2717.4919      5820.9942      1.0989184      10.379031      37.308704    
     81400   2889.1535      4.2548421      209.20092      5500.2499     -2743.9303      14.11558      -2729.8147      5825.7248      1.0980261      7.0049307      30.303023    
     81500   2912.8004      4.2288851      203.86005      4396.2862     -2744.9075      13.755212     -2731.1523      5824.6921      1.0982208      6.4417201      28.728396    
     81600   2936.1987      4.2738261      240.32702      5891.704      -2741.527       16.215776     -2725.3112      5809.6968      1.1010553      6.3449836      29.753018    
     81700   2959.5583      4.2808872      366.27057      9574.9106     -2739.7305      24.713666     -2715.0168      5795.6378      1.1037263      6.4509082      33.167481    
     81800   2983.0767      4.2519885      400.33552      12732.492     -2731.4869      27.012157     -2704.4748      5793.017       1.1042256      8.8907684      38.884107    
     81900   3006.7265      4.2283636      350.10056      15935.503     -2738.3108      23.622614     -2714.6882      5797.0036      1.1034662      7.0766422      34.163845    
     82000   3030.355       4.2321819      253.48962      6404.7058     -2742.4246      17.103906     -2725.3207      5809.3142      1.1011279      11.329254      39.188745    
     82100   3053.9018      4.2468612      260.77564      11438.27      -2741.6482      17.595522     -2724.0526      5802.7336      1.1023766      7.887602       30.651416    
     82200   3077.427       4.2507537      240.83048      10797.573     -2741.4474      16.249747     -2725.1977      5798.5959      1.1031632      9.2558592      34.931693    
     82300   3101.1633      4.2129567      289.87564      8181.0571     -2739.0367      19.559009     -2719.4777      5805.9789      1.1017604      10.215467      37.085347    
     82400   3124.3771      4.307791       348.06636      9044.2333     -2736.5402      23.485358     -2713.0548      5825.1454      1.0981353      8.3445587      41.238594    
     82500   3147.7756      4.2737745      313.8093       12363.061     -2734.0142      21.173905     -2712.8402      5845.4173      1.094327       11.875138      44.730953    
     82600   3171.1772      4.2732169      280.14498      3759.4143     -2736.2051      18.902445     -2717.3027      5883.6215      1.0872212      7.542181       34.200041    
     82700   3194.5434      4.2796762      265.25673      4229.5945     -2738.477       17.897878     -2720.5791      5922.218       1.0801355      6.5607385      31.721489    
     82800   3218.0004      4.2631213      267.06027      6391.7695     -2739.4293      18.01957      -2721.4098      5944.8331      1.0760265      7.314801       30.061099    
     82900   3241.2222      4.306289       286.36132      5492.9818     -2739.0897      19.321885     -2719.7678      5966.0584      1.0721983      8.7061503      34.068553    
     83000   3264.4982      4.2962936      341.33914      9902.3942     -2737.5729      23.031447     -2714.5415      5985.4534      1.068724       11.531514      37.491994    
     83100   3287.6828      4.3132049      325.74169      12580.995     -2730.6849      21.979028     -2708.7059      6000.4503      1.066053       16.06792       53.923847    
     83200   3310.8052      4.3248044      325.43981      12648.829     -2733.4545      21.958659     -2711.4958      6017.4735      1.0630371      10.673024      43.487179    
     83300   3334.0238      4.3068831      251.90346      6274.1534     -2734.4225      16.996883     -2717.4256      6035.4249      1.0598753      10.79123       39.677807    
     83400   3357.0513      4.3426342      283.97033      7407.0178     -2739.6674      19.160556     -2720.5068      6049.9541      1.05733        9.1145173      34.886082    
     83500   3380.2486      4.3108583      280.37435      1699.3111     -2737.6096      18.917922     -2718.6916      6047.6412      1.0577343      9.5233101      34.534678    
     83600   3403.4747      4.3054995      282.39942      5679.1976     -2733.4936      19.054561     -2714.439       6034.0529      1.0601163      15.952502      42.830926    
     83700   3426.7924      4.2885955      318.86769      9310.9103     -2734.177       21.515213     -2712.6618      6014.2908      1.0635997      15.717234      42.872976    
     83800   3450.0225      4.3047488      337.79545      5294.9349     -2726.1872      22.792341     -2703.3949      5992.3001      1.0675029      7.2031766      35.117128    
     83900   3473.259       4.3035704      391.49856      11974.799     -2735.5857      26.415894     -2709.1698      5976.3119      1.0703588      7.2813913      37.858225    
     84000   3496.6587      4.2735642      263.92148      7664.4718     -2736.2056      17.807784     -2718.3978      5969.7049      1.0715434      9.8771774      39.272407    
     84100   3520.1391      4.2588555      221.86507      5224.8985     -2739.6874      14.970079     -2724.7174      5971.2146      1.0712725      5.2759299      29.126643    
     84200   3543.5191      4.2771712      265.16855      4872.3991     -2740.4252      17.891929     -2722.5333      5971.0869      1.0712954      8.9370669      30.403712    
     84300   3566.9101      4.2751489      324.11735      8787.0289     -2735.9339      21.869428     -2714.0644      5978.0714      1.0700437      7.0673445      32.334211    
     84400   3590.2292      4.2883316      369.37101      10762.919     -2734.787       24.922864     -2709.8642      5992.2771      1.067507       8.0462614      34.936831    
     84500   3613.5585      4.2864529      277.63841      8445.815      -2730.9859      18.733317     -2712.2526      6026.6574      1.0614172      7.5774505      34.822538    
     84600   3636.9158      4.2813163      293.68209      1954.539      -2736.3239      19.815845     -2716.5081      6073.9625      1.0531507      6.4002719      29.377299    
     84700   3659.8249      4.365082       286.8449       9002.8093     -2736.1924      19.354514     -2716.8379      6118.6942      1.0454515      7.0819139      31.605401    
     84800   3682.6465      4.3817095      242.47616      9111.4862     -2735.0708      16.360787     -2718.71        6162.0614      1.0380938      9.5147958      38.937871    
     84900   3705.3218      4.4101724      297.31261      6667.0319     -2737.1947      20.06081      -2717.1339      6196.907       1.0322565      7.5614258      30.294075    
     85000   3727.9967      4.41017        318.66397      4377.042      -2736.2636      21.501467     -2714.7622      6218.0848      1.0287408      5.9893781      30.162964    
     85100   3750.8223      4.3810426      324.07826      11168.131     -2735.0365      21.86679      -2713.1697      6221.0889      1.0282441      9.9033823      34.904859    
     85200   3773.5451      4.4007914      318.52197      6120.2104     -2733.7981      21.491887     -2712.3063      6236.0833      1.0257717      8.6318493      37.850171    
     85300   3796.3729      4.3807073      349.16107      7503.4962     -2737.2318      23.559223     -2713.6726      6251.1685      1.0232963      6.5574259      33.301169    
     85400   3819.1011      4.399818       286.18668      5019.8776     -2735.3454      19.310102     -2716.0353      6264.8392      1.0210634      6.2368694      33.250363    
     85500   3841.6765      4.4296036      237.23121      5249.2        -2733.4696      16.00689      -2717.4627      6271.8228      1.0199264      6.3729069      32.710249    
     85600   3864.3756      4.4054554      267.74275      4061.4059     -2734.4277      18.06562      -2716.3621      6264.9566      1.0210442      14.466181      39.129857    
     85700   3887.1431      4.3922171      314.20499      8278.1574     -2734.1728      21.200604     -2712.9722      6256.6978      1.022392       7.0532974      32.983869    
     85800   3909.7448      4.4244548      342.32905      4583.2679     -2736.2803      23.09824      -2713.1821      6262.6549      1.0214195      7.9346581      34.690817    
     85900   3932.4939      4.3956845      308.00762      6615.5154     -2735.9497      20.782443     -2715.1673      6265.6341      1.0209338      8.3608211      37.514505    
     86000   3955.2455      4.3953883      274.33644      1557.1469     -2735.6997      18.510521     -2717.1892      6271.1632      1.0200337      12.806441      38.377329    
     86100   3978.008       4.3931868      284.21732      704.67235     -2732.4878      19.177221     -2713.3106      6284.4319      1.01788        6.4594186      32.033835    
     86200   4000.7854      4.3903253      358.54805      4848.6919     -2733.952       24.192598     -2709.7594      6303.6521      1.0147765      16.732282      42.296321    
     86300   4023.1482      4.4717152      259.21311      1236.018      -2736.7518      17.490092     -2719.2617      6319.5662      1.012221       4.8150602      28.02998     
     86400   4045.7462      4.4251468      231.2111       755.2993      -2738.439       15.600691     -2722.8383      6332.9319      1.0100847      12.202789      36.889853    
     86500   4068.2506      4.4435879      265.57263     -651.73844     -2739.1724      17.919194     -2721.2532      6341.2935      1.0087528      5.8898083      30.296654    
     86600   4090.7899      4.4367141      340.90078      3906.1633     -2739.6045      23.00187      -2716.6026      6336.9343      1.0094468      9.8921         37.846154    
     86700   4113.561       4.3915187      359.17037     -122.84698     -2739.041       24.234588     -2714.8064      6327.5596      1.0109423      6.8448924      32.553558    
     86800   4136.0485      4.4469123      335.99818      964.38524     -2738.2347      22.671073     -2715.5636      6319.2886      1.0122655      6.0145542      32.90919     
     86900   4158.6547      4.4235769      328.35799      8697.528      -2738.8777      22.15556      -2716.7221      6310.7121      1.0136412      10.870711      41.455205    
     87000   4181.265       4.4227547      341.90652      4091.6261     -2739.9063      23.069731     -2716.8365      6312.6459      1.0133307      13.529766      42.725108    
     87100   4203.8003      4.4374881      312.5993       2046.6596     -2739.9629      21.092261     -2718.8706      6323.1664      1.0116447      5.9031701      31.340732    
     87200   4226.4099      4.4228847      302.82449      4838.0956     -2740.8094      20.432718     -2720.3767      6333.0066      1.0100728      7.8260446      36.142187    
     87300   4248.8625      4.4538373      322.754        2670.5197     -2741.3701      21.777437     -2719.5926      6341.7371      1.0086823      14.854099      39.476351    
     87400   4271.3739      4.4422005      285.88615      6467.0993     -2735.0039      19.289824     -2715.7141      6354.988       1.006579       10.717991      45.814391    
     87500   4293.935       4.4323997      314.25432      2299.7864     -2736.6128      21.203932     -2715.4089      6376.8432      1.0031292      6.677451       38.323691    
     87600   4316.5212      4.4274864      356.31547      8007.8825     -2739.9303      24.041957     -2715.8884      6397.1846      0.99993953     9.2532434      37.934865    
     87700   4339.0577      4.4372513      348.00734      1373.0652     -2742.0026      23.481376     -2718.5212      6408.9553      0.99810304     14.846831      38.487257    
     87800   4361.6258      4.4310301      298.02428      3177.0636     -2741.9036      20.10883      -2721.7948      6412.9229      0.99748553     8.6256548      34.237454    
     87900   4383.7517      4.5195869      311.50191      3914.4238     -2741.2804      21.018216     -2720.2622      6422.1253      0.99605621     11.934251      35.362904    
     88000   4406.1698      4.4606865      298.09919      3309.3769     -2737.6937      20.113884     -2717.5799      6434.2477      0.99417959     8.7199508      35.427421    
     88100   4428.4897      4.4803104      422.59514      2825.9224     -2735.4062      28.514098     -2706.8921      6439.6589      0.99334419     7.6122786      36.489206    
     88200   4450.9065      4.4609476      308.53883      5423.044      -2735.0558      20.818286     -2714.2375      6468.2809      0.98894867     12.7626        41.472503    
     88300   4473.3561      4.4544108      312.30171      4701.9268     -2742.4513      21.072182     -2721.3792      6516.3052      0.98166025     9.311994       31.536153    
     88400   4495.5331      4.5091684      268.74954     -795.17421     -2743.0345      18.133552     -2724.9009      6563.1082      0.97465981     5.6767092      28.985582    
     88500   4517.6695      4.5174449      282.45599      3452.6205     -2743.3019      19.058378     -2724.2435      6595.5132      0.96987111     6.0010053      29.714822    
     88600   4539.8106      4.5164902      266.79221      961.86849     -2735.3739      18.001483     -2717.3724      6621.2094      0.96610716     7.9566387      31.81963     
     88700   4561.8153      4.5444876      400.20567     -983.27339     -2727.2696      27.003395     -2700.2662      6651.35        0.96172924     5.5530134      34.951858    
     88800   4583.7094      4.5674456      357.83892      2562.7463     -2732.131       24.14475      -2707.9863      6703.6889      0.95422055     5.830675       34.711408    
     88900   4605.4691      4.5955455      281.20418      2021.5994     -2739.8807      18.973913     -2720.9067      6767.5584      0.94521501     5.8744879      32.926511    
     89000   4627.1798      4.6061274      225.96402     -328.33913     -2742.7579      15.24665      -2727.5112      6823.1371      0.93751564     7.1068982      32.499577    
     89100   4648.8164      4.6217845      238.06501      3333.8768     -2743.2224      16.06315      -2727.1592      6867.4559      0.93146544     7.9007368      31.952983    
     89200   4670.4602      4.6202719      266.69843      2951.0891     -2737.8307      17.995155     -2719.8356      6903.9466      0.92654219     8.1609531      36.541434    
     89300   4692.1301      4.6147048      361.06342      5401.2131     -2732.2315      24.36232      -2707.8692      6946.6379      0.92084802     10.516707      43.096062    
     89400   4713.7558      4.6241168      387.69944      5033.0065     -2729.4954      26.159553     -2703.3358      6999.2214      0.91392991     7.9925093      37.242737    
     89500   4735.0387      4.6986087      292.6611       642.99532     -2738.1492      19.746955     -2718.4023      7068.7292      0.90494311     5.5004624      31.547414    
     89600   4756.1448      4.7379635      205.22143     -86.630472     -2741.3227      13.847069     -2727.4756      7134.6742      0.89657882     14.376217      37.244199    
     89700   4777.2044      4.7484142      213.15357      184.05561     -2741.1702      14.38228      -2726.7879      7179.2631      0.89101036     14.455271      39.982476    
     89800   4798.0642      4.7939238      274.22705     -833.55798     -2737.9556      18.50314      -2719.4525      7207.3946      0.88753261     10.247986      35.36679     
     89900   4818.9701      4.7833351      357.92689     -1933.8352     -2733.952       24.150686     -2709.8013      7231.0484      0.88462936     7.3548807      36.187366    
     90000   4839.9195      4.7734089      508.94745     -1085.6812     -2728.4426      34.340616     -2694.1019      7244.625       0.88297155     5.7229615      34.264581    
     90100   4860.87        4.7731597      295.72217      3883.2941     -2735.0811      19.953497     -2715.1276      7269.0284      0.88000726     13.791054      40.987677    
     90200   4881.848       4.7669041      224.94536      1805.2299     -2742.6615      15.177917     -2727.4836      7306.7506      0.87546409     6.9719878      31.177842    
     90287   4899.9327      4.8106924      210.9534      -5593.5201     -2744.2242      14.233827     -2729.9904      7333.2793      0.87229703     9.5104758      29.724895    
Loop time of 4899.93 on 1 procs for 20000 steps with 523 atoms

Performance: 0.353 ns/day, 68.055 hours/ns, 4.082 timesteps/s, 2.135 katom-step/s
98.2% CPU use with 1 MPI tasks x 1 OpenMP threads

MPI task timing breakdown:
Section |  min time  |  avg time  |  max time  |%varavg| %total
---------------------------------------------------------------
Pair    | 4814.6     | 4814.6     | 4814.6     |   0.0 | 98.26
Neigh   | 9.84       | 9.84       | 9.84       |   0.0 |  0.20
Comm    | 12.326     | 12.326     | 12.326     |   0.0 |  0.25
Output  | 3.0209     | 3.0209     | 3.0209     |   0.0 |  0.06
Modify  | 49.911     | 49.911     | 49.911     |   0.0 |  1.02
Other   |            | 10.21      |            |       |  0.21

Nlocal:            523 ave         523 max         523 min
Histogram: 1 0 0 0 0 0 0 0 0 0
Nghost:           2170 ave        2170 max        2170 min
Histogram: 1 0 0 0 0 0 0 0 0 0
Neighs:              0 ave           0 max           0 min
Histogram: 1 0 0 0 0 0 0 0 0 0
FullNghs:        53454 ave       53454 max       53454 min
Histogram: 1 0 0 0 0 0 0 0 0 0

Total # of neighbors = 53454
Ave neighs/atom = 102.2065
Neighbor list builds = 5439
Dangerous builds = 571
Phase 5: Final NPT equilibration at 300K and 1 bar (10,000 steps)
Setting up Verlet run ...
  Unit style    : metal
  Current step  : 90287
  Time step     : 0.001
Per MPI rank memory allocation (min/avg/max) = 149.7 | 149.7 | 149.7 Mbytes
   Step          CPU           S/CPU           Temp          Press          PotEng         KinEng         TotEng         Volume        Density          Fmax          Fnorm     
     90287   0              0              210.9534      -5660.6908     -2744.2242      14.233827     -2729.9904      7333.2793      0.87229703     9.489911       29.874843    
     90300   2.6474775      4.9103245      237.56526     -4169.9335     -2745.1412      16.02943      -2729.1117      7332.9127      0.87234065     9.3401125      29.100774    
     90400   23.211474      4.8628679      293.08886      4448.6143     -2741.4075      19.775818     -2721.6317      7325.0889      0.87327238     14.09769       44.400479    
     90500   43.957465      4.8201985      323.32811     -1397.759      -2738.0341      21.816175     -2716.2179      7321.9812      0.87364303     14.46442       37.200259    
     90600   64.838939      4.7889319      319.72403     -654.86485     -2735.6965      21.572994     -2714.1235      7318.1516      0.8741002      5.244609       31.36989     
     90700   85.78635       4.7738648      851.94291      5238.1023     -2730.342       57.483822     -2672.8582      7331.2596      0.87253735     17.280047      42.098365    
     90800   106.79611      4.7596828      563.42732      6755.0178     -2710.65        38.01658      -2672.6334      7404.9778      0.86385104     16.488336      49.118432    
     90900   127.50298      4.8293284      489.86384      10190.359     -2720.8001      33.052973     -2687.7471      7526.8882      0.84985954     13.542818      47.942026    
     91000   148.19162      4.8335657      432.30545     -1319.1776     -2729.793       29.169289     -2700.6238      7667.2719      0.83429906     5.4490133      33.482118    
     91100   168.63439      4.8917047      354.68456      825.88056     -2730.9654      23.931914     -2707.0335      7805.6458      0.8195091      7.1523616      36.97332     
     91200   188.56304      5.0179044      330.1706      -654.81406     -2734.021       22.277863     -2711.7431      7919.8143      0.80769542     7.8986681      35.63906     
     91300   208.45017      5.0283747      316.92808     -417.15707     -2735.2599      21.38434      -2713.8756      7999.1323      0.79968646     8.8233373      32.661861    
     91400   228.35893      5.0229045      267.48112      180.44707     -2731.8507      18.047966     -2713.8027      8050.0298      0.79463032     7.5154713      33.45902     
     91500   248.30201      5.014278       385.10495     -2392.4934     -2730.5483      25.984493     -2704.5638      8081.6603      0.79152025     8.0687533      38.126216    
     91600   268.10083      5.0508192      356.6534       2170.7096     -2735.7372      24.064759     -2711.6724      8102.0982      0.7895236      10.535607      37.690458    
     91700   288.06072      5.0100295      331.23688     -4816.7529     -2740.8089      22.34981      -2718.4591      8101.4644      0.78958537     5.2282888      29.070461    
     91800   307.81262      5.0628194      281.32613     -3309.8738     -2740.486       18.982142     -2721.5039      8079.7248      0.79170986     5.9812087      33.030433    
     91900   327.69218      5.0302941      285.24165      1017.7742     -2741.8715      19.246337     -2722.6252      8040.7079      0.79555156     5.7475414      32.073156    
     92000   347.62787      5.0161243      294.02679     -3571.3506     -2741.1502      19.839104     -2721.3111      7988.1425      0.80078664     5.2115406      31.556422    
     92100   367.55176      5.0191003      331.5832      -1768.6734     -2735.5839      22.373177     -2713.2107      7919.6349      0.80771372     7.5090785      33.177637    
     92200   387.38731      5.0414469      332.52592     -448.20189     -2739.0218      22.436786     -2716.585       7853.6243      0.81450265     4.8287312      30.824177    
     92300   407.50973      4.9695876      289.22506      3435.0494     -2738.7186      19.515112     -2719.2035      7793.6449      0.82077101     7.1839545      38.168741    
     92400   427.51078      4.9997364      317.31505      116.96893     -2741.1493      21.410451     -2719.7389      7740.2143      0.82643678     6.328369       34.058712    
     92500   447.84385      4.9179898      291.37904     -1741.6914     -2739.3181      19.66045      -2719.6577      7706.6278      0.8300385      7.1638787      34.539879    
     92600   468.30725      4.8868769      286.85169     -2339.8471     -2738.0639      19.354972     -2718.7089      7685.1639      0.83235672     8.2860194      34.956976    
     92700   488.65139      4.9154263      316.03723     -3224.9188     -2734.9277      21.324232     -2713.6034      7673.1863      0.83365599     7.3253285      34.768191    
     92800   509.12135      4.8851996      358.23263      4228.1133     -2741.3288      24.171315     -2717.1574      7667.9084      0.83422981     7.7971174      36.237008    
     92900   529.57674      4.8886885      317.51775      3182.2704     -2742.5583      21.424128     -2721.1342      7682.0669      0.83269227     4.8516399      33.072651    
     93000   549.88349      4.9244714      292.20869     -1325.9536     -2743.1683      19.716429     -2723.4519      7711.9161      0.82946931     6.278224       33.184999    
     93100   570.0256       4.9647169      310.59122     -376.16317     -2745.0695      20.956768     -2724.1127      7754.6833      0.82489478     10.560053      35.155776    
     93200   590.03064      4.9987505      311.52401     -1109.878      -2746.2749      21.019708     -2725.2551      7798.9914      0.82020834     7.276154       34.036524    
     93300   609.91111      5.0300479      312.05941     -1749.9113     -2746.1034      21.055833     -2725.0476      7838.3347      0.81609143     6.9296762      35.34802     
     93400   629.8196       5.0230016      308.743       -1707.964      -2746.4068      20.832062     -2725.5747      7864.8168      0.81334352     4.8148137      33.528993    
     93500   649.8681       4.9878967      279.77853     -99.668106     -2745.9547      18.877719     -2727.077       7876.3067      0.81215702     6.9858871      36.066348    
     93600   669.84466      5.005867       324.45005      2267.5391     -2747.3692      21.891876     -2725.4773      7883.4149      0.81142472     7.6994978      34.539121    
     93700   689.64134      5.0513587      290.02824     -195.91635     -2745.4488      19.569306     -2725.8795      7888.9881      0.81085149     10.614269      39.405765    
     93800   709.528        5.0284949      329.52624     -1076.1204     -2747.2703      22.234386     -2725.036       7886.6936      0.81108739     7.9190796      35.80488     
     93900   729.47371      5.0136005      292.71556      626.60344     -2742.9709      19.75063      -2723.2203      7871.2425      0.81267955     7.7642763      37.387275    
     94000   749.21181      5.0663549      332.69763     -4429.7022     -2744.5098      22.448372     -2722.0614      7857.6748      0.81408279     5.5188714      33.841878    
     94100   769.22204      4.9974343      322.31984      1101.1206     -2735.9896      21.748143     -2714.2415      7850.5656      0.81481999     5.4879007      37.009887    
     94200   789.11724      5.0263448      308.17402     -969.60209     -2739.0206      20.793671     -2718.2269      7857.4824      0.81410272     5.2839948      32.678824    
     94300   809.22363      4.9735469      341.79463      1104.7732     -2743.928       23.062181     -2720.8658      7867.4212      0.81307427     7.3201301      36.823315    
     94400   829.15769      5.0165379      295.79319      2933.7667     -2742.2034      19.95829      -2722.2452      7875.0173      0.81228999     13.735395      39.221743    
     94500   849.02016      5.0346204      289.81118      443.27075     -2742.1776      19.554661     -2722.623       7883.3762      0.81142871     11.315691      36.999936    
     94600   868.89445      5.0316264      296.96129     -1521.5186     -2741.8677      20.037105     -2721.8306      7896.5333      0.81007671     6.0095077      35.712786    
     94700   888.79119      5.0259504      352.89446      2338.3594     -2743.3629      23.811129     -2719.5518      7919.47        0.80773054     15.323532      40.520578    
     94800   908.59698      5.0489958      325.52674     -2405.2637     -2739.7454      21.964525     -2717.7809      7939.4874      0.80569405     4.6213905      32.860287    
     94900   928.23789      5.091441       529.53324     -1602.5063     -2733.4031      35.729618     -2697.6735      7950.8065      0.80454703     4.3032964      30.617689    
     95000   948.02533      5.0537154      390.10173     -47.512243     -2730.4441      26.321645     -2704.1225      7979.8307      0.80162073     7.6396502      37.862224    
     95100   967.77122      5.0643457      379.56334      1101.88       -2734.7797      25.610579     -2709.1691      8013.457       0.79825695     8.1597316      35.504396    
     95200   987.71265      5.014686       372.82326      318.93828     -2739.3688      25.1558       -2714.213       8041.8837      0.79543525     5.1823309      33.684945    
     95300   1007.729       4.995888       335.09575      3153.8195     -2738.1048      22.610182     -2715.4946      8085.6032      0.79113426     8.9692727      35.737749    
     95400   1027.4263      5.0768564      314.22691      3070.1382     -2738.6119      21.202082     -2717.4098      8149.6645      0.78491547     8.0566716      35.331386    
     95500   1047.1506      5.0698874      300.95079     -3199.6671     -2737.0165      20.306292     -2716.7102      8221.6314      0.77804483     8.168832       33.693706    
     95600   1066.9271      5.0565265      335.17124     -2716.6374     -2738.3314      22.615276     -2715.7161      8281.9738      0.77237599     6.1977906      33.478489    
     95700   1086.503       5.1083003      312.68019     -348.71608     -2736.9157      21.097719     -2715.818       8320.7035      0.76878088     11.136407      44.192998    
     95800   1106.0389      5.118796       288.90655      3301.3473     -2735.4344      19.493621     -2715.9408      8333.6946      0.76758246     22.909565      54.804623    
     95900   1125.6801      5.0913262      315.78833     -4130.2145     -2737.6207      21.307437     -2716.3133      8333.8551      0.76756767     8.6291429      35.629287    
     96000   1145.3181      5.0921444      314.46358      954.57201     -2738.0043      21.218051     -2716.7862      8318.2643      0.76900632     8.4078202      36.376585    
     96100   1164.9393      5.0965579      308.19178     -1681.88       -2739.1982      20.794869     -2718.4033      8305.4124      0.77019628     11.842366      40.610233    
     96200   1184.5865      5.0897852      314.75485     -904.5047      -2739.4132      21.237704     -2718.1755      8277.5102      0.77279249     11.030634      38.33843     
     96300   1204.2234      5.0924668      278.94671      1217.3293     -2737.1351      18.821594     -2718.3135      8244.2328      0.77591183     10.171344      38.484779    
     96400   1223.8814      5.0869684      321.79233      1148.8063     -2739.3312      21.71255      -2717.6186      8206.7326      0.77945731     12.469071      39.663791    
     96500   1243.6541      5.0574716      381.02503      788.31399     -2741.2994      25.709205     -2715.5902      8159.635       0.78395636     7.4093435      37.880545    
     96600   1263.4272      5.0573838      341.6255      -712.20281     -2739.4945      23.050769     -2716.4438      8115.5577      0.78821419     17.488607      45.969281    
     96700   1282.9747      5.1157551      285.93711     -945.57371     -2735.091       19.293262     -2715.7978      8077.0899      0.79196813     9.3771209      38.742144    
     96800   1302.5988      5.095764       337.82999      1629.8883     -2736.0686      22.794672     -2713.274       8040.4857      0.79557355     9.0816752      36.105273    
     96900   1322.2861      5.0794286      352.24959     -1005.376      -2736.7553      23.767617     -2712.9877      8020.9789      0.79750837     5.7416446      32.749734    
     97000   1342.0581      5.0576455      346.10153     -698.29196     -2732.5327      23.352784     -2709.1799      8008.5405      0.798747       7.3746684      39.162041    
     97100   1362.2035      4.963919       6092.2355      51158.442     -2707.0166      411.06625     -2295.9503      8146.4161      0.78522846     16.492814      46.686485    
     97200   1381.6907      5.1315741      847.82806      2582.4151     -2726.5295      57.206177     -2669.3233      8868.8079      0.72126918     4.7555096      28.024514    
     97300   1400.4868      5.3202536      8520.7359      55336.142     -2711.0113      574.92639     -2136.0849      9636.6676      0.6637977      7.3316552      25.451212    
     97400   1418.2994      5.6140076      4278.0524      17412.394     -2701.0337      288.65643     -2412.3772      11490.553      0.55670062     4.9440786      18.065977    
     97500   1434.9028      6.022872       374.14514     -5895.2172     -2697.601       25.244992     -2672.356       12205.401      0.52409568     5.326724       16.748961    
     97600   1451.2117      6.1316161      215.32517     -2972.725      -2710.2805      14.528807     -2695.7517      12215.456      0.52366426     9.5196267      22.537226    
     97700   1467.5987      6.1023836      178.14536     -2000.9013     -2714.4955      12.020143     -2702.4754      12104.804      0.52845115     4.6828526      19.475502    
     97800   1484.2267      6.0139636      227.76784     -1926.0446     -2713.6703      15.368361     -2698.302       11975.404      0.53416132     9.1899399      24.321681    
     97900   1501.0366      5.9488478      379.61089     -2870.663      -2711.3984      25.613788     -2685.7846      11839.789      0.54027973     5.0829101      24.117023    
     98000   1517.7262      5.9917621      459.52355     -4541.5862     -2713.0176      31.005798     -2682.0118      11709.716      0.54628123     5.4310025      25.409293    
     98100   1534.6459      5.9102944      308.09681     -941.30402     -2717.6347      20.788461     -2696.8463      11569.232      0.55291464     7.6478405      26.198682    
     98200   1551.5964      5.8995247      234.34717     -855.67021     -2722.9185      15.812293     -2707.1062      11441.07       0.55910835     3.6640336      20.595303    
     98300   1568.5832      5.8869213      217.59698     -1011.1244     -2723.1648      14.682094     -2708.4827      11314.735      0.56535108     7.0048105      24.932026    
     98400   1585.5349      5.8991148      303.53593     -3667.5824     -2721.8186      20.480721     -2701.3379      11206.999      0.57078597     6.852318       27.944576    
     98500   1602.7161      5.8203138      351.47126     -916.5801      -2716.2176      23.7151       -2692.5025      11091.787      0.57671482     4.0917968      26.101324    
     98600   1619.8816      5.8256275      388.82377     -200.57529     -2719.153       26.235416     -2692.9176      10987.945      0.58216507     8.7356615      30.69215     
     98700   1636.8666      5.8875486      324.48784     -2420.0309     -2722.2893      21.894426     -2700.3949      10903.238      0.58668789     4.2933894      24.876039    
     98800   1654.0831      5.8083818      255.24201      420.0491      -2724.0664      17.222147     -2706.8443      10795.662      0.59253408     6.4290556      26.748045    
     98900   1671.3987      5.7751209      228.69373      1181.7391     -2723.6945      15.430834     -2708.2637      10706.615      0.59746219     8.8038602      30.804693    
     99000   1688.555       5.8287954      293.69083     -912.69964     -2724.1183      19.816435     -2704.3019      10639.41       0.60123614     10.3795        34.657982    
     99100   1705.7895      5.8022962      282.77146     -977.70121     -2717.1194      19.079664     -2698.0398      10564.949      0.60547362     23.270555      47.522751    
     99200   1723.1728      5.7526769      341.01298     -1422.2262     -2721.4399      23.00944      -2698.4305      10486.445      0.61000632     7.9331378      30.397177    
     99300   1740.7534      5.6880833      339.97164     -1337.7069     -2722.7767      22.939177     -2699.8375      10416.87       0.61408058     11.741742      34.705299    
     99400   1758.3711      5.6760973      312.74621     -565.61021     -2727.7246      21.102174     -2706.6224      10357.723      0.61758724     4.2787571      26.435334    
     99500   1776.1108      5.6370675      246.85779     -2210.6722     -2724.7973      16.656432     -2708.1409      10300.827      0.62099846     5.5526334      29.271302    
     99600   1793.8703      5.6308007      313.68047     -1573.084      -2727.4942      21.165212     -2706.329       10229.94       0.62530161     3.9500241      26.406296    
     99700   1811.4788      5.679087       308.82604     -3792.5695     -2721.8624      20.837665     -2701.0247      10160.446      0.62957847     11.541142      31.039962    
     99800   1829.3939      5.5818715      314.89871     -1454.8204     -2718.671       21.247411     -2697.4236      10084.075      0.63434653     13.632595      37.151696    
     99900   1847.2396      5.6035959      348.61912     -321.79622     -2716.514       23.522655     -2692.9914      10016.596      0.63861992     12.709435      31.78567     
    100000   1865.213       5.5637543      303.2103       1169.0786     -2722.5822      20.45875      -2702.1235      9953.7278      0.64265348     24.321381      43.919407    
    100100   1883.2886      5.5323213      241.02063     -1171.1909     -2728.8258      16.262576     -2712.5633      9892.2525      0.64664724     15.630242      32.195087    
    100200   1901.4054      5.5197495      253.76076     -905.87339     -2733.8155      17.122202     -2716.6933      9832.321       0.65058878     7.5314369      28.998207    
    100287   1917.1191      5.5365483      243.84907     -1569.7153     -2731.9319      16.453422     -2715.4785      9779.0145      0.65413522     12.808766      34.420623    
Loop time of 1917.12 on 1 procs for 10000 steps with 523 atoms

Performance: 0.451 ns/day, 53.253 hours/ns, 5.216 timesteps/s, 2.728 katom-step/s
97.7% CPU use with 1 MPI tasks x 1 OpenMP threads

MPI task timing breakdown:
Section |  min time  |  avg time  |  max time  |%varavg| %total
---------------------------------------------------------------
Pair    | 1876.2     | 1876.2     | 1876.2     |   0.0 | 97.86
Neigh   | 4.5548     | 4.5548     | 4.5548     |   0.0 |  0.24
Comm    | 5.7176     | 5.7176     | 5.7176     |   0.0 |  0.30
Output  | 1.4179     | 1.4179     | 1.4179     |   0.0 |  0.07
Modify  | 24.209     | 24.209     | 24.209     |   0.0 |  1.26
Other   |            | 5.035      |            |       |  0.26

Nlocal:            523 ave         523 max         523 min
Histogram: 1 0 0 0 0 0 0 0 0 0
Nghost:           1815 ave        1815 max        1815 min
Histogram: 1 0 0 0 0 0 0 0 0 0
Neighs:              0 ave           0 max           0 min
Histogram: 1 0 0 0 0 0 0 0 0 0
FullNghs:        41072 ave       41072 max       41072 min
Histogram: 1 0 0 0 0 0 0 0 0 0

Total # of neighbors = 41072
Ave neighs/atom = 78.531549
Neighbor list builds = 2798
Dangerous builds = 450
System init for write_data ...
WARNING: No fixes with time integration, atoms won't move
For more information see https://docs.lammps.org/err0028 (src/verlet.cpp:60)
Setting up Verlet run ...
  Unit style    : metal
  Current step  : 100287
  Time step     : 0.001
Per MPI rank memory allocation (min/avg/max) = 143.5 | 143.5 | 143.5 Mbytes
   Step          CPU           S/CPU           Temp          Press          PotEng         KinEng         TotEng         Volume        Density          Fmax          Fnorm     
    100287   0              0              243.84907     -1578.6444     -2731.9319      16.453422     -2715.4785      9779.0145      0.65413522     12.812126      34.436413    
GPU information: NVIDIA RTX A6000, 8, 6, 45, 84, 300, 2100
Loop time of 0.000904351 on 1 procs for 0 steps with 523 atoms

100.2% CPU use with 1 MPI tasks x 1 OpenMP threads

MPI task timing breakdown:
Section |  min time  |  avg time  |  max time  |%varavg| %total
---------------------------------------------------------------
Pair    | 0          | 0          | 0          |   0.0 |  0.00
Neigh   | 0          | 0          | 0          |   0.0 |  0.00
Comm    | 0          | 0          | 0          |   0.0 |  0.00
Output  | 0          | 0          | 0          |   0.0 |  0.00
Modify  | 0          | 0          | 0          |   0.0 |  0.00
Other   |            | 0.0009044  |            |       |100.00

Nlocal:            523 ave         523 max         523 min
Histogram: 1 0 0 0 0 0 0 0 0 0
Nghost:           1815 ave        1815 max        1815 min
Histogram: 1 0 0 0 0 0 0 0 0 0
Neighs:              0 ave           0 max           0 min
Histogram: 1 0 0 0 0 0 0 0 0 0
FullNghs:        41072 ave       41072 max       41072 min
Histogram: 1 0 0 0 0 0 0 0 0 0

Total # of neighbors = 41072
Ave neighs/atom = 78.531549
Neighbor list builds = 0
Dangerous builds = 0
System init for write_restart ...
===========================================
V3 True T-P Annealing (100k) Complete!
===========================================
Density Summary (Target: 1.10 g/cm^3):
  Initial density:            0.654135218133181 g/cm^3
  After high-T compression:   0.654135218133181 g/cm^3
  After quench compression:   0.654135218133181 g/cm^3
  Final density:              0.654135218133181 g/cm^3
  Target:                     1.1 g/cm^3
  Relative error:             40.5331619878926%%
===========================================
Output files:
  - densified_pdms.lmpdat     (LAMMPS data format)
  - densified_pdms.xyz        (XYZ format)
  - densified_pdms.restart    (restart file)
  - full_trajectory.xyz       (complete XYZ trajectory)
  - full_trajectory.lammpstrj (complete LAMMPS trajectory)
  - trajectory.xyz            (MD XYZ trajectory)
  - trajectory.lammpstrj      (MD LAMMPS trajectory)
  - trajectory.dcd            (MD DCD trajectory)
  - melt_quench_log.lammps    (LAMMPS log file)
===========================================
Total: 100,000 steps (~2.5 hours)
Strategy: True T-P Annealing (Melt, Compress 2GPa, Quench, Release)
===========================================
Total wall time: 10:34:25
 
[SUCCESS] Workflow completed at: Wed 04/08/2026  7:12:03.90 
Final density should be checked in melt_quench_log.lammps 
