========================================== 
PDMS MACE Automated Workflow Started 
Model: mp / mh-1 
Head:  omat_pbe 
Started at: 2026/04/10 周五 21:02:41.63 
========================================== 
[INFO] silicone_slab.lmpdat found. 
[INFO] Raw model found at: mace_pretained_models/mace-mh-1.model 
[INFO] Converted MLIAP model found at: mace_pretained_models/mace-mh-1.model_omat_pbe.pt 
[INFO] Starting LAMMPS simulation with model: mace_pretained_models/mace-mh-1.model_omat_pbe.pt 

==========
== CUDA ==
==========

CUDA Version 12.9.0

Container image Copyright (c) 2016-2023, NVIDIA CORPORATION & AFFILIATES. All rights reserved.

This container image and its contents are governed by the NVIDIA Deep Learning Container License.
By pulling and using the container, you accept the terms and conditions of this license:
https://developer.nvidia.com/ngc/nvidia-deep-learning-container-license

A copy of this license is made available in this container at /NGC-DL-CONTAINER-LICENSE for your convenience.

LAMMPS (10 Dec 2025)
Failed to get GPU information from pynvml: Not Supported. Using default values for NVIDIA GeForce RTX 5090.
W0410 13:02:53.679000 1 torch/fx/_symbolic_trace.py:52] is_fx_tracing will return true for both fx.symbolic_trace and torch.export. Please use is_fx_tracing_symbolic_tracing() for specifically fx.symbolic_trace or torch.compiler.is_compiling() for specifically torch.export/compile.
KOKKOS mode with Kokkos version 4.7.1 is enabled
  using double precision
  using view layout = legacy
  will use up to 1 GPU(s) per node
WARNING: When using a single thread, the Kokkos Serial backend (i.e. Makefile.kokkos_mpi_only) gives better performance than the OpenMP backend (src/KOKKOS/kokkos.cpp:266)
  using 1 OpenMP thread(s) per MPI task
Reading data file ...
  orthogonal box = (0 0 0) to (22 19.079963 20)
  1 by 1 by 1 MPI processor grid
  reading atoms ...
  523 atoms
  read_data CPU = 0.014 seconds
Step 1: Quick Minimization

CITE-CITE-CITE-CITE-CITE-CITE-CITE-CITE-CITE-CITE-CITE-CITE-CITE

Your simulation uses code contributions which should be cited:
- KOKKOS package: https://doi.org/10.1145/3731599.3767498
The log file lists these citations in BibTeX format.

CITE-CITE-CITE-CITE-CITE-CITE-CITE-CITE-CITE-CITE-CITE-CITE-CITE

Neighbor list info ...
  update: every = 1 steps, delay = 0 steps, check = yes
  max neighbors/atom: 2000, page size: 100000
  master list distance cutoff = 7
  ghost atom cutoff = 7
  binsize = 7, bins = 4 3 3
  1 neighbor lists, perpetual/occasional/extra = 1 0 0
  (1) pair mliap/kk, perpetual
      attributes: full, newton on, kokkos_device
      pair build: full/bin/kk/device
      stencil: full/bin/3d
      bin: kk/device
Setting up cg/kk style minimization ...
  Unit style    : metal
  Current step  : 0
WARNING: Fix MINIMIZE/kk not compatible with sending data in Kokkos communication (src/KOKKOS/comm_kokkos.cpp:744)
WARNING: Fix with atom-based arrays not compatible with sending data in Kokkos communication, switching to legacy exchange/border communication (src/KOKKOS/comm_kokkos.cpp:751)
WARNING: Fix MINIMIZE/kk not compatible with Kokkos sorting on device (src/KOKKOS/atom_kokkos.cpp:217)
WARNING: Fix with atom-based arrays not compatible with Kokkos sorting on device, switching to legacy host sorting (src/KOKKOS/atom_kokkos.cpp:223)
Per MPI rank memory allocation (min/avg/max) = 118.4 | 118.4 | 118.4 Mbytes
   Step          CPU           S/CPU           Temp          Press          PotEng         KinEng         TotEng         Volume        Density          Fmax          Fnorm     
         0   0              0              0              136457.75     -2358.8385      0             -2358.8385      8395.1837      0.76196043     14.071848      89.161786    
       100   16.691336      5.9911304      0              1776.224      -2828.6292      0             -2828.6292      8395.1837      0.76196043     0.98092359     3.7485435    
       200   35.716549      5.2561792      0              2037.7768     -2836.4558      0             -2836.4558      8395.1837      0.76196043     0.34430372     1.8424092    
       300   54.044119      5.4562645      0              1562.5516     -2837.9491      0             -2837.9491      8395.1837      0.76196043     0.1780918      0.82729802   
       380   89.901374      2.2310687      0              1166.4875     -2838.3403      0             -2838.3403      8395.1837      0.76196043     0.048376398    0.26228745   
Loop time of 89.9035 on 1 procs for 380 steps with 523 atoms

100.0% CPU use with 1 MPI tasks x 1 OpenMP threads

Minimization stats:
  Stopping criterion = linesearch alpha is zero
  Energy initial, next-to-last, final = 
     -2358.83848166638  -2838.34032030546  -2838.34032030546
  Force two-norm initial, final = 89.161786 0.26228745
  Force max component initial, final = 14.071848 0.048376398
  Final line search alpha, max atom move = 1.1920929e-07 5.7669161e-09
  Iterations, force evaluations = 380 947

MPI task timing breakdown:
Section |  min time  |  avg time  |  max time  |%varavg| %total
---------------------------------------------------------------
Pair    | 89.522     | 89.522     | 89.522     |   0.0 | 99.58
Neigh   | 0.023248   | 0.023248   | 0.023248   |   0.0 |  0.03
Comm    | 0.1052     | 0.1052     | 0.1052     |   0.0 |  0.12
Output  | 0.0053699  | 0.0053699  | 0.0053699  |   0.0 |  0.01
Modify  | 0          | 0          | 0          |   0.0 |  0.00
Other   |            | 0.2477     |            |       |  0.28

Nlocal:            523 ave         523 max         523 min
Histogram: 1 0 0 0 0 0 0 0 0 0
Nghost:           1841 ave        1841 max        1841 min
Histogram: 1 0 0 0 0 0 0 0 0 0
Neighs:              0 ave           0 max           0 min
Histogram: 1 0 0 0 0 0 0 0 0 0
FullNghs:        47402 ave       47402 max       47402 min
Histogram: 1 0 0 0 0 0 0 0 0 0

Total # of neighbors = 47402
Ave neighs/atom = 90.634799
Neighbor list builds = 28
Dangerous builds = 0
Initial density: 0.761960427262085 g/cm^3
Step 2: Heating 300K -> 500K (5000 steps)
Setting up Verlet run ...
  Unit style    : metal
  Current step  : 380
  Time step     : 0.001
Per MPI rank memory allocation (min/avg/max) = 126.4 | 126.4 | 126.4 Mbytes
   Step          CPU           S/CPU           Temp          Press          PotEng         KinEng         TotEng         Volume        Density          Fmax          Fnorm     
       380   0              0              300            3741.6866     -2838.3403      20.242139     -2818.0982      8395.1837      0.76196043     0.047282537    0.27541705   
       400   1.8803069      10.636539      144.16767      1952.6584     -2827.197       9.7275397     -2817.4695      8399.0663      0.7616082      2.7673         25.167381    
       500   11.085082      10.863926      198.67528      1292.2405     -2828.3258      13.405375     -2814.9204      8469.4872      0.75527569     2.3679894      20.582276    
       600   20.331049      10.815527      205.04521     -1086.3717     -2824.5438      13.835179     -2810.7087      8662.9681      0.73840717     3.0007665      27.053723    
       700   29.540896      10.857943      246.59326      698.07212     -2823.1217      16.638584     -2806.4832      8975.7708      0.71267392     3.2894797      26.488664    
       800   38.803548      10.796044      299.01571     -3046.3577     -2822.0527      20.175725     -2801.8769      9370.7275      0.68263619     5.110534       28.810081    
       900   47.913683      10.976786      322.72696      230.39455     -2819.7317      21.775613     -2797.9561      9709.2975      0.6588322      3.6752242      30.574877    
      1000   56.811065      11.239261      335.36153     -1491.1287     -2818.2819      22.628115     -2795.6537      9993.518       0.64009469     3.5038469      30.449623    
      1100   65.767924      11.164628      336.46425      1918.6031     -2818.2129      22.70252      -2795.5104      10284.686      0.62197305     3.1639175      32.191373    
      1200   74.631415      11.282237      335.95978      338.25249     -2819.363       22.668481     -2796.6946      10637.851      0.60132425     4.3919114      31.336926    
      1300   83.441933      11.35007       340.65789     -656.09987     -2820.6873      22.985481     -2797.7018      10979.913      0.58259092     4.4914559      31.181053    
      1400   92.177125      11.447945      326.45977     -1338.5187     -2819.8066      22.027479     -2797.7792      11238.901      0.56916576     4.0215058      31.398237    
      1500   100.84873      11.531892      336.00426      241.84416     -2818.9148      22.671483     -2796.2433      11487.514      0.55684788     3.8530058      32.137347    
      1600   109.70686      11.289058      352.73281      663.79588     -2817.7299      23.800222     -2793.9297      11769.43       0.54350957     4.2509017      33.196136    
      1700   118.16621      11.821243      361.33007      2517.3014     -2817.1567      24.380311     -2792.7764      12115.884      0.52796789     4.2851185      33.968338    
      1800   126.5781       11.887935      363.38247     -987.11464     -2816.4229      24.518795     -2791.9041      12436.067      0.51437465     4.4561549      35.635541    
      1900   134.96626      11.921559      364.90794      992.70745     -2817.823       24.621724     -2793.2013      12667.293      0.50498537     3.6832543      32.34083     
      2000   143.48371      11.740612      349.97177     -1946.3204     -2817.533       23.613924     -2793.9191      13037.099      0.49066112     4.0944278      33.009528    
      2100   151.80436      12.01829       351.64583      37.068682     -2816.9124      23.726879     -2793.1855      13313.87       0.48046117     4.1702407      34.150512    
      2200   160.1277       12.01441       365.71604     -583.21893     -2816.7246      24.676249     -2792.0483      13543.143      0.4723274      4.8195675      34.597096    
      2300   168.46907      11.988428      382.30456     -75.193724     -2816.3297      25.79554      -2790.5342      13728.113      0.46596335     5.2493493      34.150873    
      2400   176.82709      11.964568      376.73777      785.70377     -2814.7141      25.419927     -2789.2942      13923.263      0.45943238     7.8602155      36.241276    
      2500   185.16807      11.988991      389.7993       1612.2276     -2815.5453      26.301238     -2789.2441      14146.461      0.45218361     5.6927319      35.832885    
      2600   193.45558      12.066349      370.91671      1230.326      -2815.0756      25.027158     -2790.0484      14359.441      0.44547679     5.0254477      35.938822    
      2700   201.73674      12.075604      377.80715      413.35954     -2815.8902      25.492082     -2790.3981      14551.977      0.43958274     4.6747164      34.466749    
      2800   210.03855      12.045562      406.0019      -1198.8635     -2816.1882      27.394489     -2788.7937      14732.868      0.43418551     5.788235       33.720605    
      2900   218.33133      12.058688      416.87317      333.73817     -2814.559       28.128015     -2786.431       14891.45       0.42956177     10.260206      37.438854    
      3000   226.63055      12.049319      426.51708     -542.81173     -2813.5365      28.778727     -2784.7578      15148.509      0.42227244     7.2061348      37.487532    
      3100   234.96675      11.995873      410.97396     -586.99467     -2814.8385      27.729973     -2787.1085      15429.646      0.41457838     4.9078231      36.885481    
      3200   243.1907       12.159617      420.98535     -916.19129     -2816.279       28.405479     -2787.8735      15693.28       0.40761382     4.3042359      36.575331    
      3300   251.3698       12.226276      393.15361     -635.71251     -2813.6948      26.527567     -2787.1673      15881.44       0.40278448     4.3007451      35.666417    
      3400   259.54445      12.232941      406.27858     -2090.1541     -2812.6714      27.413158     -2785.2582      16058.311      0.39834811     5.2372384      36.762712    
      3500   267.69683      12.26636       454.71952     -704.96403     -2813.9078      30.681652     -2783.2262      16273.204      0.3930878      4.4755668      36.205534    
      3600   275.84366      12.274713      438.42209      1058.8844     -2812.8269      29.582002     -2783.2449      16489.401      0.38793391     8.5060524      39.13978     
      3700   283.98312      12.285831      427.30007      1479.0722     -2814.3546      28.831558     -2785.5231      16699.028      0.38306407     4.3104879      36.004105    
      3800   292.10672      12.309816      425.98835      565.04916     -2813.7139      28.743051     -2784.9708      16905.473      0.3783862      7.1954339      37.832735    
      3900   300.20565      12.347308      428.5107       593.04954     -2812.322       28.913243     -2783.4088      17111.644      0.37382719     5.0704613      37.755351    
      4000   308.32931      12.309725      428.55774     -829.25783     -2810.092       28.916417     -2781.1756      17347.104      0.36875308     5.1789205      39.415134    
      4100   316.10859      12.854656      437.59371     -1746.6261     -2809.9843      29.526109     -2780.4582      17533.019      0.36484291     6.1106731      39.487763    
      4200   323.96481      12.728771      441.23049     -482.65298     -2811.1886      29.771496     -2781.4171      17682.916      0.36175016     5.9303437      38.152925    
      4300   331.68372      12.955183      428.31223      520.60365     -2812.4968      28.899852     -2783.5969      17821.714      0.35893281     7.0046529      39.024142    
      4400   339.42504      12.917696      417.72981      304.03848     -2811.7462      28.185816     -2783.5604      17957.271      0.35622326     4.8771424      38.075973    
      4500   347.18818      12.881396      451.15675      1621.2119     -2811.3748      30.441258     -2780.9335      18060.399      0.35418918     10.357922      43.245441    
      4600   354.93443      12.909473      461.16143     -1889.0161     -2810.1878      31.116312     -2779.0715      18171.457      0.35202448     4.8563411      38.534586    
      4700   362.68315      12.905345      476.60597      761.35263     -2809.6098      32.158414     -2777.4514      18214.4        0.35119454     8.1635419      40.926243    
      4800   370.51416      12.769756      498.39595     -1101.0441     -2810.1364      33.628666     -2776.5078      18381.853      0.34799527     6.5939444      38.37653     
      4900   378.25039      12.926181      463.35997     -1324.4675     -2809.1102      31.264656     -2777.8455      18435.363      0.34698518     6.847901       38.999186    
      5000   385.97041      12.953347      450.75482      4.3415647     -2809.4512      30.414139     -2779.0371      18584.305      0.34420431     6.421088       41.225378    
      5100   393.6969       12.942475      496.06349     -1831.9833     -2810.3476      33.471287     -2776.8763      18823.608      0.33982846     6.7708228      41.133527    
      5200   401.40305      12.976656      490.28971     -1683.8935     -2807.4242      33.081708     -2774.3425      19023.481      0.336258       11.525554      44.785151    
      5300   409.01656      13.13454       552.85451      470.83593     -2808.9979      37.303192     -2771.6947      19182.236      0.33347509     10.26473       43.014848    
      5380   415.1962       12.945749      462.61398      929.97799     -2805.0049      31.214321     -2773.7906      19276.162      0.33185018     9.5384574      44.954878    
Loop time of 415.196 on 1 procs for 5000 steps with 523 atoms

Performance: 1.040 ns/day, 23.066 hours/ns, 12.042 timesteps/s, 6.298 katom-step/s
99.3% CPU use with 1 MPI tasks x 1 OpenMP threads

MPI task timing breakdown:
Section |  min time  |  avg time  |  max time  |%varavg| %total
---------------------------------------------------------------
Pair    | 408.12     | 408.12     | 408.12     |   0.0 | 98.30
Neigh   | 0.46023    | 0.46023    | 0.46023    |   0.0 |  0.11
Comm    | 0.80073    | 0.80073    | 0.80073    |   0.0 |  0.19
Output  | 0.13451    | 0.13451    | 0.13451    |   0.0 |  0.03
Modify  | 4.754      | 4.754      | 4.754      |   0.0 |  1.14
Other   |            | 0.9253     |            |       |  0.22

Nlocal:            523 ave         523 max         523 min
Histogram: 1 0 0 0 0 0 0 0 0 0
Nghost:            829 ave         829 max         829 min
Histogram: 1 0 0 0 0 0 0 0 0 0
Neighs:              0 ave           0 max           0 min
Histogram: 1 0 0 0 0 0 0 0 0 0
FullNghs:        30628 ave       30628 max       30628 min
Histogram: 1 0 0 0 0 0 0 0 0 0

Total # of neighbors = 30628
Ave neighs/atom = 58.562141
Neighbor list builds = 708
Dangerous builds = 0
Step 3: Compression 1.0 bar -> 15000.0 bar (10000 steps)
Setting up Verlet run ...
  Unit style    : metal
  Current step  : 5380
  Time step     : 0.001
Per MPI rank memory allocation (min/avg/max) = 125.3 | 125.3 | 125.3 Mbytes
   Step          CPU           S/CPU           Temp          Press          PotEng         KinEng         TotEng         Volume        Density          Fmax          Fnorm     
      5380   0              0              462.61398      929.93314     -2805.0049      31.214321     -2773.7906      19276.162      0.33185018     9.5293798      44.95305     
      5400   1.5435955      12.956729      519.11619     -1231.4938     -2808.8257      35.02674      -2773.7989      19274.665      0.33187595     7.1047835      38.50266     
      5500   9.2989864      12.894255      520.68239      181.36693     -2807.7969      35.132417     -2772.6645      19186.817      0.33339546     8.0403121      42.695737    
      5600   17.0382        12.921209      478.3823       336.37222     -2806.4521      32.27827      -2774.1739      19036.444      0.33602903     10.079094      43.371995    
      5700   24.763834      12.943922      493.42394      449.15038     -2807.2381      33.293186     -2773.9449      18819.043      0.3399109      7.243908       41.800738    
      5800   32.663594      12.658612      536.27873      97.134311     -2808.6885      36.184762     -2772.5038      18501.686      0.34574135     9.8883196      44.387815    
      5900   40.428642      12.878221      498.33926     -1249.4089     -2808.1684      33.624841     -2774.5436      18057.391      0.35424818     5.871353       40.48069     
      6000   48.364111      12.601651      506.08584     -311.85103     -2810.3271      34.147533     -2776.1796      17536.228      0.36477616     9.5596988      43.418884    
      6100   56.317812      12.572762      496.73064     -768.07152     -2810.3911      33.516302     -2776.8748      17076.659      0.37459306     6.1677351      38.878185    
      6200   64.349636      12.450471      511.2502      -654.92128     -2811.8138      34.495991     -2777.3178      16565.417      0.38615374     6.9506072      39.088086    
      6300   72.40582       12.412825      502.7139      -657.446       -2808.6144      33.920015     -2774.6944      16116.785      0.39690285     13.470339      47.403582    
      6400   80.515701      12.330638      530.45898      717.15893     -2811.9026      35.792081     -2776.1105      15644.667      0.40888041     10.785531      44.247913    
      6500   88.685906      12.239596      512.61252      462.32307     -2811.3346      34.587913     -2776.7467      15099.739      0.42363631     7.6881028      41.607781    
      6600   96.785887      12.345707      544.93325      1885.0759     -2811.0619      36.768715     -2774.2932      14536.221      0.44005919     11.614076      44.178303    
      6700   104.92603      12.284791      547.10553     -1951.7126     -2811.8856      36.915287     -2774.9703      14022.283      0.45618805     6.0814963      36.644331    
      6800   113.16876      12.131904      520.26831     -1632.0031     -2810.6879      35.104477     -2775.5834      13495.54       0.47399348     7.7122487      38.820134    
      6900   121.48381      12.026388      550.09076     -427.246       -2811.1628      37.116711     -2774.0461      13000.024      0.49206047     14.011931      41.760736    
      7000   129.81122      12.008535      513.99678     -666.54707     -2808.5152      34.681314     -2773.8339      12562.086      0.50921461     9.439079       37.8924      
      7100   138.16775      11.966689      541.26659      866.62329     -2809.9509      36.521311     -2773.4296      12147.55       0.52659158     6.8313037      40.133823    
      7200   146.55981      11.916026      563.28557      653.06182     -2811.747       38.007015     -2773.7399      11753.608      0.54424121     12.427233      43.379953    
      7300   155.02313      11.815696      521.32203      1648.4716     -2809.8902      35.175576     -2774.7146      11332.553      0.56446218     12.8268        43.352555    
      7400   163.54336      11.736769      477.74603      485.08699     -2807.0654      32.235338     -2774.8301      10959.943      0.58365246     8.6158082      40.765512    
      7500   172.16681      11.596289      533.26809      526.07964     -2811.6262      35.981622     -2775.6446      10630.73       0.60172705     11.225093      45.73189     
      7600   180.83728      11.533402      485.98183      1213.8009     -2809.3147      32.791039     -2776.5237      10265.331      0.62314579     11.778642      40.33961     
      7700   189.48631      11.561988      493.10362      2994.3925     -2810.2827      33.271573     -2777.0111      9982.6328      0.64079265     12.588247      43.388385    
      7800   198.22869      11.438541      486.70347     -2364.459      -2810.9327      32.83973      -2778.093       9737.522       0.65692255     7.6751302      40.370303    
      7900   207.23941      11.097882      540.11262      3315.0987     -2813.868       36.443449     -2777.4246      9449.7487      0.67692782     8.749351       41.903625    
      8000   216.30285      11.033342      498.94289      2400.2598     -2810.197       33.66557      -2776.5315      9182.1857      0.69665306     11.261634      43.603466    
      8100   225.42156      10.966463      497.3405       1228.3839     -2809.2076      33.557451     -2775.6501      8945.1059      0.71511706     8.2654952      42.034265    
      8200   234.68583      10.794158      560.42787      5123.0026     -2813.6089      37.814195     -2775.7947      8713.4798      0.73412665     6.8636633      40.722156    
      8300   244.00933      10.725593      504.71572     -1769.9375     -2810.4128      34.055085     -2776.3577      8502.6593      0.75232907     9.2351183      42.818219    
      8400   253.44143      10.602091      551.91119      3789.019      -2814.2383      37.239543     -2776.9988      8287.9851      0.77181579     7.0858468      40.62424     
      8500   262.85198      10.626365      520.40795      1149.7141     -2812.6208      35.113899     -2777.5069      8089.0855      0.79079369     8.3654633      43.483538    
      8600   272.33258      10.547862      553.16077      3323.8658     -2815.5925      37.323857     -2778.2686      7905.6567      0.80914186     11.251075      41.349007    
      8700   281.82303      10.536908      545.79943     -665.73828     -2813.6778      36.827159     -2776.8507      7765.0029      0.82379851     11.347388      44.956699    
      8800   291.39068      10.451885      533.63283      4358.2184     -2813.814       36.006232     -2777.8078      7593.4021      0.84241525     7.5927053      42.043624    
      8900   301.28062      10.111287      516.04095      2914.4445     -2814.4421      34.819242     -2779.6229      7453.1092      0.85827238     8.1582167      42.829928    
      9000   311.19881      10.082482      489.12145      2159.2396     -2814.3295      33.002881     -2781.3266      7323.5671      0.87345384     5.781377       40.708212    
      9100   321.22775      9.9711406      516.24812      1263.3479     -2816.2853      34.833221     -2781.4521      7204.0147      0.88794902     11.695413      44.645937    
      9200   331.30629      9.9220794      482.61934      2514.7829     -2813.6306      32.564159     -2781.0665      7099.019       0.90108194     7.7204076      43.643112    
      9300   341.39061      9.9163788      499.79959      3036.8177     -2812.8222      33.723376     -2779.0988      7012.8428      0.91215474     18.451042      52.534892    
      9400   351.75433      9.6490467      541.63389      3521.8449     -2815.9488      36.546095     -2779.4027      6939.0844      0.92185041     8.978929       41.339142    
      9500   362.17493      9.5963813      564.75272      5906.6564     -2814.3257      38.10601      -2776.2197      6883.0643      0.92935319     8.1987689      44.314433    
      9600   372.62074      9.573208       512.11443      6762.3361     -2810.4188      34.554305     -2775.8645      6803.5853      0.94020983     7.358575       42.234424    
      9700   383.11812      9.5261895      552.64006      10901.156     -2814.4799      37.288722     -2777.1912      6726.0836      0.95104345     8.8225468      43.617493    
      9800   393.44967      9.6790865      539.78482      1229.0714     -2814.39        36.421331     -2777.9687      6660.3342      0.96043196     7.8627214      41.256821    
      9900   403.8848       9.5830191      539.29565      7242.96       -2813.9185      36.388325     -2777.5302      6601.5418      0.96898542     9.4352469      44.387103    
     10000   414.36701      9.5399763      543.73212      6254.1395     -2814.7013      36.68767      -2778.0137      6573.3819      0.97313648     8.0531473      42.686605    
     10100   424.85919      9.5309016      522.53593      9333.7617     -2812.5733      35.257483     -2777.3158      6539.3858      0.9781955      9.6344264      45.607354    
     10200   435.37148      9.5126788      469.23281      4961.4643     -2809.7496      31.660919     -2778.0887      6491.233       0.98545188     10.763807      46.347738    
     10300   446.11486      9.3080576      548.82142      9082.2227     -2815.2142      37.031064     -2778.1831      6444.6671      0.99257225     11.872886      46.193887    
     10400   456.98249      9.2016406      518.47372      4889.2714     -2814.2973      34.98339      -2779.3139      6375.5574      1.0033315      6.0793003      40.928061    
     10500   467.83342      9.215799       519.75164     -38.107726     -2814.1971      35.069616     -2779.1274      6318.7456      1.0123525      9.078928       40.314124    
     10600   478.80841      9.1116207      511.04236      10741.358     -2812.087       34.481968     -2777.605       6237.5001      1.0255387      12.679792      48.616318    
     10700   490.0329       8.9090916      521.90951      6935.1788     -2811.8609      35.215216     -2776.6457      6170.2017      1.0367243      7.0629984      41.280157    
     10800   501.22777      8.932666       568.81051      12239.321     -2814.1903      38.379804     -2775.8104      6124.3448      1.0444869      9.1081714      44.851054    
     10900   512.28402      9.0446554      498.94719      5693.9285     -2809.4183      33.665861     -2775.7524      6109.2363      1.0470699      8.5896047      43.991893    
     11000   527.58319      6.5363008      533.93606      7399.3367     -2810.9421      36.026692     -2774.9154      6087.2875      1.0508453      10.072909      43.850787    
     11100   558.82763      3.2005694      529.10149      7824.5804     -2810.7209      35.700486     -2775.0205      6066.4831      1.0544491      12.698066      45.596049    
     11200   611.35793      1.9036634      516.09478      10227.896     -2811.1874      34.822874     -2776.3646      6033.6564      1.060186       14.088059      47.562988    
     11300   668.86799      1.7388261      517.62032      11126.458     -2812.3196      34.925808     -2777.3938      6004.3693      1.0653571      11.225205      50.030063    
     11400   727.32816      1.7105663      491.50201      16990.274     -2808.4773      33.163506     -2775.3138      5982.2355      1.0692989      10.749022      49.881801    
     11500   788.0002       1.6482048      499.4318       2763.0172     -2807.6781      33.698559     -2773.9795      5971.9603      1.0711387      9.0852546      44.836931    
     11600   853.53577      1.525889       514.48704      5858.1173     -2808.9912      34.714394     -2774.2768      5947.1083      1.0756148      7.0589807      43.731299    
     11700   904.90692      1.946618       494.5725       6828.6148     -2805.6309      33.370684     -2772.2602      5886.352       1.0867168      7.986654       44.385603    
     11800   916.11536      8.9218731      537.03022      11267.915     -2807.0692      36.235468     -2770.8337      5840.2577      1.0952938      13.674645      46.94651     
     11900   927.39164      8.8681683      551.80637      4058.7138     -2805.5052      37.232471     -2768.2727      5802.5642      1.1024088      7.8491315      44.735363    
     12000   939.61065      8.1839714      512.32598      13863.135     -2802.2176      34.568579     -2767.649       5791.1221      1.1045869      9.9387136      46.721077    
     12100   951.43087      8.4600761      541.64345      10234.31      -2803.1808      36.54674      -2766.6341      5814.5448      1.1001373      15.025046      52.630542    
     12200   963.21971      8.4826036      506.75133      6288.574      -2802.7843      34.192436     -2768.5918      5828.9511      1.0974183      6.2046674      42.952888    
     12300   977.31632      7.0938995      526.89632      11383.312     -2806.5652      35.551695     -2771.0135      5823.8083      1.0983874      8.0857825      45.311073    
     12400   989.13975      8.4577912      494.38936      10019.621     -2804.0702      33.358327     -2770.7119      5784.2796      1.1058936      14.095877      51.352017    
     12500   1002.354       7.5676029      531.62537      12436.602     -2806.8895      35.870782     -2771.0188      5720.8448      1.1181562      12.589065      44.568149    
     12600   1018.4779      6.2019763      483.03868      11120.733     -2802.9535      32.592453     -2770.3611      5666.3588      1.128908       13.752955      53.295939    
     12700   1064.8681      2.1556237      499.52275      6764.9515     -2805.4329      33.704696     -2771.7282      5637.5238      1.1346822      11.179726      45.249494    
     12800   1106.0711      2.4270076      505.79677      12926.068     -2805.2895      34.128028     -2771.1614      5616.774       1.138874       13.343013      49.241464    
     12900   1117.5924      8.6796422      516.61434      8488.6432     -2805.7222      34.857931     -2770.8643      5625.2403      1.1371599      19.858964      56.127341    
     13000   1128.9281      8.8216489      561.5918       11609.012     -2809.1636      37.89273      -2771.2709      5662.5293      1.1296715      8.7702415      43.960397    
     13100   1140.3257      8.773749       530.92907      9815.7529     -2805.9824      35.823799     -2770.1586      5695.7656      1.1230795      14.087566      48.586781    
     13200   1151.6482      8.8319776      542.52606      12262.186     -2807.3685      36.606293     -2770.7622      5690.1531      1.1241873      9.3448991      46.48324     
     13300   1163.0375      8.7801667      557.192        12803.363     -2805.3369      37.595859     -2767.741       5648.8696      1.1324032      11.711845      50.6942      
     13400   1174.6746      8.5932459      599.66807      11887.282     -2804.7196      40.461881     -2764.2577      5597.6405      1.1427668      19.161702      51.629371    
     13500   1186.7367      8.2904457      533.20476      10147.26      -2797.1391      35.977349     -2761.1617      5546.1409      1.1533782      13.216505      45.135958    
     13600   1199.5485      7.805297       515.17912      12546.061     -2797.0087      34.761091     -2762.2476      5512.9379      1.1603247      12.13205       51.238915    
     13700   1214.6548      6.619752       501.51907      10317.423     -2798.1718      33.839396     -2764.3324      5499.4094      1.1631791      13.450103      50.423761    
     13800   1245.2476      3.2687364      511.37895      5271.9597     -2800.7553      34.504679     -2766.2507      5496.3892      1.1638182      7.4277808      45.742145    
     13900   1297.3758      1.9183501      524.6425       16037.663     -2802.1997      35.399621     -2766.8001      5485.0251      1.1662294      9.0641429      47.905276    
     14000   1358.8607      1.6264148      549.97418      11643.812     -2804.3935      37.108846     -2767.2847      5482.4075      1.1667863      8.5051296      43.481098    
     14100   1406.1319      2.1154544      530.03853      12849.69      -2805.3199      35.763712     -2769.5562      5480.8492      1.167118       11.253234      46.870439    
     14200   1468.9376      1.5922121      528.11829      13361.006     -2804.2084      35.634146     -2768.5743      5461.9122      1.1711645      9.887501       48.925225    
     14300   1530.646       1.6205255      486.9185       16708.79      -2802.834       32.85424      -2769.9798      5441.9106      1.1754691      14.471576      54.681401    
     14400   1595.8016      1.5347855      495.10316      11223.018     -2804.556       33.406489     -2771.1495      5435.0572      1.1769513      7.7769602      45.860985    
     14500   1668.5996      1.3736641      501.61097      10056.737     -2803.6901      33.845596     -2769.8445      5417.3759      1.1807927      8.5300889      44.843498    
     14600   1746.8145      1.2785291      503.18133      10124.466     -2802.5806      33.951554     -2768.6291      5404.5108      1.1836035      10.08734       42.908415    
     14700   1775.5801      3.4763727      486.98205      21809.516     -2799.476       32.858527     -2766.6175      5388.0452      1.1872205      15.914485      53.017915    
     14800   1787.4039      8.4575444      529.26483      13114.926     -2801.2955      35.711507     -2765.584       5380.7295      1.1888347      12.037693      48.601553    
     14900   1799.2339      8.4530636      518.55163      19275.467     -2797.9993      34.988647     -2763.0106      5377.6646      1.1895122      16.4616        59.774453    
     15000   1810.9798      8.5136041      489.00378      23812.874     -2794.5822      32.994941     -2761.5872      5392.9853      1.186133       24.87633       65.865809    
     15100   1822.7813      8.4735549      533.51491      12726.252     -2794.8131      35.998276     -2758.8148      5395.7493      1.1855254      8.396705       45.780651    
     15200   1834.6041      8.4581722      531.82354      21645.737     -2796.0425      35.884153     -2760.1584      5381.4444      1.1886767      13.633683      51.201037    
     15300   1846.4411      8.4480806      568.84273      16631.504     -2788.771       38.381978     -2750.389       5370.509       1.1910971      11.725007      51.79371     
     15380   1855.9366      8.4250757      563.61078      16983.784     -2790.4734      38.028959     -2752.4444      5370.9409      1.1910013      13.292191      52.805442    
Loop time of 1855.94 on 1 procs for 10000 steps with 523 atoms

Performance: 0.466 ns/day, 51.554 hours/ns, 5.388 timesteps/s, 2.818 katom-step/s
101.1% CPU use with 1 MPI tasks x 1 OpenMP threads

MPI task timing breakdown:
Section |  min time  |  avg time  |  max time  |%varavg| %total
---------------------------------------------------------------
Pair    | 1839       | 1839       | 1839       |   0.0 | 99.09
Neigh   | 2.1891     | 2.1891     | 2.1891     |   0.0 |  0.12
Comm    | 2.8697     | 2.8697     | 2.8697     |   0.0 |  0.15
Output  | 0.25446    | 0.25446    | 0.25446    |   0.0 |  0.01
Modify  | 9.4737     | 9.4737     | 9.4737     |   0.0 |  0.51
Other   |            | 2.15       |            |       |  0.12

Nlocal:            523 ave         523 max         523 min
Histogram: 1 0 0 0 0 0 0 0 0 0
Nghost:           2495 ave        2495 max        2495 min
Histogram: 1 0 0 0 0 0 0 0 0 0
Neighs:              0 ave           0 max           0 min
Histogram: 1 0 0 0 0 0 0 0 0 0
FullNghs:        72748 ave       72748 max       72748 min
Histogram: 1 0 0 0 0 0 0 0 0 0

Total # of neighbors = 72748
Ave neighs/atom = 139.09751
Neighbor list builds = 2655
Dangerous builds = 0
===========================================
Density after compression (15000 bar): 1.19100132285532 g/cm^3
===========================================
Step 4a: Hold at 15000 bar - high temp (2000 steps)
Setting up Verlet run ...
  Unit style    : metal
  Current step  : 15380
  Time step     : 0.001
Per MPI rank memory allocation (min/avg/max) = 143.7 | 143.7 | 143.7 Mbytes
   Step          CPU           S/CPU           Temp          Press          PotEng         KinEng         TotEng         Volume        Density          Fmax          Fnorm     
     15380   0              0              563.61078      16986.738     -2790.4734      38.028959     -2752.4444      5370.9409      1.1910013      13.288921      52.803959    
     15400   2.3824686      8.39464        678.27097      20362.002     -2797.9111      45.765517     -2752.1456      5369.8063      1.191253       9.3076592      43.942189    
     15500   14.355769      8.3519158      509.14168      6640.5435     -2786.2876      34.353722     -2751.9339      5377.8598      1.189469       8.2388639      42.142374    
     15600   26.227361      8.4234696      587.45674      23719.479     -2792.3308      39.637936     -2752.6928      5378.323       1.1893666      27.002406      67.502868    
     15700   38.164253      8.3773903      489.58537      6469.7358     -2787.4726      33.034183     -2754.4384      5400.0433      1.1845827      8.4378193      44.968034    
     15800   50.012103      8.44035        476.10512      18920.604     -2785.6629      32.12462      -2753.5383      5424.4152      1.1792604      21.031288      59.192794    
     15900   61.851878      8.4461058      522.71636      10731.865     -2791.7643      35.269657     -2756.4947      5422.295       1.1797215      11.136043      50.692027    
     16000   73.595858      8.5150011      585.2637       19594.003     -2795.4532      39.489963     -2755.9632      5395.4155      1.1855987      10.778822      44.374559    
     16100   85.438659      8.4439488      538.8157       18763.849     -2792.3574      36.35594      -2756.0015      5362.8666      1.1927945      9.6969957      48.34442     
     16200   97.406317      8.3558532      561.92232      18226.673     -2793.1926      37.915032     -2755.2776      5330.8529      1.1999577      7.362151       42.272749    
     16300   109.34183      8.378357       500.65248      19181.884     -2787.6313      33.780923     -2753.8503      5308.0424      1.2051143      23.627353      61.814919    
     16400   122.01245      7.892276       534.46853      22866.133     -2790.875       36.062621     -2754.8124      5298.1272      1.2073696      17.886781      56.20307     
     16500   134.61047      7.937751       536.53752      27313.262     -2790.4829      36.202223     -2754.2807      5323.0362      1.2017198      14.850816      50.21806     
     16600   155.50101      4.7868558      488.84114      22505.078     -2786.7941      32.983967     -2753.8101      5384.2688      1.1880532      26.575606      57.057248    
     16700   190.24625      2.8780921      552.83186      17265.349     -2793.9527      37.301664     -2756.651       5464.0899      1.1706978      14.316949      52.927837    
     16800   224.92483      2.8836247      478.0761       15659.8       -2791.7521      32.257609     -2759.4945      5505.4193      1.1619093      14.817455      54.197913    
     16900   259.37138      2.9030488      478.58784      15510.818     -2792.9604      32.292138     -2760.6682      5481.9054      1.1668931      8.514338       45.856595    
     17000   294.07587      2.8814715      532.04203      15038.411     -2795.6258      35.898895     -2759.7269      5397.513       1.185138       13.579722      46.335006    
     17100   319.71823      3.8997966      541.07594      8554.6979     -2796.5336      36.508448     -2760.0251      5309.3057      1.2048276      7.2114897      40.730349    
     17200   363.28535      2.2953089      569.47164      22833.927     -2797.789       38.424413     -2759.3646      5251.684       1.218047       7.8803077      43.01494     
     17300   413.5762       1.9884332      472.71188      14002.456     -2790.7509      31.895665     -2758.8552      5265.5748      1.2148337      9.804645       44.481386    
     17380   427.36847      5.80035        536.23584      10060.281     -2794.9419      36.181868     -2758.7601      5295.2023      1.2080365      7.2657977      39.03649     
Loop time of 427.369 on 1 procs for 2000 steps with 523 atoms

Performance: 0.404 ns/day, 59.357 hours/ns, 4.680 timesteps/s, 2.448 katom-step/s
101.9% CPU use with 1 MPI tasks x 1 OpenMP threads

MPI task timing breakdown:
Section |  min time  |  avg time  |  max time  |%varavg| %total
---------------------------------------------------------------
Pair    | 423.75     | 423.75     | 423.75     |   0.0 | 99.15
Neigh   | 0.54554    | 0.54554    | 0.54554    |   0.0 |  0.13
Comm    | 0.67715    | 0.67715    | 0.67715    |   0.0 |  0.16
Output  | 0.050929   | 0.050929   | 0.050929   |   0.0 |  0.01
Modify  | 1.9015     | 1.9015     | 1.9015     |   0.0 |  0.44
Other   |            | 0.4454     |            |       |  0.10

Nlocal:            523 ave         523 max         523 min
Histogram: 1 0 0 0 0 0 0 0 0 0
Nghost:           2550 ave        2550 max        2550 min
Histogram: 1 0 0 0 0 0 0 0 0 0
Neighs:              0 ave           0 max           0 min
Histogram: 1 0 0 0 0 0 0 0 0 0
FullNghs:        73744 ave       73744 max       73744 min
Histogram: 1 0 0 0 0 0 0 0 0 0

Total # of neighbors = 73744
Ave neighs/atom = 141.00191
Neighbor list builds = 601
Dangerous builds = 0
Step 4b: Cool to 300K under 15000 bar pressure (5000 steps)
Setting up Verlet run ...
  Unit style    : metal
  Current step  : 17380
  Time step     : 0.001
Per MPI rank memory allocation (min/avg/max) = 146.3 | 146.3 | 146.3 Mbytes
   Step          CPU           S/CPU           Temp          Press          PotEng         KinEng         TotEng         Volume        Density          Fmax          Fnorm     
     17380   0              0              536.23584      10137.922     -2794.9419      36.181868     -2758.7601      5295.2023      1.2080365      7.2656974      39.158034    
     17400   3.0919104      6.4684841      487.67045      22570.714     -2790.0667      32.904977     -2757.1617      5294.6164      1.2081702      19.846452      53.57843     
     17500   18.654091      6.4258347      510.53817      11924.874     -2790.5267      34.447948     -2756.0788      5329.6884      1.2002199      15.5999        48.786426    
     17600   70.030745      1.9464093      577.62716      14818.957     -2795.759       38.974697     -2756.7843      5401.3325      1.1842999      8.6525924      45.893359    
     17700   195.60306      0.79635386     503.8896       12860.813     -2793.3396      33.999344     -2759.3402      5459.476       1.1716871      9.2736681      44.045665    
     17800   370.21728      0.57269106     567.77944      10602.275     -2798.9973      38.310234     -2760.6871      5486.9163      1.1658275      10.829896      48.999576    
     17900   519.38068      0.67040573     533.81024      15899.155     -2798.1705      36.018203     -2762.1523      5443.7503      1.1750719      11.798338      45.089258    
     18000   605.68587      1.1586789      533.16628      11393.408     -2799.9262      35.974752     -2763.9515      5383.137       1.188303       9.1657917      45.21953     
     18100   648.73312      2.3230288      492.17082      14617.496     -2796.0466      33.208633     -2762.838       5324.3013      1.2014342      17.739028      52.29721     
     18200   671.57455      4.3780096      473.29322      9069.6495     -2794.7681      31.93489      -2762.8332      5289.4255      1.2093559      8.7425892      46.635681    
     18300   694.41975      4.3772862      479.15549      15061.417     -2797.2795      32.330439     -2764.949       5287.03        1.2099038      7.9417935      44.0839      
     18400   717.10037      4.4090517      482.60051      16956.371     -2796.876       32.562888     -2764.3131      5307.8347      1.2051615      12.586268      47.139885    
     18500   765.68455      2.0582831      502.08514      17880.354     -2800.1283      33.87759      -2766.2508      5367.2948      1.1918104      10.140215      44.013694    
     18600   855.23057      1.1167442      479.62874      10959.21      -2800.7433      32.362372     -2768.3809      5418.3717      1.1805757      6.4885863      40.231755    
     18700   951.11904      1.0428783      532.24888      8057.1296     -2803.4345      35.912852     -2767.5216      5429.4453      1.1781678      9.4172436      42.008971    
     18800   1038.6778      1.1420895      481.15228      10644.57      -2799.5868      32.465171     -2767.1216      5407.828       1.1828774      9.8866073      43.864247    
     18900   1123.7228      1.1758485      503.08044      8210.462      -2800.9523      33.944747     -2767.0076      5350.3751      1.1955793      14.296575      43.249269    
     19000   1157.719       2.9415086      501.2975       13555.794     -2800.6684      33.824445     -2766.844       5284.4115      1.2105034      7.2387623      40.562135    
     19100   1180.7099      4.3495392      441.82145      10767.043     -2797.9863      29.81137      -2768.1749      5266.1058      1.2147112      12.127102      40.577237    
     19200   1203.3945      4.4082861      437.37387      16339.541     -2799.2769      29.511275     -2769.7656      5269.9867      1.2138167      13.983084      46.860832    
     19300   1225.8936      4.4446177      442.68949      11122.316     -2799.87        29.86994      -2770.0001      5286.02        1.210135       13.622955      44.104693    
     19400   1248.9005      4.3465139      442.05275      9060.2063     -2802.6348      29.826977     -2772.8078      5294.9554      1.2080929      11.293711      45.111722    
     19500   1271.903       4.3473577      530.60918      19904.125     -2808.8604      35.802215     -2773.0582      5295.0259      1.2080768      17.375738      48.408329    
     19600   1294.5595      4.41374        443.65354      16739.171     -2802.5782      29.934988     -2772.6433      5305.3558      1.2057246      11.037474      44.340106    
     19700   1317.1754      4.4216844      457.43728      24081.387     -2801.8212      30.86503      -2770.9562      5304.5896      1.2058987      22.648236      54.781891    
     19800   1339.9832      4.3844499      452.74533      9961.7458     -2801.1143      30.548446     -2770.5659      5308.2848      1.2050593      19.829025      49.357763    
     19900   1362.6428      4.4131461      435.8465       10742.126     -2794.8866      29.408218     -2765.4784      5303.9427      1.2060458      8.4700989      39.202872    
     20000   1385.2548      4.4224327      412.16481      12916.348     -2790.4621      27.810324     -2762.6518      5285.416       1.2102733      18.021949      49.562693    
     20100   1408.3214      4.3352709      469.15683      18549.167     -2795.563       31.655792     -2763.9072      5274.8772      1.2126913      7.5037614      41.295139    
     20200   1434.8816      3.7650384      470.28662      19196.404     -2798.2333      31.732023     -2766.5012      5278.9609      1.2117532      10.140252      43.240032    
     20300   1457.9493      4.3350572      436.23914      17328.949     -2797.4949      29.434711     -2768.0602      5288.6061      1.2095433      17.100618      54.051492    
     20400   1480.399       4.4544034      391.57627      7208.5061     -2796.3897      26.421137     -2769.9686      5296.3412      1.2077768      15.265912      45.073454    
     20500   1503.0299      4.4187456      440.33867      17117.182     -2801.2066      29.711321     -2771.4953      5293.6725      1.2083856      10.548736      40.590828    
     20600   1525.9954      4.3543587      394.85096      19784.833     -2799.1112      26.642093     -2772.4691      5285.2979      1.2103003      10.130368      48.090067    
     20700   1548.376       4.4681453      371.59474      13190.211     -2798.4848      25.072908     -2773.4119      5283.5677      1.2106967      12.420456      42.963157    
     20800   1571.2209      4.3773371      404.13524      14275.549     -2801.4776      27.268538     -2774.209       5285.1581      1.2103323      12.169866      44.665462    
     20900   1593.6042      4.4676319      413.8042       17426.579     -2802.1269      27.92094      -2774.2059      5272.5182      1.2132339      18.823279      46.371988    
     21000   1616.5813      4.3521445      426.6126       18099.062     -2804.2002      28.785171     -2775.4151      5263.7454      1.2152559      8.0487442      40.362594    
     21100   1672.0652      1.8023266      360.87764      16408.659     -2800.2059      24.349784     -2775.8561      5248.3477      1.2188213      10.807481      47.733618    
     21200   1712.85        2.4518916      375.23134      19566.845     -2802.0335      25.318283     -2776.7152      5240.5645      1.2206314      8.4332707      41.775363    
     21300   1779.1092      1.5092242      384.65772      15206.965     -2803.8607      25.954316     -2777.9064      5241.1735      1.2204896      9.324347       41.929393    
     21400   1853.1363      1.3508578      362.78866      13646.749     -2802.5328      24.478728     -2778.0541      5247.1593      1.2190973      16.214287      44.683502    
     21500   1901.8282      2.05373        372.16236      14388.698     -2801.1301      25.111207     -2776.0189      5243.6529      1.2199125      8.8329491      40.515042    
     21600   1968.5179      1.4994804      392.267        15565.716     -2800.5732      26.467743     -2774.1055      5232.446       1.2225253      25.159268      52.72675     
     21700   2046.9062      1.2757017      365.81645      16560.685     -2799.2054      24.683024     -2774.5224      5224.4005      1.224408       10.73411       40.36199     
     21800   2126.1625      1.2617274      406.68635      12975.476     -2802.1953      27.440672     -2774.7546      5232.8171      1.2224386      6.9678631      37.885321    
     21900   2203.7116      1.2895075      338.72171      11120.148     -2799.1412      22.85484      -2776.2864      5244.7698      1.2196527      6.662045       35.260143    
     22000   2275.6558      1.3899659      333.55639      12957.099     -2797.7208      22.506316     -2775.2145      5239.279       1.2209309      7.1462328      39.408029    
     22100   2352.2641      1.3053408      352.71733      19700.869     -2799.5538      23.799177     -2775.7546      5230.3873      1.2230065      11.150861      43.413546    
     22200   2429.0335      1.3026035      327.06106      13732.071     -2798.7751      22.068051     -2776.707       5235.1298      1.2218986      9.4725751      38.438637    
     22300   2502.7665      1.3562438      331.80184      13504.617     -2795.4517      22.38793      -2773.0638      5251.7895      1.2180225      7.8671873      39.091621    
     22380   2540.0628      2.1449851      388.70464      12544.793     -2800.6542      26.227378     -2774.4268      5267.0268      1.2144988      7.611435       36.338709    
Loop time of 2540.06 on 1 procs for 5000 steps with 523 atoms

Performance: 0.170 ns/day, 141.115 hours/ns, 1.968 timesteps/s, 1.030 katom-step/s
103.6% CPU use with 1 MPI tasks x 1 OpenMP threads

MPI task timing breakdown:
Section |  min time  |  avg time  |  max time  |%varavg| %total
---------------------------------------------------------------
Pair    | 2527.9     | 2527.9     | 2527.9     |   0.0 | 99.52
Neigh   | 1.9112     | 1.9112     | 1.9112     |   0.0 |  0.08
Comm    | 2.0699     | 2.0699     | 2.0699     |   0.0 |  0.08
Output  | 0.13742    | 0.13742    | 0.13742    |   0.0 |  0.01
Modify  | 6.7145     | 6.7145     | 6.7145     |   0.0 |  0.26
Other   |            | 1.286      |            |       |  0.05

Nlocal:            523 ave         523 max         523 min
Histogram: 1 0 0 0 0 0 0 0 0 0
Nghost:           2557 ave        2557 max        2557 min
Histogram: 1 0 0 0 0 0 0 0 0 0
Neighs:              0 ave           0 max           0 min
Histogram: 1 0 0 0 0 0 0 0 0 0
FullNghs:        74086 ave       74086 max       74086 min
Histogram: 1 0 0 0 0 0 0 0 0 0

Total # of neighbors = 74086
Ave neighs/atom = 141.65583
Neighbor list builds = 1413
Dangerous builds = 0
Step 4c: Hold at 300K under 15000 bar - LOCK STRUCTURE (2000 steps)
Setting up Verlet run ...
  Unit style    : metal
  Current step  : 22380
  Time step     : 0.001
Per MPI rank memory allocation (min/avg/max) = 146.5 | 146.5 | 146.5 Mbytes
   Step          CPU           S/CPU           Temp          Press          PotEng         KinEng         TotEng         Volume        Density          Fmax          Fnorm     
     22380   0              0              388.70464      12452.596     -2800.6542      26.227378     -2774.4268      5267.0268      1.2144988      7.6201912      36.459184    
     22400   4.6040993      4.3439511      381.05641      14674.442     -2799.4531      25.711323     -2773.7418      5266.1775      1.2146947      8.5135249      37.946503    
     22500   28.740585      4.1431052      418.46444      11879.468     -2797.2154      28.235384     -2768.98        5252.1031      1.2179498      10.514968      37.0336      
     22600   56.394344      3.6161449      376.76595      16384.821     -2793.3098      25.421829     -2767.888       5243.7068      1.2199         11.644819      42.803165    
     22700   113.70244      1.7449542      380.22969      16572.018     -2789.6876      25.65554      -2764.032       5260.7966      1.2159371      10.044377      40.543697    
     22800   136.38396      4.4088745      329.06535      11719.905     -2788.8097      22.203288     -2766.6064      5300.4095      1.2068497      18.305204      44.905878    
     22900   159.09464      4.4032152      411.06368      14885.136     -2797.4802      27.736027     -2769.7442      5334.7091      1.1990903      8.2999773      35.217395    
     23000   184.93844      3.8693995      307.7497       16209.476     -2790.0237      20.76504      -2769.2587      5334.2429      1.1991951      11.909126      46.193507    
     23100   207.31346      4.4692715      317.07608      6353.3524     -2790.6571      21.394327     -2769.2628      5319.238       1.2025778      7.1216686      30.457586    
     23200   229.97407      4.4129437      275.78701      15625.71      -2788.4199      18.608396     -2769.8115      5272.5614      1.2132239      17.279559      46.890484    
     23300   272.83625      2.3330588      315.45484      18366.618     -2792.9121      21.284935     -2771.6272      5261.7806      1.2157097      16.780897      45.215597    
     23400   303.72568      3.2373533      300.24824      16019.148     -2793.5631      20.258889     -2773.3042      5303.5097      1.2061443      10.411201      36.954891    
     23500   350.0935       2.1566684      326.76671      18179.852     -2797.7846      22.04819      -2775.7364      5384.4348      1.1880166      8.407013       40.034395    
     23600   439.56145      1.1177186      305.95714      7503.2337     -2799.7725      20.64409      -2779.1284      5427.9545      1.1784914      6.4927777      33.000221    
     23700   526.26845      1.1533095      314.09237      16513.845     -2799.4336      21.193004     -2778.2406      5391.8211      1.1863891      13.239583      35.882841    
     23800   583.5433       1.745967       335.09732      15642.783     -2798.1078      22.610288     -2775.4975      5314.593       1.2036289      10.775434      38.493265    
     23900   607.01705      4.260078       278.36767      13981.367     -2793.5308      18.782524     -2774.7482      5252.4217      1.2178759      9.0939199      34.591907    
     24000   664.18438      1.7492508      283.95402      14381.054     -2795.8681      19.159456     -2776.7086      5245.3871      1.2195092      6.494423       31.625545    
     24100   719.49549      1.807955       256.94219      21383.638     -2796.1541      17.336865     -2778.8173      5294.3242      1.2082369      14.743428      45.727848    
     24200   793.16822      1.3573544      1465.9683      23092.236     -2777.0326      98.914442     -2678.1182      5533.836       1.1559428      13.047072      47.552741    
     24300   919.11353      0.79399543     9234.1161      98975.216     -2742.1886      623.06087     -2119.1278      6657.4331      0.96085048     19.165532      52.686146    
     24380   939.99852      3.8305009      2990.9111      20539.814     -2746.7904      201.80812     -2544.9822      8550.4304      0.74812582     4.704446       23.689566    
Loop time of 939.999 on 1 procs for 2000 steps with 523 atoms

Performance: 0.184 ns/day, 130.555 hours/ns, 2.128 timesteps/s, 1.113 katom-step/s
103.9% CPU use with 1 MPI tasks x 1 OpenMP threads

MPI task timing breakdown:
Section |  min time  |  avg time  |  max time  |%varavg| %total
---------------------------------------------------------------
Pair    | 934.71     | 934.71     | 934.71     |   0.0 | 99.44
Neigh   | 1.0061     | 1.0061     | 1.0061     |   0.0 |  0.11
Comm    | 0.99305    | 0.99305    | 0.99305    |   0.0 |  0.11
Output  | 0.052647   | 0.052647   | 0.052647   |   0.0 |  0.01
Modify  | 2.6805     | 2.6805     | 2.6805     |   0.0 |  0.29
Other   |            | 0.5519     |            |       |  0.06

Nlocal:            523 ave         523 max         523 min
Histogram: 1 0 0 0 0 0 0 0 0 0
Nghost:           1940 ave        1940 max        1940 min
Histogram: 1 0 0 0 0 0 0 0 0 0
Neighs:              0 ave           0 max           0 min
Histogram: 1 0 0 0 0 0 0 0 0 0
FullNghs:        45650 ave       45650 max       45650 min
Histogram: 1 0 0 0 0 0 0 0 0 0

Total # of neighbors = 45650
Ave neighs/atom = 87.284895
Neighbor list builds = 751
Dangerous builds = 250
Density after cooling at 15000 bar: 0.748125824256206 g/cm^3
Step 5: Scaling box from current high density to exactly 1.10 g/cm^3 (5000 steps)
Current density: 0.748125824256206 g/cm^3
Scaling factor to reach 1.10: 0.879415238959782
Setting up Verlet run ...
  Unit style    : metal
  Current step  : 24380
  Time step     : 0.001
Per MPI rank memory allocation (min/avg/max) = 143.9 | 143.9 | 143.9 Mbytes
   Step          CPU           S/CPU           Temp          Press          PotEng         KinEng         TotEng         Volume        Density          Fmax          Fnorm     
     24380   0              0              2990.9111      20539.779     -2746.7904      201.80812     -2544.9822      8550.4304      0.74812582     4.7043969      23.689734    
     24400   3.8532227      5.190455       2427.4405      11807.33      -2751.4675      163.78863     -2587.6788      8538.0637      0.74920942     5.4684746      23.401835    
     24500   22.967654      5.2316492      3872.5669      26773.109     -2758.1068      261.29679     -2496.81        8476.4093      0.75465891     8.8929282      33.524459    
     24600   42.2775        5.1787052      13954.864      116121.72     -2736.7196      941.58764     -1795.132       8415.0524      0.76016137     9.1116911      36.238433    
ERROR: Lost atoms: original 523 current 522
For more information see https://docs.lammps.org/err0008 (src/thermo.cpp:527)
GPU information: NVIDIA RTX A6000, 8, 6, 45, 84, 300, 2100

 
[SUCCESS] Workflow completed at: 2026/04/10 周五 22:53:41.07 
Final density should be checked in melt_quench_log.lammps 
