523
 Atoms. Timestep: 100287
Si 3.88899 6.68199 4.80775
O 4.52701 5.20069 4.68889
C 4.08851 7.38228 6.46057
H 21.7408 2.01423 11.5846
H 8.09259 19.3468 2.11368
H 3.49896 8.30458 6.48456
C 20.4326 11.398 15.3863
H 13.1641 -0.125939 5.87531
H 7.40046 15.843 4.39095
H 20.9736 10.4663 15.6052
Si 4.60153 3.80172 3.73179
O 3.94165 2.55365 4.66873
C 3.28394 4.08979 2.40594
H 9.98636 11.1396 9.65283
H 17.3437 12.9487 6.46848
H 3.39609 5.12221 2.03975
C 3.45038 3.19044 1.178
H 12.6554 8.4844 7.00391
H 3.26916 13.2673 19.6765
H 9.55023 3.50307 2.69046
Si 19.4674 10.8585 1.51083
O -0.288266 3.2322 0.510852
C 14.6966 1.63612 1.9676
H 11.7954 13.4201 20.2832
H -0.296567 19.097 14.1817
H 16.7057 16.2233 8.82387
C 4.04051 8.79646 15.3285
H 9.82938 6.75911 12.2191
H 4.6045 9.67524 14.9974
H 2.53988 10.4224 3.33192
Si 21.5167 3.30404 1.43609
O 17.9682 5.79774 13.0206
C 9.32949 16.2777 3.53586
H 7.61754 0.358582 14.863
H 3.86718 12.8025 19.6902
H 20.4053 19.096 11.2153
C 19.4432 0.988767 1.41934
H 10.5822 4.66295 7.53413
H 17.6714 1.73414 0.692723
H 10.451 9.49907 10.1882
Si 8.91785 8.06265 2.35025
O 8.52464 6.69372 3.39771
C 8.27907 19.0309 9.09211
H 14.5664 7.94848 10.6769
H 12.6256 10.0779 4.85944
H 22.1391 1.26437 15.5497
C 20.1012 2.14204 1.30222
H 9.12408 2.34593 12.7912
H 13.4786 3.53002 9.06322
H 6.54994 2.38665 2.88987
Si 18.1757 4.35456 12.2191
C 8.43237 15.9829 4.77217
H 9.44078 12.3074 14.1887
H 12.6281 0.606857 2.36277
H 7.09151 3.73614 3.95201
C 13.4301 9.35728 5.07407
H 4.3626 12.191 9.11287
H 13.7715 14.0732 12.3845
H 19.0345 4.12331 1.07046
Si 8.46679 1.49267 20.0827
O 9.7616 1.18144 0.0501625
C 16.6321 1.38892 15.6824
H 17.5758 0.921813 15.3675
H 8.4142 7.70636 1.00091
H 0.47297 7.43866 15.897
C 7.27577 2.76256 20.4559
H 7.36428 3.16354 0.404934
H 15.8493 3.49538 11.8565
H 12.3994 7.44087 14.3272
Si 11.1954 0.409936 0.284748
O 10.9582 18.9919 0.940961
C 12.1362 1.39457 1.71281
H 22.1249 2.96144 4.90287
H 16.2779 2.03647 14.8655
H 16.2068 6.54086 5.74756
C 12.0524 0.191448 19.7336
H 11.4603 10.7187 19.7184
H 16.9667 0.425525 11.843
H 11.3858 -0.157379 18.9443
Si 9.76325 18.0108 1.53099
O 8.16277 18.5885 1.49738
C 10.0333 17.5895 3.35304
H 5.31341 17.562 0.0946496
H 4.29132 10.9145 1.15525
H 2.48244 5.94716 9.55462
C 15.9702 1.3078 9.42394
H 18.5426 8.20736 13.4391
H 15.2445 1.16987 10.2518
H 21.6927 14.8863 13.8189
Si 6.87932 13.0115 2.99515
O 10.249 13.7205 2.16447
C 7.56674 14.4058 1.90974
H 10.418 14.0557 17.4939
H 4.74035 7.99119 15.5789
H 14.9619 17.6066 2.09377
C 5.75122 9.83752 2.16857
H 7.68184 17.1274 19.3609
H 1.34515 12.8518 9.62608
Si 9.27039 15.1154 2.09018
O 8.6712 12.2592 0.350903
C 9.80907 16.2771 0.750523
H 9.16121 16.2095 -0.134889
H 2.86248 12.5315 15.3893
H 10.8374 16.0191 0.448107
C 8.46086 16.9478 5.94652
H -0.190816 10.2383 13.2189
H 21.7488 12.7323 16.5135
H 8.81083 16.5057 6.7846
Si 9.5497 12.2145 1.81332
C 13.0538 6.89477 5.70077
H 7.35116 18.6422 4.93929
H 13.3075 17.6572 4.86237
H 5.24941 11.0496 8.04812
C 2.25653 1.70837 9.66927
H 17.1734 14.6043 16.135
H 0.956984 15.7435 13.4613
H -0.187295 14.1042 13.5462
Si 12.1167 7.078 1.80011
O 12.479 4.80783 3.80178
C 8.27559 11.5993 3.09888
H 17.2939 13.9362 9.90962
H 21.698 13.8596 7.72849
H 8.76644 11.6946 4.0774
C 20.2654 12.3582 2.40909
H 12.6076 16.9473 6.44363
H 21.1543 12.8038 1.93363
H 1.80946 5.87091 4.63033
Si 13.6543 6.01775 4.08608
O 16.5755 5.80975 2.49248
C 15.1282 5.00528 4.69045
H 18.7346 10.8251 11.8957
H 12.8019 3.9097 20.0619
H 5.04859 13.062 1.30131
C 5.31632 10.9974 1.56307
H 11.902 16.8211 9.07459
H 2.7493 5.2651 9.72772
H 6.71875 5.85707 -0.0991557
Si 2.01522 8.76535 1.42406
O 3.47183 8.03359 1.34586
C 5.6707 6.60866 18.4346
H 10.6703 11.2686 1.50714
H 12.2996 3.77284 5.27715
H 6.96512 3.46167 18.4333
C 5.30369 11.6502 8.9623
H 12.713 6.21485 6.49647
H 5.47231 11.0169 9.84019
H 12.3321 19.1764 14.818
Si 4.39107 8.72399 2.546
O 2.80466 9.64374 2.87741
C 5.88451 12.3537 1.47325
H 20.1539 4.33076 10.7807
H 6.13615 12.3588 8.88609
C 1.23835 4.79564 19.7093
H 2.19371 4.58526 19.7419
H 1.76963 5.35472 17.741
H -0.403855 16.0897 19.9571
Si 3.54485 1.81339 15.7598
O 4.64967 7.7281 3.77658
C 1.23599 0.555967 17.0539
H 20.9422 -0.0381553 18.5844
H 0.784007 -0.264792 17.6257
H 2.84072 11.8783 15.7515
C 0.37135 8.04696 1.86017
H 7.80781 17.5926 19.9332
H 18.5896 11.518 12.1902
H 0.603953 2.07163 13.4415
Si 7.45272 9.82229 3.05631
C 17.1688 0.0765789 2.07731
H 5.6364 19.2373 16.3448
H 14.5862 1.36031 3.03222
H 17.5979 19.1941 2.34132
C 14.8143 16.5364 20.3384
H 16.075 13.3707 0.587615
H 19.8853 1.57131 13.1811
H 20.6986 13.7588 9.20497
Si -0.542401 8.20333 20.1458
O 4.2329 0.467773 12.2322
C 0.114943 8.08145 16.704
H 15.614 0.486878 19.8751
H 0.885963 1.98824 19.4603
H 13.4891 4.55167 17.0864
C 0.0818088 9.87591 -0.296909
H 8.7398 7.22187 7.63757
H 11.6553 2.88113 14.4069
H 19.0895 3.7615 16.399
Si 4.28019 18.9887 11.6971
O 9.3382 -0.179196 8.62161
C 1.90504 1.74029 11.161
H 20.5235 -0.34333 8.91693
H 13.7402 3.89576 16.8564
H 2.90576 2.52009 9.33779
C 8.5639 -0.0950728 15.1402
H 13.3659 13.4759 18.4031
H 8.50514 19.5573 16.1458
H 8.82447 19.1795 14.4346
Si 3.2997 1.77257 12.4073
O 8.40515 2.3957 9.1048
C 5.27146 7.77173 18.9009
H 4.22317 3.04689 16.2378
H 11.1359 8.58511 3.47238
H 18.2431 2.35994 6.57629
C 4.35125 3.31055 12.1699
H 4.75176 3.37424 11.145
H 5.20788 3.32352 12.8573
H 11.0532 17.2874 3.68612
Si 8.65175 1.28217 7.92605
O 7.20756 0.60573 7.32052
C 9.82416 1.91228 6.61008
H 11.7092 7.19328 -0.0437135
H 10.5226 1.09797 6.33462
H 1.22685 2.60549 11.3682
C 8.46537 17.6093 9.57549
H 16.1593 12.6728 0.835992
H 7.6919 19.5176 9.6727
H 0.701904 17.1652 10.6568
Si 7.13414 19.016 7.61457
O 5.21689 18.9934 10.3679
C 7.29442 16.9497 9.72081
H 12.8558 19.5152 19.9164
H 7.28957 15.9183 10.0663
H 9.70929 14.1642 8.14806
C 12.9471 17.8227 5.87859
H 20.4132 12.0615 17.46
H 16.6899 0.411183 7.64474
H 11.2671 14.3831 5.41626
Si 5.81232 17.9637 9.23896
C 4.42749 16.9209 8.63858
H 3.54481 17.4169 8.20655
H 4.84832 16.2858 7.84413
H 4.04055 16.2239 9.40957
C 12.4798 11.0544 19.4309
H 13.1264 10.8964 20.2461
H 10.7487 14.2421 4.8934
Si 11.7706 4.77778 2.28254
O 14.767 4.72001 0.817248
C 6.36296 3.42625 3.19404
H 6.50504 4.0255 2.27305
H 4.56469 2.01779 5.1851
H 5.30658 15.0204 5.82562
C 13.8556 6.8655 2.48116
H 9.95935 6.08729 12.4335
H 6.81589 15.2129 1.88636
H 19.8333 6.27464 3.94208
Si 13.3281 3.91931 0.809114
O 11.2357 16.1017 9.1643
C 16.6106 12.1353 6.54914
H 16.8784 11.4865 7.39119
H 16.6226 11.5616 5.61415
H 15.6186 12.5715 6.70395
C 10.4884 3.37016 2.12872
H 12.5918 1.06675 19.3579
H 10.6937 6.47078 18.2728
H 10.2632 3.33835 1.04502
Si 22.4841 9.60764 1.55183
O 18.7266 7.41738 0.393129
C 2.55398 0.753049 16.8818
H 18.1441 10.6045 2.21895
H 21.8547 3.88581 2.72357
H 2.05894 7.8657 18.5231
C 20.563 9.32121 1.54886
H 10.478 10.8626 13.9159
H 20.357 9.02013 2.60303
H 19.9078 0.167712 1.94776
Si 17.2842 8.07355 -0.136362
O 15.9885 7.10301 0.333813
C 17.235 8.17227 19.0588
H 16.7052 7.27796 18.7288
H 18.2235 8.16133 18.589
H 16.6511 9.02077 18.6707
C 12.8777 19.046 6.41619
H 17.2305 13.977 16.5548
H 2.82603 -0.179429 20.1564
H 17.1351 9.33361 0.543226
Si 15.2848 6.16794 1.51255
O 20.9568 8.17609 19.985
C 20.6886 12.4483 16.4694
H 19.3631 11.153 15.3046
H 20.1013 13.3602 16.3059
H 15.204 3.91853 4.45613
C 10.8978 8.35492 2.42156
H 5.11745 7.6387 6.72551
H 8.74906 2.69163 12.241
H 21.1498 -0.0491931 19.2797
Si 20.2747 7.85609 0.434174
C 6.09081 13.5902 4.44965
H 2.06854 3.42818 0.56208
H 18.0719 0.192424 0.138113
C 12.503 2.68113 10.8565
H 12.8872 1.66388 10.7272
H 9.71393 18.3372 4.08687
H 11.4542 2.59769 11.1763
Si 7.30342 13.1899 0.403231
O 10.4756 1.33504 3.37761
C 11.0357 1.97887 2.50265
H 3.38008 8.47126 14.522
H 4.83879 16.8548 12.8553
H 2.2521 3.95178 2.7772
C 2.59468 1.85932 14.1572
H 19.5875 13.1692 2.71045
H 5.80828 18.1799 13.5498
H 5.21191 11.8341 12.8446
Si 15.3875 -0.120841 1.38477
O 13.3316 17.4773 10.2001
C 14.4884 18.566 2.24169
H 14.4724 18.842 3.32084
H 13.4276 18.5675 1.87093
H 8.69952 14.9529 5.00601
C -0.21396 10.1012 12.1459
H 6.85644 13.5637 20.1071
H 11.9658 14.863 13.6782
H 0.803232 9.85514 11.798
Si 11.5652 16.9642 13.9745
O 11.5988 15.3813 14.445
C 13.4444 2.14594 1.41689
H 14.7503 18.6154 17.3074
H 18.1189 15.5904 4.73675
H 18.2645 14.8726 4.56618
C 16.374 0.213353 8.69403
H 6.47125 0.544977 1.11091
H 19.1263 11.2315 0.0922706
H 15.873 2.20238 8.82963
Si 4.99752 2.73523 20.0123
O 12.3838 3.18378 6.13755
C 22.4433 3.40439 5.84604
H 21.8218 2.97044 6.65035
H 22.2469 4.48287 5.78567
H 18.7425 16.0257 13.0076
C 7.7348 6.85698 7.39293
H 0.592688 9.06176 16.5429
H 7.06423 7.73873 7.39405
H 7.3626 6.21797 8.21212
Si 11.0694 3.26319 7.17283
O 20.5604 6.61114 13.1205
C 16.1098 5.48328 5.47694
H 0.197384 18.5574 14.2237
H 13.0395 10.3253 18.5482
H 21.6504 16.5824 4.34337
C 18.1003 15.1493 12.85
H 17.9724 14.5848 13.7724
H 17.1116 15.4573 12.4992
H 18.5658 14.5186 12.0836
Si 19.0266 6.85258 13.7885
C -0.373874 4.96566 12.6982
H 8.79169 6.53894 16.6053
H 4.86147 12.4677 12.641
H 0.385798 7.53489 2.81323
C 19.1486 6.51203 15.6655
H 18.1968 6.57296 16.2231
H 10.9715 10.1029 8.57692
H 19.7816 7.31276 16.0865
Si -0.555658 4.38675 17.6796
O 0.109447 3.30679 16.6064
C 4.68363 19.3051 16.9199
H 22.1878 8.24053 16.6956
H 9.87654 7.59916 5.46271
H 5.21512 7.96653 10.1106
C 3.854 0.253317 16.7218
H 16.8665 15.786 -0.470844
H 17.879 13.5435 9.71771
H 1.01437 14.3939 10.5161
Si 0.280906 1.77883 15.9667
O 2.3058 6.66279 4.33875
C 19.9881 4.07023 11.8454
H 3.76713 4.22829 12.3397
H 9.36129 0.664613 15.135
H 16.9081 4.83054 5.84785
C 5.45505 13.932 5.71615
H 10.1787 17.4491 14.0067
H 14.7447 10.9837 14.191
H 6.05546 13.6226 6.58915
Si 9.15003 6.41412 4.91669
O 8.97171 8.42434 18.1413
C 16.1054 16.5292 20.3232
H 3.71341 6.66695 7.20244
H 15.5995 2.26443 1.83595
H 9.99224 5.21517 4.67148
C 7.75074 18.0884 5.99745
H 5.22933 6.42602 17.4288
H 9.51473 17.2412 9.63421
H 16.487 5.7364 3.45943
Si 12.0911 12.8318 18.9444
O 5.00735 8.81295 19.3361
C 7.74361 6.17426 6.06122
H 0.918183 16.8911 10.0144
H 9.15452 2.34769 9.76428
H 6.79927 5.77588 5.67182
C 10.6064 13.025 17.8463
H 9.65723 12.6539 18.3528
H 14.0222 15.8367 -0.518522
H 10.6564 12.4989 16.8331
Si 6.90884 5.46388 19.4395
O 8.40561 5.91553 19.0177
C 21.4961 6.69147 1.18206
H 2.31633 9.58773 20.0341
H 21.7766 16.7692 5.13313
H 16.8005 1.9525 16.6032
C 13.0287 8.21269 6.00425
H 4.47041 13.4661 5.80991
H 2.76044 0.764786 9.39913
H 17.1345 0.683548 2.99998
Si 9.30744 6.84087 17.9598
C 8.76953 13.6581 7.87859
H 7.9156 14.3379 8.05571
H 8.64491 12.772 8.50622
H 8.7756 13.3747 6.82365
C 6.56611 3.59994 19.4556
H 2.00353 10.9575 0.27662
H -0.338076 15.5848 1.76966
Si 17.3444 1.63165 11.0374
O 11.6015 2.75669 8.64783
C -0.108667 15.2501 13.6363
H 5.21183 16.8277 3.288
H 22.2782 9.28558 11.8845
H 13.0444 3.19805 11.6616
C 16.9115 3.29685 11.6865
H 2.6489 13.9424 9.96267
H 7.15467 12.5755 17.0749
H 19.3549 1.9799 9.5696
Si 19.6571 -0.363302 10.1169
O 18.3634 18.7392 9.72758
C 15.442 -0.323336 -0.443712
H 22.1757 15.6217 1.29008
H 20.7595 11.7403 14.3947
H 3.4789 2.09623 1.33321
C 12.5578 18.1268 15.0181
H 19.0584 17.9638 4.53752
H 12.4841 17.9179 16.0979
H 13.5941 17.8987 14.717
Si 16.7638 18.679 9.51577
O 15.7979 18.4901 10.8978
C 16.0735 17.1301 8.78092
H 15.6194 17.1982 7.7781
H 18.6929 1.76837 6.66316
H 9.28048 2.26425 5.71039
C 1.71225 13.5706 10.3346
H 5.16087 17.2109 20.4508
H 3.45893 9.0417 16.2258
H 7.03933 9.44123 4.45437
Si 14.9098 17.1814 10.2515
O 14.73 15.8669 11.2571
C 20.6888 13.6721 8.10985
H 9.62277 8.96366 18.6576
H 12.4975 19.1898 7.43037
H 20.3928 12.6595 7.81608
C 1.66288 9.89401 -0.0547943
H 19.9824 14.3908 7.67995
H 1.30379 0.844732 11.3895
Si 12.9685 16.0039 11.3714
O 12.1454 16.9387 12.4449
C 15.6394 18.2556 17.8603
H 16.4816 18.9393 17.6511
H 15.9117 17.2705 17.4374
H 20.5954 11.996 3.39525
C 11.89 15.167 10.044
H 12.5318 14.4273 9.51597
H 14.2161 10.0021 5.50642
H 11.099 14.606 10.5582
Si 15.4634 18.1617 19.7591
C 18.0514 0.804294 1.01651
H 10.6859 12.3384 12.8997
H 11.249 9.2279 1.8467
C -0.417218 17.1196 19.5091
H 21.766 17.5705 19.6553
H 0.383186 17.7134 19.9663
H -0.222292 17.0187 18.4555
Si 20.2824 2.18026 11.8791
O 22.199 3.43004 18.9676
C 19.1915 1.41256 10.5063
H 0.369746 3.18172 6.02419
H 19.6831 5.73152 4.43422
H 3.44615 19.5581 20.501
C 1.2505 1.97412 14.343
H 15.8994 0.589215 15.8212
H 18.4633 18.4316 4.47287
H 4.50566 17.1986 3.19687
Si 6.32765 0.768452 -0.480549
O 4.52726 3.6578 0.322911
C 19.7943 3.41977 0.658043
H 19.6474 3.36504 -0.372657
H 1.99464 4.97239 12.2353
H 9.25521 9.71125 8.87462
C 10.1707 10.1118 9.32412
H 11.5532 3.07607 13.6809
H 14.0185 11.1389 14.2911
H 4.73238 15.7481 18.7997
Si 0.352594 3.31756 20.0909
O 12.8771 14.4503 12.2976
C -0.459052 7.27474 0.810219
H -0.283671 15.1106 14.7424
H 8.86464 1.39712 18.6984
H 13.8058 8.99238 4.10782
C 0.813617 5.4294 18.4192
H -0.360969 10.7556 2.49165
H 1.92719 13.0905 11.3136
H 1.63336 5.7787 -0.282821
Si 0.672175 7.37758 18.3504
O 21.1813 4.96333 17.1169
C 0.994405 5.15598 12.4362
H 21.3763 6.48575 2.26555
H 14.8588 7.16796 12.2524
C 4.82054 17.9182 13.1365
H 4.50851 18.5422 17.6809
H 14.4024 8.8961 12.1779
H 4.11491 18.0986 13.9646
Si 20.0136 4.84874 15.9731
O 20.7072 4.36339 14.5347
C 6.11516 12.3249 17.3144
H 6.08948 11.727 18.2302
H 5.52462 13.2353 17.4476
H 5.70133 11.7406 16.4872
C 9.96769 11.7085 13.4387
H -0.130876 10.6067 20.137
H 9.234 11.2972 12.7313
H -0.539019 11.0216 11.6176
Si 21.0922 5.02487 13.0552
C 12.4902 3.45708 9.54946
H 12.0718 4.47796 9.65243
H 1.33802 1.76102 9.05367
H 5.14628 8.69285 9.70977
C 14.2466 7.91064 11.7234
H 2.91134 18.6082 11.2116
H 13.1894 7.63296 11.7944
H 4.26429 15.4472 18.284
