
units           metal
neighbor        1.0 bin
dimension       3
boundary        p p p
atom_style      atomic
atom_modify     map yes
newton          on

read_data       silicone_slab.lmpdat
Reading data file ...
  orthogonal box = (0 0 0) to (22 19.079963 20)
  1 by 1 by 1 MPI processor grid
  reading atoms ...
  523 atoms
  read_data CPU = 0.064 seconds

# Use dynamic model path passed from command line via -var MODEL_PT_PATH
pair_style      mliap unified ${MODEL_PT_PATH} 0
pair_style      mliap unified mace_pretained_models/mace-mh-1.model_omat_pbe.pt 0
pair_coeff      * * C H O Si

thermo          100
thermo_style    custom step cpu spcpu temp press pe ke etotal vol density fmax fnorm
thermo_modify   flush yes

# Optimized damping parameters from successful DONE2 run
variable        tdamp equal 0.5
variable        pdamp equal 10.0

# -----------------------------------------------------------------------------
# Master trajectory dump - captures entire simulation (minimization + MD)
# -----------------------------------------------------------------------------
dump            full_traj all xyz 500 full_trajectory.xyz
dump_modify     full_traj element C H O Si

dump            full_lmp all custom 500 full_trajectory.lammpstrj id type x y z
dump_modify     full_lmp sort id

# -----------------------------------------------------------------------------
# Step 1: Quick Minimization
# -----------------------------------------------------------------------------
print "Step 1: Quick Minimization"
Step 1: Quick Minimization
dump            min_xyz all xyz 100 minimize_traj.xyz
dump_modify     min_xyz element C H O Si

dump            min_lmp all custom 100 minimize_traj.lammpstrj id type x y z
dump_modify     min_lmp sort id

minimize        0.0 1.0e-8 5000 50000

CITE-CITE-CITE-CITE-CITE-CITE-CITE-CITE-CITE-CITE-CITE-CITE-CITE

Your simulation uses code contributions which should be cited:

- KOKKOS package: https://doi.org/10.1145/3731599.3767498

@inproceedings{Johansson25,
 author = {A. Johansson and E. Weinberg and C. Trott and M. McCarthy and S. Moore},
 title = {{LAMMPS-KOKKOS}: {P}erformance Portable Molecular Dynamics Across Exascale Architectures},
 year = 2025,
 booktitle = {Proceedings of the SC '25 Workshops of the International Conference for High Performance Computing,
  Networking, Storage and Analysis},
 pages = {1217–1232},
}

CITE-CITE-CITE-CITE-CITE-CITE-CITE-CITE-CITE-CITE-CITE-CITE-CITE

Neighbor list info ...
  update: every = 1 steps, delay = 0 steps, check = yes
  max neighbors/atom: 2000, page size: 100000
  master list distance cutoff = 7
  ghost atom cutoff = 7
  binsize = 7, bins = 4 3 3
  1 neighbor lists, perpetual/occasional/extra = 1 0 0
  (1) pair mliap/kk, perpetual
      attributes: full, newton on, kokkos_device
      pair build: full/bin/kk/device
      stencil: full/bin/3d
      bin: kk/device
WARNING: Fix MINIMIZE/kk not compatible with sending data in Kokkos communication (src/KOKKOS/comm_kokkos.cpp:744)
WARNING: Fix with atom-based arrays not compatible with sending data in Kokkos communication, switching to legacy exchange/border communication (src/KOKKOS/comm_kokkos.cpp:751)
WARNING: Fix MINIMIZE/kk not compatible with Kokkos sorting on device (src/KOKKOS/atom_kokkos.cpp:217)
WARNING: Fix with atom-based arrays not compatible with Kokkos sorting on device, switching to legacy host sorting (src/KOKKOS/atom_kokkos.cpp:223)
Per MPI rank memory allocation (min/avg/max) = 118.4 | 118.4 | 118.4 Mbytes
   Step          CPU           S/CPU           Temp          Press          PotEng         KinEng         TotEng         Volume        Density          Fmax          Fnorm     
         0   0              0              0              136467.4      -2358.8385      0             -2358.8385      8395.1837      0.76196043     14.044146      89.147637    
       100   34.233687      2.9210988      0              2176.3171     -2827.1139      0             -2827.1139      8395.1837      0.76196043     0.91807562     3.8612861    
       200   71.918609      2.6535813      0              2002.7908     -2836.4392      0             -2836.4392      8395.1837      0.76196043     0.22591318     1.1425061    
       284   145.29268      1.1448186      0              1616.2472     -2837.5236      0             -2837.5236      8395.1837      0.76196043     0.08533059     0.30888044   
Loop time of 145.301 on 1 procs for 284 steps with 523 atoms

97.2% CPU use with 1 MPI tasks x 1 OpenMP threads

Minimization stats:
  Stopping criterion = linesearch alpha is zero
  Energy initial, next-to-last, final = 
     -2358.83848166638  -2837.52358060371  -2837.52358060371
  Force two-norm initial, final = 89.147637 0.30888044
  Force max component initial, final = 14.044146 0.08533059
  Final line search alpha, max atom move = 1.1920929e-07 1.0172199e-08
  Iterations, force evaluations = 284 737

MPI task timing breakdown:
Section |  min time  |  avg time  |  max time  |%varavg| %total
---------------------------------------------------------------
Pair    | 144.53     | 144.53     | 144.53     |   0.0 | 99.47
Neigh   | 0.044458   | 0.044458   | 0.044458   |   0.0 |  0.03
Comm    | 0.13966    | 0.13966    | 0.13966    |   0.0 |  0.10
Output  | 0.024184   | 0.024184   | 0.024184   |   0.0 |  0.02
Modify  | 0          | 0          | 0          |   0.0 |  0.00
Other   |            | 0.5675     |            |       |  0.39

Nlocal:            523 ave         523 max         523 min
Histogram: 1 0 0 0 0 0 0 0 0 0
Nghost:           1810 ave        1810 max        1810 min
Histogram: 1 0 0 0 0 0 0 0 0 0
Neighs:              0 ave           0 max           0 min
Histogram: 1 0 0 0 0 0 0 0 0 0
FullNghs:        47752 ave       47752 max       47752 min
Histogram: 1 0 0 0 0 0 0 0 0 0

Total # of neighbors = 47752
Ave neighs/atom = 91.304015
Neighbor list builds = 26
Dangerous builds = 0

undump          min_xyz
undump          min_lmp

variable        init_density equal density
print "Initial density: ${init_density} g/cm^3"
Initial density: 0.761960427262085 g/cm^3

# -----------------------------------------------------------------------------
# Enable trajectory dumps for MD runs
# -----------------------------------------------------------------------------
dump            xyz_traj all xyz 100 trajectory.xyz
dump_modify     xyz_traj element C H O Si

dump            lmp_traj all custom 100 trajectory.lammpstrj id type x y z
dump_modify     lmp_traj sort id

dump            dcd_traj all dcd 100 trajectory.dcd

velocity        all create 300.0 12345 rot yes dist gaussian
timestep        0.001

# -----------------------------------------------------------------------------
# Step 2: Heating 300K -> 500K
# -----------------------------------------------------------------------------
print "Step 2: Heating 300K -> 500K (600 steps)"
Step 2: Heating 300K -> 500K (600 steps)

fix             heat all npt temp 300.0 500.0 ${tdamp} iso 0.0 0.0 ${pdamp}
fix             heat all npt temp 300.0 500.0 0.5 iso 0.0 0.0 ${pdamp}
fix             heat all npt temp 300.0 500.0 0.5 iso 0.0 0.0 10
run             600
Per MPI rank memory allocation (min/avg/max) = 126.5 | 126.5 | 126.5 Mbytes
   Step          CPU           S/CPU           Temp          Press          PotEng         KinEng         TotEng         Volume        Density          Fmax          Fnorm     
       284   0              0              300            4211.2839     -2837.5236      20.242139     -2817.2814      8395.1837      0.76196043     0.79464326     1.3452689    
       300   3.1149735      5.1364724      179.60726     -1543.6166     -2829.2562      12.118784     -2817.1374      8395.2193      0.7619572      2.1955237      15.593067    
       400   22.323584      5.2059983      131.08357      1174.4147     -2825.4725      8.8447063     -2816.6278      8396.2432      0.76186428     2.7909027      23.648479    
       500   41.77376       5.1413413      178.0144      -221.05979     -2827.9697      12.011307     -2815.9584      8398.9905      0.76161508     2.8389548      21.990537    
       600   60.948172      5.2152842      172.7855       2371.0954     -2826.9887      11.658494     -2815.3302      8403.7582      0.76118299     2.579052       22.460365    
       700   80.31071       5.1646121      191.02685      923.19851     -2827.2349      12.889307     -2814.3456      8410.8564      0.7605406      2.829082       22.636748    
       800   99.85992       5.1152958      211.37406      1294.4562     -2827.3224      14.26221      -2813.0602      8420.069       0.75970848     2.2222838      23.042521    
       884   116.17497      5.14862        210.4339       2076.7423     -2826.3384      14.198774     -2812.1397      8428.8415      0.75891779     2.5440893      25.117966    
Loop time of 116.176 on 1 procs for 600 steps with 523 atoms

Performance: 0.446 ns/day, 53.785 hours/ns, 5.165 timesteps/s, 2.701 katom-step/s
97.3% CPU use with 1 MPI tasks x 1 OpenMP threads

MPI task timing breakdown:
Section |  min time  |  avg time  |  max time  |%varavg| %total
---------------------------------------------------------------
Pair    | 114.26     | 114.26     | 114.26     |   0.0 | 98.35
Neigh   | 0.061883   | 0.061883   | 0.061883   |   0.0 |  0.05
Comm    | 0.142      | 0.142      | 0.142      |   0.0 |  0.12
Output  | 0.069129   | 0.069129   | 0.069129   |   0.0 |  0.06
Modify  | 1.4134     | 1.4134     | 1.4134     |   0.0 |  1.22
Other   |            | 0.2273     |            |       |  0.20

Nlocal:            523 ave         523 max         523 min
Histogram: 1 0 0 0 0 0 0 0 0 0
Nghost:           1895 ave        1895 max        1895 min
Histogram: 1 0 0 0 0 0 0 0 0 0
Neighs:              0 ave           0 max           0 min
Histogram: 1 0 0 0 0 0 0 0 0 0
FullNghs:        47636 ave       47636 max       47636 min
Histogram: 1 0 0 0 0 0 0 0 0 0

Total # of neighbors = 47636
Ave neighs/atom = 91.082218
Neighbor list builds = 37
Dangerous builds = 0
unfix           heat

# -----------------------------------------------------------------------------
# Step 3: Compression 0 -> 5 GPa
# -----------------------------------------------------------------------------
print "Step 3: Compression 0 -> 5 GPa (2000 steps)"
Step 3: Compression 0 -> 5 GPa (2000 steps)

fix             compress all npt temp 500.0 500.0 ${tdamp} iso 0.0 50000.0 ${pdamp}
fix             compress all npt temp 500.0 500.0 0.5 iso 0.0 50000.0 ${pdamp}
fix             compress all npt temp 500.0 500.0 0.5 iso 0.0 50000.0 10
run             2000
Per MPI rank memory allocation (min/avg/max) = 129 | 129 | 129 Mbytes
   Step          CPU           S/CPU           Temp          Press          PotEng         KinEng         TotEng         Volume        Density          Fmax          Fnorm     
       884   0              0              210.4339       2080.3467     -2826.3384      14.198774     -2812.1397      8428.8415      0.75891779     2.5384144      25.117845    
       900   3.0356874      5.2706014      196.72116     -162.94435     -2825.5289      13.273523     -2812.2554      8428.8471      0.75891729     2.638257       25.319806    
      1000   22.437819      5.1540766      205.23051      2299.3229     -2825.3879      13.847681     -2811.5403      8429.0019      0.75890335     2.7116289      24.302857    
      1100   42.202147      5.0596204      218.50146      1945.41       -2825.385       14.743123     -2810.6419      8428.9754      0.75890573     2.6628596      24.124324    
      1200   61.451371      5.1950142      223.46959     -251.63987     -2824.7245      15.078341     -2809.6462      8426.8216      0.7590997      3.4318226      25.726809    
      1300   80.791814      5.1705128      262.19986      4874.8211     -2826.4225      17.69162      -2808.7309      8420.8372      0.75963917     2.9754444      26.705352    
      1400   100.23749      5.1425309      269.26078      2089.2001     -2825.6749      18.168047     -2807.5069      8410.1897      0.76060089     3.4667782      27.470227    
      1500   119.81905      5.1068458      284.69774      3702.0536     -2825.555       19.209637     -2806.3453      8392.862       0.76217121     3.0108549      27.286205    
      1600   139.31743      5.1286306      294.73635      5147.3184     -2824.4323      19.88698      -2804.5453      8367.8111      0.76445293     2.8174479      28.055769    
      1700   158.9155       5.1025434      296.38557     -69.187088     -2823.158       19.998259     -2803.1598      8334.2581      0.76753056     3.0604554      28.276269    
      1800   178.44986      5.1191851      303.36136      2018.8843     -2821.6915      20.468942     -2801.2225      8290.5317      0.77157871     3.212551       29.772468    
      1900   198.04217      5.1040434      336.50409      552.95358     -2822.2094      22.705208     -2799.5042      8235.9237      0.77669464     3.642036       29.122636    
      2000   217.56953      5.1210213      371.78192      3395.221      -2822.7282      25.085537     -2797.6426      8169.4458      0.7830149      3.5489817      29.565403    
      2100   237.20557      5.0926755      345.78123      3732.4134     -2818.69        23.331172     -2795.3588      8091.6696      0.79054115     3.8267032      32.359688    
      2200   256.90581      5.0760805      372.19345      2219.7226     -2818.0543      25.113305     -2792.941       8003.2038      0.79927963     3.6713584      32.616937    
      2300   276.87428      5.0078945      400.08188      2053.5381     -2818.0553      26.995043     -2791.0603      7905.5661      0.80915113     4.3847264      32.52689     
      2400   297.08775      4.9471975      425.18955      2134.4634     -2817.4191      28.689153     -2788.7299      7801.3469      0.81996069     4.5293494      33.339643    
      2500   317.49257      4.9008017      424.91849      7682.757      -2814.8504      28.670863     -2786.1795      7694.1475      0.83138486     4.2968421      35.606673    
      2600   338.02702      4.8698653      456.48677      2885.1214     -2814.2899      30.800895     -2783.4891      7587.2227      0.84310136     4.2653515      34.323512    
      2700   358.46223      4.8935145      507.11497      6981.7472     -2814.5928      34.216972     -2780.3759      7482.0017      0.85495808     4.0260411      34.271404    
      2800   378.99245      4.8708684      514.29189      5050.4069     -2812.2666      34.701226     -2777.5654      7379.0038      0.86689178     5.0486459      36.179607    
      2884   396.20499      4.8801639      513.91854      1186.4341     -2810.0701      34.676034     -2775.3941      7293.9446      0.87700114     3.8017992      37.067925    
Loop time of 396.207 on 1 procs for 2000 steps with 523 atoms

Performance: 0.436 ns/day, 55.029 hours/ns, 5.048 timesteps/s, 2.640 katom-step/s
97.4% CPU use with 1 MPI tasks x 1 OpenMP threads

MPI task timing breakdown:
Section |  min time  |  avg time  |  max time  |%varavg| %total
---------------------------------------------------------------
Pair    | 389.19     | 389.19     | 389.19     |   0.0 | 98.23
Neigh   | 0.34875    | 0.34875    | 0.34875    |   0.0 |  0.09
Comm    | 0.59896    | 0.59896    | 0.59896    |   0.0 |  0.15
Output  | 0.31522    | 0.31522    | 0.31522    |   0.0 |  0.08
Modify  | 4.9096     | 4.9096     | 4.9096     |   0.0 |  1.24
Other   |            | 0.8444     |            |       |  0.21

Nlocal:            523 ave         523 max         523 min
Histogram: 1 0 0 0 0 0 0 0 0 0
Nghost:           2137 ave        2137 max        2137 min
Histogram: 1 0 0 0 0 0 0 0 0 0
Neighs:              0 ave           0 max           0 min
Histogram: 1 0 0 0 0 0 0 0 0 0
FullNghs:        53990 ave       53990 max       53990 min
Histogram: 1 0 0 0 0 0 0 0 0 0

Total # of neighbors = 53990
Ave neighs/atom = 103.23136
Neighbor list builds = 209
Dangerous builds = 0
unfix           compress

# -----------------------------------------------------------------------------
# Step 4: Extended hold at 5 GPa with cooling to lock structure
# -----------------------------------------------------------------------------
print "Step 4a: Hold at 5 GPa - high temp (2000 steps)"
Step 4a: Hold at 5 GPa - high temp (2000 steps)
fix             hold1 all npt temp 500.0 500.0 ${tdamp} iso 50000.0 50000.0 ${pdamp}
fix             hold1 all npt temp 500.0 500.0 0.5 iso 50000.0 50000.0 ${pdamp}
fix             hold1 all npt temp 500.0 500.0 0.5 iso 50000.0 50000.0 10
run             2000
Per MPI rank memory allocation (min/avg/max) = 129.6 | 129.6 | 129.6 Mbytes
   Step          CPU           S/CPU           Temp          Press          PotEng         KinEng         TotEng         Volume        Density          Fmax          Fnorm     
      2884   0              0              513.91854      1157.0473     -2810.0701      34.676034     -2775.3941      7293.9446      0.87700114     3.7946058      37.275081    
      2900   3.3159853      4.8251059      525.79754      1210.7864     -2810.3374      35.477556     -2774.8598      7293.6684      0.87703436     7.1501032      38.842883    
      3000   23.953671      4.8455042      512.70856      621.16706     -2808.7997      34.594392     -2774.2053      7279.8817      0.87869529     4.5278119      36.994379    
      3100   44.529203      4.8601419      532.83931      1620.4557     -2808.7646      35.95269      -2772.8119      7245.9183      0.88281396     4.2514504      38.514254    
      3200   65.218244      4.8334765      528.676        7455.3696     -2808.1009      35.671776     -2772.4292      7192.6487      0.88935217     4.8049628      38.394129    
      3300   85.841738      4.8488387      536.28632      4674.7725     -2807.3623      36.185273     -2771.1771      7121.4643      0.89824192     5.8444172      40.216439    
      3400   106.90168      4.748352       546.37076      5774.0015     -2808.0866      36.865709     -2771.2209      7034.1829      0.90938747     5.5413093      39.366357    
      3500   128.2349       4.6875234      545.18543      12150.242     -2807.764       36.78573      -2770.9782      6935.1562      0.92237256     6.9826517      40.142893    
      3600   149.45591      4.7123117      532.3461       4735.4424     -2806.0913      35.919412     -2770.1719      6830.1982      0.93654643     6.5520936      39.729669    
      3700   170.79272      4.6867373      543.26648      4232.9408     -2805.4172      36.656251     -2768.7609      6723.5194      0.95140616     9.9463148      43.445326    
      3800   192.39607      4.6289109      552.80826      2475.3326     -2804.0958      37.300072     -2766.7957      6619.8647      0.9663034      11.374391      42.58313     
      3900   214.26429      4.5728454      577.82317      9811.6165     -2804.915       38.987922     -2765.9271      6521.8973      0.98081854     10.733167      43.097596    
      4000   236.52498      4.4922244      577.601        7046.7123     -2803.5739      38.972932     -2764.6009      6431.1818      0.99465355     10.129605      45.103817    
      4100   258.92246      4.4647874      620.64522      14265.752     -2805.3218      41.877289     -2763.4445      6346.9407      1.0078553      8.2985728      44.992931    
      4200   281.52654      4.4239812      634.32688      10498.642     -2805.0718      42.800442     -2762.2714      6267.2196      1.0206755      12.872449      45.827246    
      4300   304.11001      4.4280169      643.45329      6852.1782     -2803.6729      43.416236     -2760.2567      6190.3732      1.0333461      5.6397008      44.279969    
      4400   333.39228      3.4150359      606.65725      10253.92      -2801.1551      40.933468     -2760.2217      6115.2025      1.0460484      10.211673      44.566743    
      4500   374.06966      2.4583679      630.44601      8626.9202     -2802.2209      42.538585     -2759.6823      6041.2801      1.0588481      10.084904      48.735672    
      4600   429.46356      1.8052517      650.04894      15267.271     -2801.9809      43.86127      -2758.1196      5968.205       1.0718127      6.8936351      44.78957     
      4700   456.31714      3.7239045      627.10885      11170.515     -2800.0844      42.313414     -2757.771       5896.1332      1.0849141      6.9105153      45.91808     
      4800   499.72964      2.3034832      676.23991      15652.192     -2801.5307      45.628474     -2755.9022      5825.3664      1.0980936      7.3360201      45.64288     
      4884   536.82472      2.2644499      655.45572      11040.161     -2798.4351      44.226085     -2754.209       5767.3026      1.109149       12.744716      48.114876    
Loop time of 536.825 on 1 procs for 2000 steps with 523 atoms

Performance: 0.322 ns/day, 74.559 hours/ns, 3.726 timesteps/s, 1.948 katom-step/s
94.2% CPU use with 1 MPI tasks x 1 OpenMP threads

MPI task timing breakdown:
Section |  min time  |  avg time  |  max time  |%varavg| %total
---------------------------------------------------------------
Pair    | 529.14     | 529.14     | 529.14     |   0.0 | 98.57
Neigh   | 0.61977    | 0.61977    | 0.61977    |   0.0 |  0.12
Comm    | 0.84854    | 0.84854    | 0.84854    |   0.0 |  0.16
Output  | 0.26072    | 0.26072    | 0.26072    |   0.0 |  0.05
Modify  | 5.0456     | 5.0456     | 5.0456     |   0.0 |  0.94
Other   |            | 0.9089     |            |       |  0.17

Nlocal:            523 ave         523 max         523 min
Histogram: 1 0 0 0 0 0 0 0 0 0
Nghost:           2389 ave        2389 max        2389 min
Histogram: 1 0 0 0 0 0 0 0 0 0
Neighs:              0 ave           0 max           0 min
Histogram: 1 0 0 0 0 0 0 0 0 0
FullNghs:        67848 ave       67848 max       67848 min
Histogram: 1 0 0 0 0 0 0 0 0 0

Total # of neighbors = 67848
Ave neighs/atom = 129.72849
Neighbor list builds = 345
Dangerous builds = 0
unfix           hold1

print "Step 4b: Cool to 350K under pressure (1500 steps)"
Step 4b: Cool to 350K under pressure (1500 steps)
fix             anneal1 all npt temp 500.0 350.0 ${tdamp} iso 50000.0 50000.0 ${pdamp}
fix             anneal1 all npt temp 500.0 350.0 0.5 iso 50000.0 50000.0 ${pdamp}
fix             anneal1 all npt temp 500.0 350.0 0.5 iso 50000.0 50000.0 10
run             1500
Per MPI rank memory allocation (min/avg/max) = 137 | 137 | 137 Mbytes
   Step          CPU           S/CPU           Temp          Press          PotEng         KinEng         TotEng         Volume        Density          Fmax          Fnorm     
      4884   0              0              655.45572      10836.785     -2798.4351      44.226085     -2754.209       5767.3026      1.109149       12.746543      48.263074    
      4900   3.7780466      4.2349847      622.14007      11927.481     -2795.7962      41.978152     -2753.8181      5767.169       1.1091747      8.8022873      50.433887    
      5000   27.884616      4.1482472      648.15636      15107.89      -2795.1317      43.73357      -2751.3981      5760.4677      1.110465       12.461875      50.142218    
      5100   51.759269      4.1885422      706.24408      11271.266     -2796.2785      47.652969     -2748.6256      5743.7515      1.1136968      9.5790741      46.337973    
      5200   78.548591      3.7328306      685.70222      11761.174     -2793.8141      46.266932     -2747.5472      5716.9442      1.1189191      7.1567906      47.103495    
      5300   108.75644      3.3103979      691.64339      10846.112     -2794.0596      46.667805     -2747.3918      5681.0163      1.1259953      7.3191458      46.32304     
      5400   151.92084      2.3167232      689.17212      15079.745     -2791.7827      46.501059     -2745.2816      5636.4008      1.1349082      6.5355658      46.88033     
      5500   201.37532      2.0220609      716.56801      12861.916     -2793.642       48.349564     -2745.2925      5584.1772      1.145522       10.322662      51.14049     
      5600   227.06345      3.8928526      690.98615      21460.903     -2791.1895      46.623458     -2744.5661      5525.5476      1.1576767      8.6931838      48.94661     
      5700   263.28528      2.7607662      729.99366      19604.687     -2790.4222      49.255443     -2741.1668      5462.965       1.1709388      5.8873507      45.724953    
      5800   314.53953      1.951055       690.1607       24666.153     -2783.2727      46.567762     -2736.705       5398.5564      1.1849089      7.2071214      49.301531    
      5900   352.99996      2.6000797      698.41953      17141.537     -2785.3547      47.125017     -2738.2297      5334.2748      1.1991879      8.6632032      50.848337    
      6000   398.20605      2.2120884      708.17551      26677.082     -2786.4146      47.78329      -2738.6313      5272.1108      1.2133276      12.663448      51.241626    
      6100   444.25387      2.1716572      707.49644      22146.043     -2785.2197      47.73747      -2737.4823      5213.5657      1.2269525      9.4185423      53.225216    
      6200   485.51794      2.4234174      706.44568      27183.39      -2785.7009      47.666571     -2738.0343      5158.6865      1.2400051      13.287192      50.528433    
      6300   517.52464      3.1243426      731.46811      33461.585     -2788.7842      49.35493      -2739.4293      5107.3731      1.2524634      7.3243831      53.182862    
      6384   548.50573      2.7113318      724.2647       25166.977     -2788.7709      48.868888     -2739.902       5066.9402      1.2624577      8.5680911      49.330478    
Loop time of 548.506 on 1 procs for 1500 steps with 523 atoms

Performance: 0.236 ns/day, 101.575 hours/ns, 2.735 timesteps/s, 1.430 katom-step/s
91.9% CPU use with 1 MPI tasks x 1 OpenMP threads

MPI task timing breakdown:
Section |  min time  |  avg time  |  max time  |%varavg| %total
---------------------------------------------------------------
Pair    | 541.85     | 541.85     | 541.85     |   0.0 | 98.79
Neigh   | 0.69894    | 0.69894    | 0.69894    |   0.0 |  0.13
Comm    | 0.92733    | 0.92733    | 0.92733    |   0.0 |  0.17
Output  | 0.24808    | 0.24808    | 0.24808    |   0.0 |  0.05
Modify  | 3.9703     | 3.9703     | 3.9703     |   0.0 |  0.72
Other   |            | 0.8113     |            |       |  0.15

Nlocal:            523 ave         523 max         523 min
Histogram: 1 0 0 0 0 0 0 0 0 0
Nghost:           2599 ave        2599 max        2599 min
Histogram: 1 0 0 0 0 0 0 0 0 0
Neighs:              0 ave           0 max           0 min
Histogram: 1 0 0 0 0 0 0 0 0 0
FullNghs:        77202 ave       77202 max       77202 min
Histogram: 1 0 0 0 0 0 0 0 0 0

Total # of neighbors = 77202
Ave neighs/atom = 147.61377
Neighbor list builds = 381
Dangerous builds = 0
unfix           anneal1

print "Step 4c: Hold at 350K under 5 GPa - LOCK STRUCTURE (1500 steps)"
Step 4c: Hold at 350K under 5 GPa - LOCK STRUCTURE (1500 steps)
fix             anneal1b all npt temp 350.0 350.0 ${tdamp} iso 50000.0 50000.0 ${pdamp}
fix             anneal1b all npt temp 350.0 350.0 0.5 iso 50000.0 50000.0 ${pdamp}
fix             anneal1b all npt temp 350.0 350.0 0.5 iso 50000.0 50000.0 10
run             1500
Per MPI rank memory allocation (min/avg/max) = 149.8 | 149.8 | 149.8 Mbytes
   Step          CPU           S/CPU           Temp          Press          PotEng         KinEng         TotEng         Volume        Density          Fmax          Fnorm     
      6384   0              0              724.2647       25150.217     -2788.7709      48.868888     -2739.902       5066.9402      1.2624577      8.5676197      49.278669    
      6400   4.1399987      3.8647312      707.22481      29049.184     -2786.9139      47.719142     -2739.1948      5066.8465      1.2624811      13.238067      56.147489    
      6500   33.927382      3.3571258      689.53344      30506.788     -2785.4344      46.525439     -2738.9089      5062.2662      1.2636233      8.7330276      51.692968    
      6600   71.756155      2.6434905      747.61731      30825.805     -2786.6355      50.444578     -2736.1909      5050.7342      1.2665085      10.936864      51.364559    
      6700   118.30591      2.148239       688.88328      31954.505     -2782.8492      46.48157      -2736.3676      5032.2493      1.2711607      8.4847143      53.788775    
      6800   155.82276      2.6654691      713.0207       22877.864     -2785.2507      48.110213     -2737.1404      5007.4454      1.2774573      6.6684816      48.297995    
      6900   197.03751      2.4263131      719.34297      26496.259     -2784.3603      48.536801     -2735.8235      4976.3082      1.2854505      8.1116521      46.707151    
      7000   238.60737      2.4055895      705.23903      22950.467     -2784.543       47.585154     -2736.9578      4939.8717      1.294932       7.5529077      49.96628     
      7100   278.76205      2.4903718      718.83417      28575.914     -2785.7751      48.50247      -2737.2726      4899.079       1.3057144      6.1155446      47.657104    
      7200   324.91038      2.1669232      790.59512      40851.01      -2785.9292      53.344454     -2732.5847      4854.8092      1.3176208      17.76467       58.609931    
      7300   382.28928      1.7428016      730.70522      35441.263     -2778.4888      49.303455     -2729.1854      4808.3479      1.3303525      20.975171      69.286164    
      7400   579.21859      0.50779651     639.14422      29406.612     -2774.9338      43.125486     -2731.8083      4760.8043      1.343638       9.7266838      49.991238    
      7500   1252.1094      0.14861251     630.25324      45597.963     -2772.1196      42.525578     -2729.594       4713.4912      1.3571252      13.994364      63.060037    
      7600   1411.1301      0.62884921     686.75117      37250.256     -2778.3676      46.337708     -2732.0299      4668.497       1.370205       9.696173       49.341473    
      7700   1566.7672      0.64252011     680.83101      37579.105     -2779.9266      45.938253     -2733.9883      4626.4782      1.3826495      6.6118727      47.473296    
      7800   1659.292       1.0807915      654.32188      52123.897     -2777.2612      44.149581     -2733.1116      4587.6578      1.3943494      16.875196      61.399142    
      7884   1698.2952      2.1536685      666.70625      43695.559     -2781.3768      44.985201     -2736.3916      4557.827       1.4034753      8.6655401      52.209938    
Loop time of 1698.3 on 1 procs for 1500 steps with 523 atoms

Performance: 0.076 ns/day, 314.499 hours/ns, 0.883 timesteps/s, 461.934 atom-step/s
95.6% CPU use with 1 MPI tasks x 1 OpenMP threads

MPI task timing breakdown:
Section |  min time  |  avg time  |  max time  |%varavg| %total
---------------------------------------------------------------
Pair    | 1691.7     | 1691.7     | 1691.7     |   0.0 | 99.61
Neigh   | 0.78251    | 0.78251    | 0.78251    |   0.0 |  0.05
Comm    | 1.0266     | 1.0266     | 1.0266     |   0.0 |  0.06
Output  | 0.19201    | 0.19201    | 0.19201    |   0.0 |  0.01
Modify  | 3.8472     | 3.8472     | 3.8472     |   0.0 |  0.23
Other   |            | 0.7871     |            |       |  0.05

Nlocal:            523 ave         523 max         523 min
Histogram: 1 0 0 0 0 0 0 0 0 0
Nghost:           2773 ave        2773 max        2773 min
Histogram: 1 0 0 0 0 0 0 0 0 0
Neighs:              0 ave           0 max           0 min
Histogram: 1 0 0 0 0 0 0 0 0 0
FullNghs:        85848 ave       85848 max       85848 min
Histogram: 1 0 0 0 0 0 0 0 0 0

Total # of neighbors = 85848
Ave neighs/atom = 164.14532
Neighbor list builds = 423
Dangerous builds = 0
unfix           anneal1b

print "Step 4d: Reheat to 400K for annealing (1000 steps)"
Step 4d: Reheat to 400K for annealing (1000 steps)
fix             anneal2 all npt temp 350.0 400.0 ${tdamp} iso 50000.0 50000.0 ${pdamp}
fix             anneal2 all npt temp 350.0 400.0 0.5 iso 50000.0 50000.0 ${pdamp}
fix             anneal2 all npt temp 350.0 400.0 0.5 iso 50000.0 50000.0 10
run             1000
Per MPI rank memory allocation (min/avg/max) = 160.7 | 160.7 | 160.7 Mbytes
   Step          CPU           S/CPU           Temp          Press          PotEng         KinEng         TotEng         Volume        Density          Fmax          Fnorm     
      7884   0              0              666.70625      43821.281     -2781.3768      44.985201     -2736.3916      4557.827       1.4034753      8.3765433      52.179505    
      7900   39.147618      0.40870935     653.50722      41303.868     -2780.3754      44.094612     -2736.2808      4557.8046      1.4034822      7.8098367      49.091701    
      8000   886.75496      0.11797916     637.13438      44038.431     -2777.9367      42.989875     -2734.9468      4556.8643      1.4037718      13.649677      54.92746     
      8100   1771.0032      0.11309042     677.025        38266.127     -2780.1151      45.681447     -2734.4337      4554.1383      1.4046121      8.5617448      49.792571    
      8200   2972.6173      0.083221394    736.59823      46408.531     -2782.0633      49.701078     -2732.3622      4549.6394      1.406001       14.119225      54.5453      
      8300   4175.7836      0.083114026    695.16948      58096.914     -2778.9324      46.905724     -2732.0267      4543.7454      1.4078249      12.327326      55.957117    
      8400   5620.5135      0.069217091    646.30663      45321.04      -2778.1457      43.608761     -2734.5369      4537.1043      1.4098855      12.186625      57.369632    
      8500   7116.026       0.066866707    699.38925      40309.895     -2780.0833      47.190448     -2732.8928      4529.3825      1.4122892      14.733998      55.818522    
      8600   8364.7579      0.080081244    714.31025      47952.137     -2782.5151      48.197224     -2734.3179      4519.9917      1.4152233      9.980684       50.105194    
      8700   8392.6509      3.585135       605.22305      34499.225     -2775.773       40.836696     -2734.9363      4509.3748      1.4185553      10.957317      57.225297    
      8800   8717.7892      0.30756139     691.46813      43979.493     -2778.7237      46.655979     -2732.0677      4497.5388      1.4222885      7.2064255      49.600798    
      8884   9487.0732      0.10919244     635.80566      36044.155     -2775.4288      42.900221     -2732.5286      4486.9834      1.4256344      13.743662      57.882257    
Loop time of 9487.07 on 1 procs for 1000 steps with 523 atoms

Performance: 0.009 ns/day, 2635.298 hours/ns, 0.105 timesteps/s, 55.128 atom-step/s
99.0% CPU use with 1 MPI tasks x 1 OpenMP threads

MPI task timing breakdown:
Section |  min time  |  avg time  |  max time  |%varavg| %total
---------------------------------------------------------------
Pair    | 9482.9     | 9482.9     | 9482.9     |   0.0 | 99.96
Neigh   | 0.47007    | 0.47007    | 0.47007    |   0.0 |  0.00
Comm    | 0.61825    | 0.61825    | 0.61825    |   0.0 |  0.01
Output  | 0.17576    | 0.17576    | 0.17576    |   0.0 |  0.00
Modify  | 2.3753     | 2.3753     | 2.3753     |   0.0 |  0.03
Other   |            | 0.4997     |            |       |  0.01

Nlocal:            523 ave         523 max         523 min
Histogram: 1 0 0 0 0 0 0 0 0 0
Nghost:           2792 ave        2792 max        2792 min
Histogram: 1 0 0 0 0 0 0 0 0 0
Neighs:              0 ave           0 max           0 min
Histogram: 1 0 0 0 0 0 0 0 0 0
FullNghs:        87174 ave       87174 max       87174 min
Histogram: 1 0 0 0 0 0 0 0 0 0

Total # of neighbors = 87174
Ave neighs/atom = 166.68069
Neighbor list builds = 262
Dangerous builds = 0
unfix           anneal2

print "Step 4e: Final hold at 5 GPa, 400K (2000 steps)"
Step 4e: Final hold at 5 GPa, 400K (2000 steps)
fix             hold2 all npt temp 400.0 400.0 ${tdamp} iso 50000.0 50000.0 ${pdamp}
fix             hold2 all npt temp 400.0 400.0 0.5 iso 50000.0 50000.0 ${pdamp}
fix             hold2 all npt temp 400.0 400.0 0.5 iso 50000.0 50000.0 10
run             2000
Per MPI rank memory allocation (min/avg/max) = 162.9 | 162.9 | 162.9 Mbytes
   Step          CPU           S/CPU           Temp          Press          PotEng         KinEng         TotEng         Volume        Density          Fmax          Fnorm     
      8884   0              0              635.80566      36040.785     -2775.4288      42.900221     -2732.5286      4486.9834      1.4256344      13.746573      57.895387    
      8900   213.03306      0.07510571     676.22478      46482.968     -2778.4015      45.627453     -2732.774       4486.9567      1.4256429      8.7352557      51.245322    
      9000   1673.6464      0.068464388    692.32327      47932.519     -2774.759       46.713679     -2728.0453      4486.2049      1.4258818      17.058417      60.521252    
      9100   2971.5785      0.077045633    757.68188      42989.059     -2778.1238      51.123672     -2727.0001      4484.292       1.42649        8.5287175      51.778808    
      9200   4281.0853      0.076364631    779.08852      42700.324     -2777.1054      52.56806      -2724.5373      4481.6598      1.4273278      7.6821935      48.289234    
      9300   5755.9295      0.067803769    741.5001       39407.64      -2775.2734      50.031826     -2725.2416      4478.3386      1.4283864      11.388685      54.80264     
      9400   7316.2406      0.064089786    702.87818      39580.493     -2770.896       47.425859     -2723.4702      4474.4792      1.4296184      16.999645      54.996278    
      9500   8873.8245      0.064201996    754.66458      52850.135     -2775.6767      50.920083     -2724.7567      4469.9541      1.4310657      11.58513       57.132375    
      9600   10476.413      0.062399041    690.31492      50241.065     -2771.8704      46.578168     -2725.2923      4464.9812      1.4326595      8.7049612      56.720688    
      9700   12097.379      0.06169162     717.1727       40617.21      -2774.112       48.390364     -2725.7216      4459.1874      1.434521       10.423397      51.014932    
      9800   13725.051      0.06143742     742.58413      52676.876     -2776.176       50.10497      -2726.0711      4453.1657      1.4364608      20.131866      60.395696    
      9900   15332.526      0.062209387    713.36116      47245.82      -2772.4498      48.133185     -2724.3166      4446.9282      1.4384756      10.520675      53.443122    
     10000   16941.566      0.06214886     749.67652      57000.983     -2773.7045      50.58352      -2723.1209      4440.1528      1.4406706      7.9255792      52.484798    
     10100   18343.288      0.07134084     711.97677      61265.022     -2770.2751      48.039775     -2722.2353      4433.1968      1.4429312      15.579606      62.750648    
     10200   18371.071      3.5992607      711.3011       53198.61      -2769.4929      47.994185     -2721.4987      4426.0903      1.4452479      12.222323      56.309344    
     10300   18399.645      3.4996881      709.22875      48821.516     -2772.062       47.854356     -2724.2077      4418.9989      1.4475672      8.3184795      50.142725    
     10400   18503.317      0.96458258     724.93349      59596.315     -2773.6385      48.914014     -2724.7244      4412.0944      1.4498325      10.059607      55.239495    
     10500   19278.282      0.12903812     710.0294       45177.439     -2773.259       47.908379     -2725.3506      4405.2307      1.4520914      16.836407      54.491504    
     10600   20199.258      0.10858038     712.25155      51758.372     -2773.3051      48.058316     -2725.2468      4398.4578      1.4543274      6.7618241      44.942677    
     10700   21613.758      0.070696387    713.67009      51186.322     -2773.5368      48.15403      -2725.3828      4391.7768      1.4565398      11.341254      53.449111    
     10800   23086.978      0.067878534    669.26774      47422.132     -2766.2027      45.158035     -2721.0447      4385.258       1.458705       23.443213      60.931682    
     10884   24318.054      0.068232941    699.23406      50512.587     -2770.5659      47.179976     -2723.386       4380.0867      1.4604272      13.277666      53.510666    
Loop time of 24318.1 on 1 procs for 2000 steps with 523 atoms

Performance: 0.007 ns/day, 3377.509 hours/ns, 0.082 timesteps/s, 43.013 atom-step/s
99.3% CPU use with 1 MPI tasks x 1 OpenMP threads

MPI task timing breakdown:
Section |  min time  |  avg time  |  max time  |%varavg| %total
---------------------------------------------------------------
Pair    | 24309      | 24309      | 24309      |   0.0 | 99.96
Neigh   | 1.0557     | 1.0557     | 1.0557     |   0.0 |  0.00
Comm    | 1.3234     | 1.3234     | 1.3234     |   0.0 |  0.01
Output  | 0.37078    | 0.37078    | 0.37078    |   0.0 |  0.00
Modify  | 4.957      | 4.957      | 4.957      |   0.0 |  0.02
Other   |            | 1.046      |            |       |  0.00

Nlocal:            523 ave         523 max         523 min
Histogram: 1 0 0 0 0 0 0 0 0 0
Nghost:           2805 ave        2805 max        2805 min
Histogram: 1 0 0 0 0 0 0 0 0 0
Neighs:              0 ave           0 max           0 min
Histogram: 1 0 0 0 0 0 0 0 0 0
FullNghs:        89458 ave       89458 max       89458 min
Histogram: 1 0 0 0 0 0 0 0 0 0

Total # of neighbors = 89458
Ave neighs/atom = 171.0478
Neighbor list builds = 569
Dangerous builds = 0
unfix           hold2

variable        compressed_density equal density
print "==========================================="
===========================================
print "Density after compression: ${compressed_density} g/cm^3"
Density after compression: 1.4604272122229 g/cm^3
print "==========================================="
===========================================

# -----------------------------------------------------------------------------
# Step 5: THREE-STAGE Gradual pressure release with COOLING
# -----------------------------------------------------------------------------
print "Step 5a: Pressure release 5 GPa -> 3 GPa (2000 steps)"
Step 5a: Pressure release 5 GPa -> 3 GPa (2000 steps)
fix             release1 all npt temp 400.0 380.0 ${tdamp} iso 50000.0 30000.0 ${pdamp}
fix             release1 all npt temp 400.0 380.0 0.5 iso 50000.0 30000.0 ${pdamp}
fix             release1 all npt temp 400.0 380.0 0.5 iso 50000.0 30000.0 10
run             2000
Per MPI rank memory allocation (min/avg/max) = 166.4 | 166.4 | 166.4 Mbytes
   Step          CPU           S/CPU           Temp          Press          PotEng         KinEng         TotEng         Volume        Density          Fmax          Fnorm     
     10884   0              0              699.23406      50540.418     -2770.5659      47.179976     -2723.386       4380.0867      1.4604272      13.279412      53.532754    
     10900   234.33678      0.068277799    671.71882      45278.539     -2766.8076      45.323418     -2721.4841      4380.0824      1.4604286      11.240494      53.47315     
     11000   1668.8192      0.069711553    719.81669      55011.023     -2765.3037      48.568764     -2716.7349      4380.2408      1.4603758      22.872912      63.001845    
     11100   3139.7529      0.067984029    679.75773      46161.429     -2762.0592      45.865835     -2716.1934      4380.9403      1.4601426      12.142319      53.866943    
     11200   4580.5213      0.069407408    709.03177      47446.016     -2765.1636      47.841065     -2717.3225      4382.405       1.4596547      9.4469581      50.06473     
     11300   6045.8205      0.068245452    665.6557       36501.028     -2761.0896      44.914316     -2716.1753      4385.0477      1.458775       8.8736623      46.605985    
     11400   7498.9465      0.068817154    737.46767      50051.11      -2765.5236      49.759743     -2715.7639      4388.8061      1.4575257      8.4716674      49.878527    
     11500   8976.2926      0.06768895     688.51032      55773.422     -2761.5213      46.456405     -2715.0649      4394.078       1.455777       14.036466      56.473078    
     11600   10406.823      0.069904122    732.29374      44580.096     -2764.8877      49.410638     -2715.477       4400.7858      1.4535581      12.006543      55.429663    
     11700   11927.557      0.06575774     816.29289      56375.912     -2771.0594      55.07838      -2715.9811      4408.3412      1.4510668      14.33753       56.183731    
     11800   13477.62       0.064513499    703.73341      50577.569     -2762.469       47.483564     -2714.9854      4417.2524      1.4481395      10.721223      56.158144    
     11900   15044.345      0.063827412    787.23921      49779.488     -2769.5353      53.118018     -2716.4173      4427.4186      1.4448143      14.156198      55.074198    
     12000   16622.596      0.063361264    694.27027      38993.959     -2760.2152      46.845051     -2713.3702      4438.7486      1.4411264      13.164038      53.239024    
     12100   18157.575      0.065147488    685.17537      51342.456     -2758.5036      46.231383     -2712.2722      4451.5711      1.4369753      20.319462      67.349551    
     12200   19751.112      0.062753478    749.50314      42485.636     -2764.3243      50.571822     -2713.7525      4466.4279      1.4321955      11.808881      51.576075    
     12300   21313.786      0.063992859    805.99916      51550.206     -2767.4241      54.383822     -2713.0402      4483.4537      1.4267567      12.306541      52.956501    
     12400   22878.869      0.063894402    775.88537      42974.062     -2769.4194      52.351931     -2717.0674      4502.4068      1.4207507      8.7785283      47.659123    
     12500   24416.776      0.065023414    763.36451      44038.399     -2771.2719      51.507101     -2719.7648      4523.0679      1.4142608      7.2657056      49.758834    
     12600   25924.847      0.066309909    702.48436      40150.401     -2769.2887      47.399286     -2721.8894      4545.5948      1.4072521      9.1612653      50.907599    
     12700   27441.694      0.065926192    708.32488      46963.706     -2773.3867      47.793368     -2725.5934      4569.42        1.3999146      12.639619      55.769748    
     12800   28936.004      0.066920532    758.59423      33689.186     -2778.7667      51.185232     -2727.5815      4594.3445      1.39232        5.6512861      46.062245    
     12884   30196.149      0.066659015    705.64635      29154.372     -2777.0741      47.612638     -2729.4615      4615.9285      1.3858095      7.2836316      47.301298    
Loop time of 30196.2 on 1 procs for 2000 steps with 523 atoms

Performance: 0.006 ns/day, 4193.910 hours/ns, 0.066 timesteps/s, 34.640 atom-step/s
99.9% CPU use with 1 MPI tasks x 1 OpenMP threads

MPI task timing breakdown:
Section |  min time  |  avg time  |  max time  |%varavg| %total
---------------------------------------------------------------
Pair    | 30187      | 30187      | 30187      |   0.0 | 99.97
Neigh   | 1.0698     | 1.0698     | 1.0698     |   0.0 |  0.00
Comm    | 1.2629     | 1.2629     | 1.2629     |   0.0 |  0.00
Output  | 0.33758    | 0.33758    | 0.33758    |   0.0 |  0.00
Modify  | 5.1288     | 5.1288     | 5.1288     |   0.0 |  0.02
Other   |            | 1.061      |            |       |  0.00

Nlocal:            523 ave         523 max         523 min
Histogram: 1 0 0 0 0 0 0 0 0 0
Nghost:           2734 ave        2734 max        2734 min
Histogram: 1 0 0 0 0 0 0 0 0 0
Neighs:              0 ave           0 max           0 min
Histogram: 1 0 0 0 0 0 0 0 0 0
FullNghs:        84728 ave       84728 max       84728 min
Histogram: 1 0 0 0 0 0 0 0 0 0

Total # of neighbors = 84728
Ave neighs/atom = 162.00382
Neighbor list builds = 551
Dangerous builds = 0
unfix           release1

variable        density_3gpa equal density
print "Density at 3 GPa: ${density_3gpa} g/cm^3"
Density at 3 GPa: 1.38580953198213 g/cm^3

print "Step 5b: Pressure release 3 GPa -> 1 GPa (2000 steps)"
Step 5b: Pressure release 3 GPa -> 1 GPa (2000 steps)
fix             release2 all npt temp 380.0 350.0 ${tdamp} iso 30000.0 10000.0 ${pdamp}
fix             release2 all npt temp 380.0 350.0 0.5 iso 30000.0 10000.0 ${pdamp}
fix             release2 all npt temp 380.0 350.0 0.5 iso 30000.0 10000.0 10
run             2000
Per MPI rank memory allocation (min/avg/max) = 166.1 | 166.1 | 166.1 Mbytes
   Step          CPU           S/CPU           Temp          Press          PotEng         KinEng         TotEng         Volume        Density          Fmax          Fnorm     
     12884   0              0              705.64635      29077.252     -2777.0741      47.612638     -2729.4615      4615.9285      1.3858095      7.2705579      47.33324     
     12900   235.88163      0.067830629    683.96249      39143.37      -2774.8882      46.149545     -2728.7386      4615.9436      1.385805       10.163185      50.462174    
     13000   1705.7907      0.068031421    713.03172      36774.664     -2773.3891      48.110957     -2725.2781      4617.1934      1.3854299      12.985841      55.456793    
     13100   3187.4411      0.067492304    734.28619      32024.751     -2773.1499      49.545077     -2723.6048      4620.625       1.384401       6.513453       46.112558    
     13200   4634.967       0.06908339     792.51943      42309.51      -2766.0729      53.474294     -2712.5987      4626.3488      1.3826882      12.695495      57.463773    
     13300   6076.8848      0.069352084    825.32317      41360.371     -2769.1846      55.687687     -2713.497       4634.5429      1.3802435      15.258946      58.160468    
     13400   7522.3434      0.069182193    852.0619       48340.433     -2772.5298      57.491851     -2715.0379      4645.6193      1.3769526      13.263205      58.097434    
     13500   8952.2603      0.069934134    743.87138      33184.831     -2766.635       50.191826     -2716.4432      4659.6072      1.3728191      11.899014      49.702405    
     13600   10372.11       0.070429989    774.30902      36619.544     -2769.409       52.245568     -2717.1634      4676.4868      1.367864       8.0305467      49.134992    
     13700   11741.68       0.073015594    795.98271      39678.73      -2767.7657      53.707975     -2714.0577      4696.4716      1.3620433      11.842064      52.495879    
     13800   13094.783      0.073904218    793.75654      34948.769     -2771.1475      53.557767     -2717.5898      4719.7963      1.3553123      7.5759685      48.758858    
     13900   14477.608      0.072315741    794.89002      27142.397     -2775.6412      53.634247     -2722.007       4745.9131      1.347854       11.872237      49.32641     
     14000   15875.337      0.071544632    729.68297      22404.332     -2774.2326      49.23448      -2724.9981      4775.0555      1.3396279      9.3885024      50.999982    
     14100   17229.763      0.073831989    806.29922      37065.282     -2779.4564      54.404069     -2725.0523      4806.454       1.3308767      11.478635      51.663199    
     14200   18548.523      0.075828819    719.25999      23868.649     -2774.2749      48.531202     -2725.7437      4839.7344      1.321725       8.7262252      50.506566    
     14300   19846.934      0.077017223    713.26958      24405.385     -2777.2088      48.127006     -2729.0818      4874.7245      1.3122378      9.5178243      52.690785    
     14400   21293.607      0.069124116    696.10511      22591.545     -2778.5715      46.968854     -2731.6026      4910.9105      1.3025686      13.842232      51.425174    
     14500   22704.769      0.070863586    676.54092      31757.506     -2781.2589      45.648784     -2735.6101      4947.9999      1.2928048      11.575637      59.552613    
     14600   24138.81       0.069733015    667.37853      28377.473     -2782.1255      45.030562     -2737.0949      4985.599       1.283055       10.449156      51.938959    
     14700   25076.3        0.10666779     640.75078      29911.133     -2783.8303      43.233887     -2740.5964      5023.5427      1.2733639      10.914541      57.262234    
     14800   26309.1        0.081116177    652.97543      26560.306     -2786.3793      44.058731     -2742.3206      5061.6469      1.263778       16.19766       53.831864    
     14884   27210.398      0.09319894     634.49313      14732.998     -2788.1366      42.81166      -2745.3249      5093.127       1.2559667      7.5436187      46.125146    
Loop time of 27210.4 on 1 procs for 2000 steps with 523 atoms

Performance: 0.006 ns/day, 3779.222 hours/ns, 0.074 timesteps/s, 38.441 atom-step/s
99.9% CPU use with 1 MPI tasks x 1 OpenMP threads

MPI task timing breakdown:
Section |  min time  |  avg time  |  max time  |%varavg| %total
---------------------------------------------------------------
Pair    | 27202      | 27202      | 27202      |   0.0 | 99.97
Neigh   | 1.0177     | 1.0177     | 1.0177     |   0.0 |  0.00
Comm    | 1.2036     | 1.2036     | 1.2036     |   0.0 |  0.00
Output  | 0.33067    | 0.33067    | 0.33067    |   0.0 |  0.00
Modify  | 5.0701     | 5.0701     | 5.0701     |   0.0 |  0.02
Other   |            | 1.054      |            |       |  0.00

Nlocal:            523 ave         523 max         523 min
Histogram: 1 0 0 0 0 0 0 0 0 0
Nghost:           2533 ave        2533 max        2533 min
Histogram: 1 0 0 0 0 0 0 0 0 0
Neighs:              0 ave           0 max           0 min
Histogram: 1 0 0 0 0 0 0 0 0 0
FullNghs:        76562 ave       76562 max       76562 min
Histogram: 1 0 0 0 0 0 0 0 0 0

Total # of neighbors = 76562
Ave neighs/atom = 146.39006
Neighbor list builds = 541
Dangerous builds = 0
unfix           release2

variable        density_1gpa equal density
print "Density at 1 GPa: ${density_1gpa} g/cm^3"
Density at 1 GPa: 1.25596668434166 g/cm^3

print "Step 5c: Pressure release 1 GPa -> 0 with deep cooling (3000 steps)"
Step 5c: Pressure release 1 GPa -> 0 with deep cooling (3000 steps)
fix             release3 all npt temp 350.0 300.0 ${tdamp} iso 10000.0 0.0 ${pdamp}
fix             release3 all npt temp 350.0 300.0 0.5 iso 10000.0 0.0 ${pdamp}
fix             release3 all npt temp 350.0 300.0 0.5 iso 10000.0 0.0 10
run             3000
Per MPI rank memory allocation (min/avg/max) = 165.2 | 165.2 | 165.2 Mbytes
   Step          CPU           S/CPU           Temp          Press          PotEng         KinEng         TotEng         Volume        Density          Fmax          Fnorm     
     14884   0              0              634.49313      14755.796     -2788.1366      42.81166      -2745.3249      5093.127       1.2559667      7.5422994      46.128156    
     14900   212.62541      0.075249693    622.19404      22739.261     -2786.3624      41.981793     -2744.3807      5093.1693      1.2559563      11.352238      52.613364    
     15000   1503.0351      0.077494772    620.51482      16849.579     -2784.8022      41.86849      -2742.9337      5095.0692      1.2554879      10.837079      53.318362    
     15100   2788.6091      0.077786262    618.64317      22429.879     -2781.6728      41.742203     -2739.9306      5099.9637      1.254283       9.5380957      54.459738    
     15200   4064.4857      0.078377488    710.02882      21701.551     -2787.1424      47.90834      -2739.2341      5107.9462      1.2523229      9.3369069      47.129623    
     15300   5317.946       0.07977915     675.34348      23157.218     -2782.2598      45.567988     -2736.6918      5118.9736      1.2496251      14.590154      55.319632    
     15400   6548.7687      0.081246471    652.20257      14286.594     -2782.1346      44.006583     -2738.128       5133.1833      1.2461659      11.5561        48.965427    
     15500   7823.9847      0.078418089    673.45792      16955.57      -2780.489       45.440762     -2735.0482      5151.048       1.2418439      11.44618       55.309601    
     15600   9035.8897      0.082514714    679.73606      15774.875     -2780.2719      45.864372     -2734.4075      5172.553       1.236681       7.2208712      46.282554    
     15700   10304.536      0.078824183    695.30397      13470.741     -2779.3722      46.914798     -2732.4574      5197.2408      1.2308065      8.6254993      50.116112    
     15800   11582.496      0.07824971     676.56923      18851.533     -2778.462       45.650694     -2732.8113      5225.1692      1.2242279      14.92507       58.654414    
     15900   12836.006      0.079775995    768.22365      27435.134     -2782.4932      51.834966     -2730.6582      5256.3147      1.2169739      29.615631      64.124412    
     16000   14086.361      0.079977265    688.33242      23341.855     -2774.9793      46.444401     -2728.5349      5290.2604      1.209165       27.942583      65.480221    
     16100   15371.55       0.077809602    804.70739      16370.837     -2785.5045      54.296662     -2731.2078      5326.9774      1.2008306      6.8196558      48.340828    
     16200   16653.344      0.078015662    714.43023      4213.061      -2781.2941      48.205319     -2733.0887      5365.9429      1.1921107      10.785043      49.705233    
     16300   17963.804      0.076309068    684.11901      20218.903     -2778.4496      46.160106     -2732.2895      5406.2367      1.1832256      12.756279      57.291423    
     16400   19301.604      0.0747496      656.88782      6672.7099     -2777.8905      44.322714     -2733.5678      5447.5734      1.1742472      15.409653      53.865301    
     16500   20668.589      0.073153657    799.53504      13881.409     -2782.2875      53.947664     -2728.3399      5489.7236      1.1652313      7.8326125      46.129402    
     16600   21962.337      0.077294803    700.04191      10357.657     -2776.1467      47.234485     -2728.9122      5532.0066      1.156325       8.203484       48.818584    
     16700   23266.449      0.076680517    659.68476      7672.2672     -2776.4791      44.511435     -2731.9676      5574.0849      1.147596       9.1127542      44.445477    
     16800   24557.678      0.077445603    646.1023       9209.6108     -2777.4374      43.594975     -2733.8424      5616.0168      1.1390275      7.5967418      44.03749     
     16900   25852.863      0.077209055    607.71543      6327.362      -2777.1728      41.004867     -2736.1679      5657.6261      1.1306505      20.566575      56.351966    
     17000   27107.635      0.079695747    628.51079      17461.403     -2782.3046      42.408008     -2739.8966      5697.9096      1.122657       8.344846       49.335093    
     17100   28319.514      0.08251654     633.46501      10097.966     -2785.8128      42.742288     -2743.0706      5737.268       1.1149554      7.4917798      43.890334    
     17200   29508.706      0.084090706    621.64298      11155.778     -2785.6592      41.944611     -2743.7146      5775.9365      1.107491       9.211301       47.228711    
     17300   30698.39       0.084055914    645.10672      6701.5071     -2787.9955      43.527799     -2744.4677      5813.8742      1.1002642      7.3545469      48.374909    
     17400   31959.437      0.079299156    603.40905      4031.0793     -2788.7505      40.714299     -2748.0362      5850.9039      1.0933008      7.278744       41.340141    
     17500   33190.875      0.08120593     587.8313       7439.8445     -2790.0269      39.663209     -2750.3637      5887.4913      1.0865065      7.9222192      47.224724    
     17600   34409.232      0.082077724    604.6208       7767.5873     -2794.806       40.79606      -2754.01        5923.7536      1.0798555      7.8525036      44.842874    
     17700   35621.883      0.08246392     577.81939      3423.5703     -2796.7939      38.987668     -2757.8062      5959.7103      1.0733404      8.1776856      45.872159    
     17800   36817.338      0.083650193    552.2548       10502.008     -2798.0886      37.262727     -2760.8259      5995.3546      1.066959       12.174233      48.983264    
     17884   37750.494      0.090017068    543.89125      13031.791     -2800.1505      36.698407     -2763.4521      6025.5443      1.0616133      9.3925334      43.737466    
Loop time of 37750.5 on 1 procs for 3000 steps with 523 atoms

Performance: 0.007 ns/day, 3495.416 hours/ns, 0.079 timesteps/s, 41.562 atom-step/s
99.0% CPU use with 1 MPI tasks x 1 OpenMP threads

MPI task timing breakdown:
Section |  min time  |  avg time  |  max time  |%varavg| %total
---------------------------------------------------------------
Pair    | 37737      | 37737      | 37737      |   0.0 | 99.96
Neigh   | 1.599      | 1.599      | 1.599      |   0.0 |  0.00
Comm    | 1.9515     | 1.9515     | 1.9515     |   0.0 |  0.01
Output  | 0.55925    | 0.55925    | 0.55925    |   0.0 |  0.00
Modify  | 7.7552     | 7.7552     | 7.7552     |   0.0 |  0.02
Other   |            | 1.63       |            |       |  0.00

Nlocal:            523 ave         523 max         523 min
Histogram: 1 0 0 0 0 0 0 0 0 0
Nghost:           2299 ave        2299 max        2299 min
Histogram: 1 0 0 0 0 0 0 0 0 0
Neighs:              0 ave           0 max           0 min
Histogram: 1 0 0 0 0 0 0 0 0 0
FullNghs:        65136 ave       65136 max       65136 min
Histogram: 1 0 0 0 0 0 0 0 0 0

Total # of neighbors = 65136
Ave neighs/atom = 124.54302
Neighbor list builds = 856
Dangerous builds = 0
unfix           release3

variable        density_0gpa equal density
print "Density at 0 GPa: ${density_0gpa} g/cm^3"
Density at 0 GPa: 1.06161326584675 g/cm^3

# -----------------------------------------------------------------------------
# Step 6: Final equilibration at ambient (300K, 0 GPa)
# -----------------------------------------------------------------------------
print "Step 6: Final NPT equilibration at 300K (1500 steps)"
Step 6: Final NPT equilibration at 300K (1500 steps)

fix             equil1 all npt temp 300.0 300.0 ${tdamp} iso 0.0 0.0 ${pdamp}
fix             equil1 all npt temp 300.0 300.0 0.5 iso 0.0 0.0 ${pdamp}
fix             equil1 all npt temp 300.0 300.0 0.5 iso 0.0 0.0 10
run             1500
Per MPI rank memory allocation (min/avg/max) = 163.9 | 163.9 | 163.9 Mbytes
   Step          CPU           S/CPU           Temp          Press          PotEng         KinEng         TotEng         Volume        Density          Fmax          Fnorm     
     17884   0              0              543.89125      13000.733     -2800.1505      36.698407     -2763.4521      6025.5443      1.0616133      9.3874628      43.720434    
     17900   179.10115      0.089334989    511.28975      3125.2454     -2797.9824      34.49866      -2763.4837      6025.6017      1.0616032      6.6306646      40.465113    
     18000   1280.8021      0.090768731    520.2588       3718.1694     -2795.4516      35.103836     -2760.3477      6028.1144      1.0611606      9.5349779      47.852269    
     18100   2399.0673      0.089424227    523.34198      7289.7618     -2795.4249      35.31187      -2760.113       6033.7847      1.0601634      11.64475       45.694462    
     18200   3514.6847      0.089636468    564.7663       4627.8795     -2797.0714      38.106926     -2758.9645      6043.0341      1.0585407      8.5374722      45.021013    
     18300   4615.9544      0.090804273    589.1482       8424.7334     -2798.2367      39.752065     -2758.4846      6056.0383      1.0562677      11.584317      48.663086    
     18400   5726.0722      0.090080534    615.39782      9219.5689     -2801.7398      41.523227     -2760.2166      6072.9819      1.0533207      6.3471405      43.030024    
     18500   6812.6216      0.092034467    532.77693      824.95076     -2798.3613      35.948481     -2762.4128      6093.848       1.049714       6.0358372      43.211602    
     18600   7917.89        0.090475762    568.29136      10937.3       -2802.858       38.344775     -2764.5132      6118.1117      1.045551       7.8931431      47.878653    
     18700   8996.4349      0.092717513    573.73633      7789.927      -2802.9822      38.712168     -2764.2701      6145.6751      1.0408617      7.0569549      42.743071    
     18800   10099.578      0.090650081    552.20576     -650.13239     -2800.9269      37.259419     -2763.6674      6177.2866      1.0355352      6.1176455      41.174059    
     18900   11172.321      0.093218949    500.53166      4098.2108     -2798.1939      33.772771     -2764.4211      6211.8473      1.0297738      8.8629207      48.104499    
     19000   12283.663      0.089981278    480.84953      4527.3456     -2796.9164      32.444743     -2764.4716      6249.0265      1.0236471      15.080356      49.880406    
     19100   13370.836      0.091981737    505.06515      8381.5119     -2798.2975      34.078663     -2764.2189      6288.4849      1.017224       7.6827403      42.789427    
     19200   14474.721      0.090589167    510.50024      8133.982      -2799.084       34.445389     -2764.6386      6329.754       1.0105919      9.1033423      44.478276    
     19300   15152.703      0.14749648     1021.5316      11342.247     -2790.7703      68.926611     -2721.8437      6372.9266      1.0037457      9.0110358      47.485017    
     19384   15582.197      0.1955789      749.6011       11511.659     -2773.0288      50.578431     -2722.4503      6411.7122      0.99767387     30.804252      84.474624    
Loop time of 15582.2 on 1 procs for 1500 steps with 523 atoms

Performance: 0.008 ns/day, 2885.593 hours/ns, 0.096 timesteps/s, 50.346 atom-step/s
99.9% CPU use with 1 MPI tasks x 1 OpenMP threads

MPI task timing breakdown:
Section |  min time  |  avg time  |  max time  |%varavg| %total
---------------------------------------------------------------
Pair    | 15576      | 15576      | 15576      |   0.0 | 99.96
Neigh   | 0.70121    | 0.70121    | 0.70121    |   0.0 |  0.00
Comm    | 0.84652    | 0.84652    | 0.84652    |   0.0 |  0.01
Output  | 0.24728    | 0.24728    | 0.24728    |   0.0 |  0.00
Modify  | 3.6698     | 3.6698     | 3.6698     |   0.0 |  0.02
Other   |            | 0.7702     |            |       |  0.00

Nlocal:            523 ave         523 max         523 min
Histogram: 1 0 0 0 0 0 0 0 0 0
Nghost:           2227 ave        2227 max        2227 min
Histogram: 1 0 0 0 0 0 0 0 0 0
Neighs:              0 ave           0 max           0 min
Histogram: 1 0 0 0 0 0 0 0 0 0
FullNghs:        61250 ave       61250 max       61250 min
Histogram: 1 0 0 0 0 0 0 0 0 0

Total # of neighbors = 61250
Ave neighs/atom = 117.11281
Neighbor list builds = 390
Dangerous builds = 47
unfix           equil1

print "Step 7: Final NVT relaxation to stabilize structure (500 steps)"
Step 7: Final NVT relaxation to stabilize structure (500 steps)
fix             equil2 all nvt temp 300.0 300.0 ${tdamp}
fix             equil2 all nvt temp 300.0 300.0 0.5
run             500
Per MPI rank memory allocation (min/avg/max) = 164.1 | 164.1 | 164.1 Mbytes
   Step          CPU           S/CPU           Temp          Press          PotEng         KinEng         TotEng         Volume        Density          Fmax          Fnorm     
     19384   0              0              749.6011       11523.816     -2773.0288      50.578431     -2722.4503      6411.7122      0.99767387     30.810621      84.478332    
     19400   81.995448      0.19513277     769.73065      12733.063     -2774.5989      51.936649     -2722.6622      6411.7122      0.99767387     10.476518      52.317768    
     19500   610.74234      0.18912641     835.57884      8842.3285     -2779.3712      56.379676     -2722.9915      6411.7122      0.99767387     7.7967369      47.101181    
     19600   1132.0065      0.1918413      765.86119      6779.3805     -2775.7604      51.675561     -2724.0849      6411.7122      0.99767387     11.979618      53.517208    
     19700   1633.7328      0.19931186     759.08823      3538.708      -2777.8485      51.218564     -2726.6299      6411.7122      0.99767387     7.3903798      49.122306    
     19800   2155.2118      0.19176227     743.75649      3240.8538     -2780.1545      50.184074     -2729.9704      6411.7122      0.99767387     8.0470587      47.908351    
     19884   2594.1519      0.19137007     735.66514      10386.926     -2781.5274      49.638119     -2731.8892      6411.7122      0.99767387     12.595834      48.345704    
Loop time of 2594.15 on 1 procs for 500 steps with 523 atoms

Performance: 0.017 ns/day, 1441.196 hours/ns, 0.193 timesteps/s, 100.804 atom-step/s
99.9% CPU use with 1 MPI tasks x 1 OpenMP threads

MPI task timing breakdown:
Section |  min time  |  avg time  |  max time  |%varavg| %total
---------------------------------------------------------------
Pair    | 2592.8     | 2592.8     | 2592.8     |   0.0 | 99.95
Neigh   | 0.24806    | 0.24806    | 0.24806    |   0.0 |  0.01
Comm    | 0.30482    | 0.30482    | 0.30482    |   0.0 |  0.01
Output  | 0.073734   | 0.073734   | 0.073734   |   0.0 |  0.00
Modify  | 0.54382    | 0.54382    | 0.54382    |   0.0 |  0.02
Other   |            | 0.2274     |            |       |  0.01

Nlocal:            523 ave         523 max         523 min
Histogram: 1 0 0 0 0 0 0 0 0 0
Nghost:           2266 ave        2266 max        2266 min
Histogram: 1 0 0 0 0 0 0 0 0 0
Neighs:              0 ave           0 max           0 min
Histogram: 1 0 0 0 0 0 0 0 0 0
FullNghs:        61452 ave       61452 max       61452 min
Histogram: 1 0 0 0 0 0 0 0 0 0

Total # of neighbors = 61452
Ave neighs/atom = 117.49904
Neighbor list builds = 154
Dangerous builds = 0
unfix           equil2

# -----------------------------------------------------------------------------
# Output
# -----------------------------------------------------------------------------
undump          xyz_traj
undump          lmp_traj
undump          dcd_traj
undump          full_traj
undump          full_lmp

write_data      densified_pdms.lmpdat
System init for write_data ...

dump            final all xyz 1 densified_pdms.xyz
dump_modify     final element C H O Si
run             0
WARNING: No fixes with time integration, atoms won't move
For more information see https://docs.lammps.org/err0028 (src/verlet.cpp:60)
Per MPI rank memory allocation (min/avg/max) = 159.2 | 159.2 | 159.2 Mbytes
   Step          CPU           S/CPU           Temp          Press          PotEng         KinEng         TotEng         Volume        Density          Fmax          Fnorm     
     19884   0              0              735.66514      10371.26      -2781.5274      49.638119     -2731.8892      6411.7122      0.99767387     12.596532      48.362222    
Loop time of 0.000282622 on 1 procs for 0 steps with 523 atoms

101.2% CPU use with 1 MPI tasks x 1 OpenMP threads

MPI task timing breakdown:
Section |  min time  |  avg time  |  max time  |%varavg| %total
---------------------------------------------------------------
Pair    | 0          | 0          | 0          |   0.0 |  0.00
Neigh   | 0          | 0          | 0          |   0.0 |  0.00
Comm    | 0          | 0          | 0          |   0.0 |  0.00
Output  | 0          | 0          | 0          |   0.0 |  0.00
Modify  | 0          | 0          | 0          |   0.0 |  0.00
Other   |            | 0.0002826  |            |       |100.00

Nlocal:            523 ave         523 max         523 min
Histogram: 1 0 0 0 0 0 0 0 0 0
Nghost:           2266 ave        2266 max        2266 min
Histogram: 1 0 0 0 0 0 0 0 0 0
Neighs:              0 ave           0 max           0 min
Histogram: 1 0 0 0 0 0 0 0 0 0
FullNghs:        61452 ave       61452 max       61452 min
Histogram: 1 0 0 0 0 0 0 0 0 0

Total # of neighbors = 61452
Ave neighs/atom = 117.49904
Neighbor list builds = 0
Dangerous builds = 0
undump          final

write_restart   densified_pdms.restart
System init for write_restart ...

# -----------------------------------------------------------------------------
# Summary
# -----------------------------------------------------------------------------
variable        target_density equal 1.10
variable        final_density equal density
variable        rel_error equal abs(v_final_density-v_target_density)/v_target_density*100

print "==========================================="
===========================================
print "ALIGNED Melt-Quench (Ref: DONE2) Complete!"
ALIGNED Melt-Quench (Ref: DONE2) Complete!
print "==========================================="
===========================================
print "Density Summary (Target: 1.10 g/cm^3):"
Density Summary (Target: 1.10 g/cm^3):
print "  Initial density:     ${init_density} g/cm^3"
  Initial density:     0.99767387293906 g/cm^3
print "  After compression:   ${compressed_density} g/cm^3"
  After compression:   0.99767387293906 g/cm^3
print "  At 3 GPa:            ${density_3gpa} g/cm^3"
  At 3 GPa:            0.99767387293906 g/cm^3
print "  At 1 GPa:            ${density_1gpa} g/cm^3"
  At 1 GPa:            0.99767387293906 g/cm^3
print "  At 0 GPa:            ${density_0gpa} g/cm^3"
  At 0 GPa:            0.99767387293906 g/cm^3
print "  Final density:       ${final_density} g/cm^3"
  Final density:       0.99767387293906 g/cm^3
print "  Target:              ${target_density} g/cm^3"
  Target:              1.1 g/cm^3
print "  Relative error:      ${rel_error}%%"
  Relative error:      9.30237518735819%%
print "==========================================="
===========================================
print "Output files:"
Output files:
print "  - densified_pdms.lmpdat     (LAMMPS data format)"
  - densified_pdms.lmpdat     (LAMMPS data format)
print "  - densified_pdms.xyz        (XYZ format)"
  - densified_pdms.xyz        (XYZ format)
print "  - densified_pdms.restart    (restart file)"
  - densified_pdms.restart    (restart file)
print "  - full_trajectory.xyz       (complete XYZ trajectory)"
  - full_trajectory.xyz       (complete XYZ trajectory)
print "  - full_trajectory.lammpstrj (complete LAMMPS trajectory)"
  - full_trajectory.lammpstrj (complete LAMMPS trajectory)
print "  - trajectory.xyz            (MD XYZ trajectory)"
  - trajectory.xyz            (MD XYZ trajectory)
print "  - trajectory.lammpstrj      (MD LAMMPS trajectory)"
  - trajectory.lammpstrj      (MD LAMMPS trajectory)
print "  - trajectory.dcd            (MD DCD trajectory)"
  - trajectory.dcd            (MD DCD trajectory)
print "  - melt_quench_log.lammps    (LAMMPS log file)"
  - melt_quench_log.lammps    (LAMMPS log file)
print "==========================================="
===========================================
print "Total: ~20,000 steps (~20 min)"
Total: ~20,000 steps (~20 min)
print "Strategy: 500K Peak, 5 GPa Compression, 3-stage Cooling Release"
Strategy: 500K Peak, 5 GPa Compression, 3-stage Cooling Release
print "==========================================="
===========================================
Total wall time: 41:51:49
