ITEM: TIMESTEP
0
ITEM: NUMBER OF ATOMS
523
ITEM: BOX BOUNDS pp pp pp
0.0000000000000000e+00 2.2000000000000000e+01
0.0000000000000000e+00 1.9079962999999999e+01
0.0000000000000000e+00 2.0000000000000000e+01
ITEM: ATOMS id type x y z
1 4 4.125 17.0666 3.07771
2 3 4.125 15.4366 3.07771
3 1 5.88805 17.69 3.07771
4 2 5.88805 17.69 4.16771
5 2 6.20271 16.8 2.53271
6 2 5.5734 18.58 2.53271
7 1 2.36195 17.69 3.07771
8 2 2.36195 17.69 1.98771
9 2 2.04729 16.8 3.62271
10 2 2.6766 18.58 3.62271
11 4 4.125 13.8066 3.07771
12 3 4.125 12.1766 3.07771
13 1 5.37167 14.43 4.32437
14 2 4.60092 14.43 5.09512
15 2 5.97954 13.54 4.1615
16 2 5.53454 15.32 3.71651
17 1 2.87833 14.43 1.83104
18 2 3.64908 14.43 1.0603
19 2 2.27047 13.54 1.99392
20 2 2.71545 15.32 2.43891
21 4 4.125 10.5466 3.07771
22 3 4.125 8.91665 3.07771
23 1 4.125 11.17 4.84076
24 2 3.035 11.17 4.84076
25 2 4.67 10.28 5.15542
26 2 4.67 12.06 4.52611
27 1 4.125 11.17 1.31466
28 2 5.215 11.17 1.31466
29 2 3.58 10.28 1
30 2 3.58 12.06 1.62931
31 4 4.125 7.28665 3.07771
32 3 4.125 5.65665 3.07771
33 1 2.87833 7.90998 4.32437
34 2 2.10759 7.90998 3.55363
35 2 3.04121 7.02 4.93224
36 2 3.4862 8.79996 4.48725
37 1 5.37167 7.90998 1.83104
38 2 6.14241 7.90998 2.60179
39 2 5.20879 7.02 1.22317
40 2 4.7638 8.79996 1.66816
41 4 4.125 4.02665 3.07771
42 3 4.125 2.39665 3.07771
43 1 2.36195 4.64998 3.07771
44 2 2.36195 4.64998 1.98771
45 2 2.04729 3.76 3.62271
46 2 2.6766 5.53996 3.62271
47 1 5.88805 4.64998 3.07771
48 2 5.88805 4.64998 4.16771
49 2 6.20271 3.76 2.53271
50 2 5.5734 5.53996 2.53271
51 4 4.125 0.766648 3.07771
52 1 2.87833 1.38998 1.83104
53 2 3.64908 1.38998 1.0603
54 2 2.27047 0.5 1.99392
55 2 2.71545 2.27996 2.43891
56 1 5.37167 1.38998 4.32437
57 2 4.60092 1.38998 5.09512
58 2 5.97954 0.5 4.1615
59 2 5.53454 2.27996 3.71651
60 4 9.625 17.0666 3.07771
61 3 9.625 15.4366 3.07771
62 1 11.3881 17.69 3.07771
63 2 11.3881 17.69 4.16771
64 2 11.7027 16.8 2.53271
65 2 11.0734 18.58 2.53271
66 1 7.86195 17.69 3.07771
67 2 7.86195 17.69 1.98771
68 2 7.54729 16.8 3.62271
69 2 8.1766 18.58 3.62271
70 4 9.625 13.8066 3.07771
71 3 9.625 12.1766 3.07771
72 1 10.8717 14.43 4.32437
73 2 10.1009 14.43 5.09512
74 2 11.4795 13.54 4.1615
75 2 11.0345 15.32 3.71651
76 1 8.37833 14.43 1.83104
77 2 9.14908 14.43 1.0603
78 2 7.77046 13.54 1.99392
79 2 8.21546 15.32 2.43891
80 4 9.625 10.5466 3.07771
81 3 9.625 8.91665 3.07771
82 1 9.625 11.17 4.84076
83 2 8.535 11.17 4.84076
84 2 10.17 10.28 5.15542
85 2 10.17 12.06 4.52611
86 1 9.625 11.17 1.31466
87 2 10.715 11.17 1.31466
88 2 9.08 10.28 1
89 2 9.08 12.06 1.62931
90 4 9.625 7.28665 3.07771
91 3 9.625 5.65665 3.07771
92 1 8.37833 7.90998 4.32437
93 2 7.60759 7.90998 3.55363
94 2 8.54121 7.02 4.93224
95 2 8.9862 8.79996 4.48725
96 1 11.7823 7.90998 2.58619
97 2 11.6194 7.02 1.97832
98 2 11.1744 8.79996 2.42331
99 4 9.625 4.02665 3.07771
100 3 9.625 2.39665 3.07771
101 1 7.86195 4.64998 3.07771
102 2 7.86195 4.64998 1.98771
103 2 7.54729 3.76 3.62271
104 2 8.1766 5.53996 3.62271
105 1 11.3881 4.64998 3.07771
106 2 11.3881 4.64998 4.16771
107 2 11.7027 3.76 2.53271
108 2 11.0734 5.53996 2.53271
109 4 9.625 0.766648 3.07771
110 1 8.37833 1.38998 1.83104
111 2 9.14908 1.38998 1.0603
112 2 7.77046 0.5 1.99392
113 2 8.21546 2.27996 2.43891
114 1 10.8717 1.38998 4.32437
115 2 10.1009 1.38998 5.09512
116 2 11.4795 0.5 4.1615
117 2 11.0345 2.27996 3.71651
118 4 15.125 17.0666 3.07771
119 3 15.125 15.4366 3.07771
120 1 16.8881 17.69 3.07771
121 2 16.8881 17.69 4.16771
122 2 17.2027 16.8 2.53271
123 2 16.5734 18.58 2.53271
124 1 13.3619 17.69 3.07771
125 2 13.3619 17.69 1.98771
126 2 13.0473 16.8 3.62271
127 2 13.6766 18.58 3.62271
128 4 15.125 13.8066 3.07771
129 3 15.125 12.1766 3.07771
130 1 16.3717 14.43 4.32437
131 2 15.6009 14.43 5.09512
132 2 16.9795 13.54 4.1615
133 2 16.5345 15.32 3.71651
134 1 13.8783 14.43 1.83104
135 2 14.6491 14.43 1.0603
136 2 13.2705 13.54 1.99392
137 2 13.7155 15.32 2.43891
138 4 15.125 10.5466 3.07771
139 3 15.125 8.91665 3.07771
140 1 15.125 11.17 4.84076
141 2 14.035 11.17 4.84076
142 2 15.67 10.28 5.15542
143 2 15.67 12.06 4.52611
144 1 15.125 11.17 1.31466
145 2 16.215 11.17 1.31466
146 2 14.58 10.28 1
147 2 14.58 12.06 1.62931
148 4 15.125 7.28665 3.07771
149 3 15.125 5.65665 3.07771
150 1 12.9677 7.90998 3.56923
151 2 13.1306 7.02 4.1771
152 2 13.5756 8.79996 3.7321
153 1 16.3717 7.90998 1.83104
154 2 17.1424 7.90998 2.60179
155 2 16.2088 7.02 1.22317
156 2 15.7638 8.79996 1.66816
157 4 15.125 4.02665 3.07771
158 3 15.125 2.39665 3.07771
159 1 13.3619 4.64998 3.07771
160 2 13.3619 4.64998 1.98771
161 2 13.0473 3.76 3.62271
162 2 13.6766 5.53996 3.62271
163 1 16.8881 4.64998 3.07771
164 2 16.8881 4.64998 4.16771
165 2 17.2027 3.76 2.53271
166 2 16.5734 5.53996 2.53271
167 4 15.125 0.766648 3.07771
168 1 13.8783 1.38998 1.83104
169 2 14.6491 1.38998 1.0603
170 2 13.2705 0.5 1.99392
171 2 13.7155 2.27996 2.43891
172 1 16.3717 1.38998 4.32437
173 2 15.6009 1.38998 5.09512
174 2 16.9795 0.5 4.1615
175 2 16.5345 2.27996 3.71651
176 4 6.875 17.0666 7.84085
177 3 6.875 15.4366 7.84085
178 1 8.63805 17.69 7.84085
179 2 8.63805 17.69 8.93085
180 2 8.95271 16.8 7.29585
181 2 8.3234 18.58 7.29585
182 1 5.11195 17.69 7.84085
183 2 5.11195 17.69 6.75085
184 2 4.79729 16.8 8.38585
185 2 5.4266 18.58 8.38585
186 4 6.875 13.8066 7.84085
187 3 6.875 12.1766 7.84085
188 1 8.12167 14.43 9.08751
189 2 7.35092 14.43 9.85826
190 2 8.72954 13.54 8.92464
191 2 8.28454 15.32 8.47965
192 1 5.62833 14.43 6.59418
193 2 6.39908 14.43 5.82343
194 2 5.02046 13.54 6.75706
195 2 5.46546 15.32 7.20205
196 4 6.875 10.5466 7.84085
197 3 6.875 8.91665 7.84085
198 1 6.875 11.17 9.6039
199 2 5.785 11.17 9.6039
200 2 7.42 10.28 9.91856
201 2 7.42 12.06 9.28925
202 1 6.875 11.17 6.0778
203 2 7.965 11.17 6.0778
204 2 6.33 10.28 5.76314
205 2 6.33 12.06 6.39245
206 4 6.875 7.28665 7.84085
207 3 6.875 5.65665 7.84085
208 1 5.62833 7.90998 9.08751
209 2 4.85759 7.90998 8.31677
210 2 5.79121 7.02 9.69538
211 2 6.2362 8.79996 9.25039
212 1 8.12167 7.90998 6.59418
213 2 8.89241 7.90998 7.36493
214 2 7.95879 7.02 5.98631
215 2 7.5138 8.79996 6.4313
216 4 6.875 4.02665 7.84085
217 3 6.875 2.39665 7.84085
218 1 5.11195 4.64998 7.84085
219 2 5.11195 4.64998 6.75085
220 2 4.79729 3.76 8.38585
221 2 5.4266 5.53996 8.38585
222 1 8.63805 4.64998 7.84085
223 2 8.63805 4.64998 8.93085
224 2 8.95271 3.76 7.29585
225 2 8.3234 5.53996 7.29585
226 4 6.875 0.766648 7.84085
227 1 5.62833 1.38998 6.59418
228 2 6.39908 1.38998 5.82343
229 2 5.02046 0.5 6.75706
230 2 5.46546 2.27996 7.20205
231 1 9.03229 1.38998 8.33237
232 2 9.64016 0.5 8.16949
233 2 9.19516 2.27996 7.7245
234 4 12.375 17.0666 7.84085
235 3 12.375 15.4366 7.84085
236 1 14.1381 17.69 7.84085
237 2 14.1381 17.69 8.93085
238 2 14.4527 16.8 7.29585
239 2 13.8234 18.58 7.29585
240 1 10.6119 17.69 7.84085
241 2 10.6119 17.69 6.75085
242 2 10.2973 16.8 8.38585
243 2 10.9266 18.58 8.38585
244 4 12.375 13.8066 7.84085
245 3 12.375 12.1766 7.84085
246 1 13.6217 14.43 9.08751
247 2 12.8509 14.43 9.85826
248 2 14.2295 13.54 8.92464
249 2 13.7845 15.32 8.47965
250 1 11.1283 14.43 6.59418
251 2 11.8991 14.43 5.82343
252 2 10.5205 13.54 6.75706
253 2 10.9655 15.32 7.20205
254 4 12.375 10.5466 7.84085
255 3 12.375 8.91665 7.84085
256 1 12.375 11.17 9.6039
257 2 11.285 11.17 9.6039
258 2 12.92 10.28 9.91856
259 2 12.92 12.06 9.28925
260 1 12.375 11.17 6.0778
261 2 13.465 11.17 6.0778
262 2 11.83 10.28 5.76314
263 2 11.83 12.06 6.39245
264 4 12.375 7.28665 7.84085
265 3 12.375 5.65665 7.84085
266 1 11.1283 7.90998 9.08751
267 2 10.3576 7.90998 8.31677
268 2 11.2912 7.02 9.69538
269 2 11.7362 8.79996 9.25039
270 1 13.6217 7.90998 6.59418
271 2 14.3924 7.90998 7.36493
272 2 13.4588 7.02 5.98631
273 2 13.0138 8.79996 6.4313
274 4 12.375 4.02665 7.84085
275 3 12.375 2.39665 7.84085
276 1 10.6119 4.64998 7.84085
277 2 10.6119 4.64998 6.75085
278 2 10.2973 3.76 8.38585
279 2 10.9266 5.53996 8.38585
280 1 14.1381 4.64998 7.84085
281 2 14.1381 4.64998 8.93085
282 2 14.4527 3.76 7.29585
283 2 13.8234 5.53996 7.29585
284 4 12.375 0.766648 7.84085
285 1 10.2177 1.38998 7.34933
286 2 9.60984 0.5 7.51221
287 2 10.0548 2.27996 7.9572
288 1 13.6217 1.38998 9.08751
289 2 12.8509 1.38998 9.85826
290 2 14.2295 0.5 8.92464
291 2 13.7845 2.27996 8.47965
292 4 17.875 17.0666 7.84085
293 3 17.875 15.4366 7.84085
294 1 19.6381 17.69 7.84085
295 2 19.6381 17.69 8.93085
296 2 19.9527 16.8 7.29585
297 2 19.3234 18.58 7.29585
298 1 16.1119 17.69 7.84085
299 2 16.1119 17.69 6.75085
300 2 15.7973 16.8 8.38585
301 2 16.4266 18.58 8.38585
302 4 17.875 13.8066 7.84085
303 3 17.875 12.1766 7.84085
304 1 19.1217 14.43 9.08751
305 2 18.3509 14.43 9.85826
306 2 19.7295 13.54 8.92464
307 2 19.2845 15.32 8.47965
308 1 16.6283 14.43 6.59418
309 2 17.3991 14.43 5.82343
310 2 16.0205 13.54 6.75706
311 2 16.4655 15.32 7.20205
312 4 17.875 10.5466 7.84085
313 3 17.875 8.91665 7.84085
314 1 17.875 11.17 9.6039
315 2 16.785 11.17 9.6039
316 2 18.42 10.28 9.91856
317 2 18.42 12.06 9.28925
318 1 17.875 11.17 6.0778
319 2 18.965 11.17 6.0778
320 2 17.33 10.28 5.76314
321 2 17.33 12.06 6.39245
322 4 17.875 7.28665 7.84085
323 3 17.875 5.65665 7.84085
324 1 16.6283 7.90998 9.08751
325 2 15.8576 7.90998 8.31677
326 2 16.7912 7.02 9.69538
327 2 17.2362 8.79996 9.25039
328 1 19.1217 7.90998 6.59418
329 2 19.8924 7.90998 7.36493
330 2 18.9588 7.02 5.98631
331 2 18.5138 8.79996 6.4313
332 4 17.875 4.02665 7.84085
333 3 17.875 2.39665 7.84085
334 1 16.1119 4.64998 7.84085
335 2 16.1119 4.64998 6.75085
336 2 15.7973 3.76 8.38585
337 2 16.4266 5.53996 8.38585
338 1 19.6381 4.64998 7.84085
339 2 19.6381 4.64998 8.93085
340 2 19.9527 3.76 7.29585
341 2 19.3234 5.53996 7.29585
342 4 17.875 0.766648 7.84085
343 1 16.6283 1.38998 6.59418
344 2 17.3991 1.38998 5.82343
345 2 16.0205 0.5 6.75706
346 2 16.4655 2.27996 7.20205
347 1 19.1217 1.38998 9.08751
348 2 18.3509 1.38998 9.85826
349 2 19.7295 0.5 8.92464
350 2 19.2845 2.27996 8.47965
351 4 4.125 17.0666 12.604
352 3 4.125 15.4366 12.604
353 1 5.88805 17.69 12.604
354 2 5.88805 17.69 13.694
355 2 6.20271 16.8 12.059
356 2 5.5734 18.58 12.059
357 1 2.36195 17.69 12.604
358 2 2.36195 17.69 11.514
359 2 2.04729 16.8 13.149
360 2 2.6766 18.58 13.149
361 4 4.125 13.8066 12.604
362 3 4.125 12.1766 12.604
363 1 5.37167 14.43 13.8507
364 2 4.60092 14.43 14.6214
365 2 5.97954 13.54 13.6878
366 2 5.53454 15.32 13.2428
367 1 2.87833 14.43 11.3573
368 2 3.64908 14.43 10.5866
369 2 2.27047 13.54 11.5202
370 2 2.71545 15.32 11.9652
371 4 4.125 10.5466 12.604
372 3 4.125 8.91665 12.604
373 1 4.125 11.17 14.367
374 2 3.035 11.17 14.367
375 2 4.67 10.28 14.6817
376 2 4.67 12.06 14.0524
377 1 4.125 11.17 10.8409
378 2 5.215 11.17 10.8409
379 2 3.58 10.28 10.5263
380 2 3.58 12.06 11.1556
381 4 4.125 7.28665 12.604
382 3 4.125 5.65665 12.604
383 1 2.87833 7.90998 13.8507
384 2 2.10759 7.90998 13.0799
385 2 3.04121 7.02 14.4585
386 2 3.4862 8.79996 14.0135
387 1 5.37167 7.90998 11.3573
388 2 6.14241 7.90998 12.1281
389 2 5.20879 7.02 10.7495
390 2 4.7638 8.79996 11.1944
391 4 4.125 4.02665 12.604
392 3 4.125 2.39665 12.604
393 1 2.36195 4.64998 12.604
394 2 2.36195 4.64998 11.514
395 2 2.04729 3.76 13.149
396 2 2.6766 5.53996 13.149
397 1 5.88805 4.64998 12.604
398 2 5.88805 4.64998 13.694
399 2 6.20271 3.76 12.059
400 2 5.5734 5.53996 12.059
401 4 4.125 0.766648 12.604
402 1 2.87833 1.38998 11.3573
403 2 3.64908 1.38998 10.5866
404 2 2.27047 0.5 11.5202
405 2 2.71545 2.27996 11.9652
406 1 6.28229 1.38998 13.0955
407 2 6.89016 0.5 12.9326
408 2 6.44516 2.27996 12.4876
409 4 9.625 17.0666 12.604
410 3 9.625 15.4366 12.604
411 1 11.3881 17.69 12.604
412 2 11.3881 17.69 13.694
413 2 11.7027 16.8 12.059
414 2 11.0734 18.58 12.059
415 1 7.86195 17.69 12.604
416 2 7.86195 17.69 11.514
417 2 7.54729 16.8 13.149
418 2 8.1766 18.58 13.149
419 4 9.625 13.8066 12.604
420 3 9.625 12.1766 12.604
421 1 10.8717 14.43 13.8507
422 2 10.1009 14.43 14.6214
423 2 11.4795 13.54 13.6878
424 2 11.0345 15.32 13.2428
425 1 8.37833 14.43 11.3573
426 2 9.14908 14.43 10.5866
427 2 7.77046 13.54 11.5202
428 2 8.21546 15.32 11.9652
429 4 9.625 10.5466 12.604
430 3 9.625 8.91665 12.604
431 1 9.625 11.17 14.367
432 2 8.535 11.17 14.367
433 2 10.17 10.28 14.6817
434 2 10.17 12.06 14.0524
435 1 9.625 11.17 10.8409
436 2 10.715 11.17 10.8409
437 2 9.08 10.28 10.5263
438 2 9.08 12.06 11.1556
439 4 9.625 7.28665 12.604
440 3 9.625 5.65665 12.604
441 1 8.37833 7.90998 13.8507
442 2 7.60759 7.90998 13.0799
443 2 8.54121 7.02 14.4585
444 2 8.9862 8.79996 14.0135
445 1 11.7823 7.90998 12.1125
446 2 11.6194 7.02 11.5046
447 2 11.1744 8.79996 11.9496
448 4 9.625 4.02665 12.604
449 3 9.625 2.39665 12.604
450 1 7.86195 4.64998 12.604
451 2 7.86195 4.64998 11.514
452 2 7.54729 3.76 13.149
453 2 8.1766 5.53996 13.149
454 1 11.3881 4.64998 12.604
455 2 11.3881 4.64998 13.694
456 2 11.7027 3.76 12.059
457 2 11.0734 5.53996 12.059
458 4 9.625 0.766648 12.604
459 1 7.46771 1.38998 12.1125
460 2 6.85984 0.5 12.2753
461 2 7.30484 2.27996 12.7203
462 1 10.8717 1.38998 13.8507
463 2 10.1009 1.38998 14.6214
464 2 11.4795 0.5 13.6878
465 2 11.0345 2.27996 13.2428
466 4 15.125 17.0666 12.604
467 3 15.125 15.4366 12.604
468 1 16.8881 17.69 12.604
469 2 16.8881 17.69 13.694
470 2 17.2027 16.8 12.059
471 2 16.5734 18.58 12.059
472 1 13.3619 17.69 12.604
473 2 13.3619 17.69 11.514
474 2 13.0473 16.8 13.149
475 2 13.6766 18.58 13.149
476 4 15.125 13.8066 12.604
477 3 15.125 12.1766 12.604
478 1 16.3717 14.43 13.8507
479 2 15.6009 14.43 14.6214
480 2 16.9795 13.54 13.6878
481 2 16.5345 15.32 13.2428
482 1 13.8783 14.43 11.3573
483 2 14.6491 14.43 10.5866
484 2 13.2705 13.54 11.5202
485 2 13.7155 15.32 11.9652
486 4 15.125 10.5466 12.604
487 3 15.125 8.91665 12.604
488 1 15.125 11.17 14.367
489 2 14.035 11.17 14.367
490 2 15.67 10.28 14.6817
491 2 15.67 12.06 14.0524
492 1 15.125 11.17 10.8409
493 2 16.215 11.17 10.8409
494 2 14.58 10.28 10.5263
495 2 14.58 12.06 11.1556
496 4 15.125 7.28665 12.604
497 3 15.125 5.65665 12.604
498 1 12.9677 7.90998 13.0955
499 2 13.1306 7.02 13.7034
500 2 13.5756 8.79996 13.2584
501 1 16.3717 7.90998 11.3573
502 2 17.1424 7.90998 12.1281
503 2 16.2088 7.02 10.7495
504 2 15.7638 8.79996 11.1944
505 4 15.125 4.02665 12.604
506 3 15.125 2.39665 12.604
507 1 13.3619 4.64998 12.604
508 2 13.3619 4.64998 11.514
509 2 13.0473 3.76 13.149
510 2 13.6766 5.53996 13.149
511 1 16.8881 4.64998 12.604
512 2 16.8881 4.64998 13.694
513 2 17.2027 3.76 12.059
514 2 16.5734 5.53996 12.059
515 4 15.125 0.766648 12.604
516 1 13.8783 1.38998 11.3573
517 2 14.6491 1.38998 10.5866
518 2 13.2705 0.5 11.5202
519 2 13.7155 2.27996 11.9652
520 1 16.3717 1.38998 13.8507
521 2 15.6009 1.38998 14.6214
522 2 16.9795 0.5 13.6878
523 2 16.5345 2.27996 13.2428
ITEM: TIMESTEP
100
ITEM: NUMBER OF ATOMS
523
ITEM: BOX BOUNDS pp pp pp
0.0000000000000000e+00 2.2000000000000000e+01
0.0000000000000000e+00 1.9079962999999999e+01
0.0000000000000000e+00 2.0000000000000000e+01
ITEM: ATOMS id type x y z
1 4 2.17156 16.049 3.40714
2 3 2.1537 14.548 2.77828
3 1 3.53708 17.1567 2.72306
4 2 4.50408 17.0367 3.22449
5 2 3.69586 16.9668 1.6538
6 2 3.21514 18.1944 2.86025
7 1 0.534831 16.9719 3.4196
8 2 0.25242 17.2495 2.38913
9 2 21.7013 16.4259 3.87135
10 2 0.698434 17.9012 3.98223
11 4 3.17482 13.516 1.92073
12 3 2.89586 11.9755 2.42907
13 1 4.95223 13.991 2.29855
14 2 5.08736 14.2645 3.35359
15 2 5.64189 13.1575 2.10443
16 2 5.29643 14.8316 1.68149
17 1 2.71476 13.7347 0.123244
18 2 3.60768 13.8861 19.51
19 2 2.18119 12.856 19.7496
20 2 2.06227 14.6083 -0.00937464
21 4 3.8966 10.6513 2.59643
22 3 2.94627 9.30464 2.76224
23 1 4.84602 10.798 4.18944
24 2 4.16577 11.1247 4.98915
25 2 5.23854 9.81174 4.46801
26 2 5.69552 11.4964 4.14079
27 1 5.01441 10.5733 1.08943
28 2 6.00764 10.9769 1.34132
29 2 5.17265 9.55094 0.716082
30 2 4.61315 11.1663 0.254005
31 4 2.97881 7.71642 3.19575
32 3 2.51256 6.8808 1.85094
33 1 1.73086 7.41909 4.55414
34 2 0.765744 7.26564 4.06586
35 2 1.9153 6.53738 5.19126
36 2 1.63688 8.29276 5.21686
37 1 4.69087 7.11772 3.63109
38 2 4.92563 7.27425 4.68803
39 2 4.76632 6.04002 3.42947
40 2 5.44559 7.62732 3.01473
41 4 2.43417 5.37904 1.20211
42 3 3.03325 4.28381 2.31998
43 1 0.630658 5.03665 0.888595
44 2 0.261854 5.59584 0.0102844
45 2 0.416383 3.96916 0.730407
46 2 0.063105 5.37824 1.76242
47 1 3.5557 5.23231 19.7325
48 2 4.58005 5.49006 -0.00141908
49 2 3.55513 4.19894 19.3605
50 2 3.25555 5.87287 18.8974
51 4 2.94071 2.77689 2.94783
52 1 2.35855 1.53056 1.648
53 2 3.19922 0.908549 1.3126
54 2 1.56288 0.860412 2.00042
55 2 1.96574 2.08297 0.783157
56 1 4.57495 2.41587 3.80175
57 2 4.76201 3.13986 4.60633
58 2 4.64368 1.4055 4.22181
59 2 5.36362 2.56087 3.04715
60 4 8.71329 15.7537 3.51896
61 3 8.3205 14.5068 2.52878
62 1 9.92789 16.907 2.67019
63 2 10.6014 17.4209 3.36964
64 2 10.5434 16.3917 1.92365
65 2 9.32348 17.6622 2.15839
66 1 7.2126 16.7529 4.0529
67 2 6.7633 17.1912 3.14469
68 2 6.44479 16.1698 4.5779
69 2 7.54183 17.5721 4.70402
70 4 9.16746 13.5869 1.42204
71 3 8.68841 12.0135 1.67404
72 1 11.0377 13.842 1.70044
73 2 11.2315 14.4356 2.61179
74 2 11.6082 12.9241 1.80656
75 2 11.4613 14.3937 0.85673
76 1 8.71097 14.1521 19.7217
77 2 9.58363 14.1121 19.0393
78 2 7.91038 13.5569 19.2524
79 2 8.37523 15.1986 19.7252
80 4 9.74729 10.7204 1.7363
81 3 8.94757 9.26084 1.64212
82 1 10.5286 10.839 3.44204
83 2 9.73689 10.6573 4.18568
84 2 11.3367 10.1274 3.64581
85 2 10.916 11.8455 3.63484
86 1 10.8534 10.9231 0.229984
87 2 11.9096 11.0542 0.484851
88 2 10.759 10.0659 19.5734
89 2 10.5265 11.8141 19.6839
90 4 9.62638 7.83959 2.23384
91 3 8.9718 6.48766 1.49185
92 1 9.11819 7.74712 4.02911
93 2 8.04942 8.01421 4.04303
94 2 9.20717 6.76651 4.51014
95 2 9.63917 8.47026 4.67103
96 1 11.4407 7.96117 1.71549
97 2 11.4782 7.43882 0.741341
98 2 11.5949 9.00898 1.47198
99 4 8.98074 4.93852 2.05981
100 3 9.12898 3.84886 0.788087
101 1 7.31416 4.51618 2.79378
102 2 6.5832 4.3842 1.98225
103 2 7.34528 3.58301 3.3729
104 2 6.94957 5.30902 3.45423
105 1 10.4626 4.68318 3.20016
106 2 10.3236 3.85984 3.91075
107 2 11.3519 4.45313 2.5995
108 2 10.6839 5.57779 3.79173
109 4 9.50768 2.25726 0.679726
110 1 8.23266 1.1974 19.8998
111 2 8.12972 1.33431 18.7893
112 2 8.47612 0.155995 0.0660433
113 2 7.23641 1.40166 0.327315
114 1 10.0549 1.56713 2.3671
115 2 9.3762 1.93824 3.15324
116 2 9.98822 0.478455 2.3284
117 2 11.0691 1.8352 2.65665
118 4 14.8 16.1685 3.78689
119 3 14.827 14.7713 2.84305
120 1 16.5431 16.9748 3.43527
121 2 17.4015 16.4907 3.91989
122 2 16.736 16.8975 2.3469
123 2 16.5959 18.0478 3.68303
124 1 13.5466 17.447 3.20228
125 2 13.5449 17.7409 2.14312
126 2 12.5413 17.1094 3.47989
127 2 13.7533 18.3291 3.82174
128 4 15.5852 13.765 1.75957
129 3 15.1284 12.1749 2.00884
130 1 17.4635 13.8408 2.01255
131 2 17.7118 14.3382 2.9612
132 2 17.9203 12.8395 2.04107
133 2 17.9745 14.4009 1.2104
134 1 15.0565 14.2707 0.0226746
135 2 15.8747 14.7489 19.4777
136 2 14.728 13.4063 19.4462
137 2 14.227 14.9983 0.0633474
138 4 15.8402 10.6676 1.94729
139 3 14.653 9.50724 1.93205
140 1 16.8804 10.3877 3.47977
141 2 16.3837 9.67436 4.15651
142 2 17.8659 9.96735 3.22632
143 2 17.0464 11.3226 4.02905
144 1 16.8572 10.5271 0.378892
145 2 17.5224 9.65159 0.41494
146 2 16.2087 10.4207 19.5046
147 2 17.4972 11.4057 0.22154
148 4 14.2964 7.89178 1.83485
149 3 15.3976 7.03789 2.75896
150 1 12.6158 7.4972 2.5917
151 2 12.6106 6.41064 2.73256
152 2 12.5628 7.92886 3.60531
153 1 14.3374 7.36398 0.0477171
154 2 15.3449 7.38932 19.6222
155 2 13.9457 6.35841 19.9351
156 2 13.7089 8.05322 19.4827
157 4 15.7473 5.48032 3.15408
158 3 15.4728 4.53331 1.81042
159 1 14.5969 4.78986 4.46824
160 2 13.5473 5.05061 4.26541
161 2 14.6618 3.69424 4.49907
162 2 14.8349 5.15931 5.47236
163 1 17.5535 5.45159 3.62778
164 2 17.696 5.79412 4.65978
165 2 17.9992 4.45058 3.54752
166 2 18.1143 6.12966 2.96747
167 4 15.7806 3.14392 0.998453
168 1 14.1687 2.45594 0.312929
169 2 13.7798 2.99852 19.4448
170 2 14.3001 1.39963 0.0357406
171 2 13.4138 2.52706 1.11168
172 1 16.6895 1.91525 2.10892
173 2 16.0361 1.69745 2.97118
174 2 16.9185 0.9754 1.59294
175 2 17.6341 2.31923 2.49074
176 4 4.79917 16.0999 9.11786
177 3 4.69216 14.5466 8.57463
178 1 6.40777 16.9249 8.56403
179 2 7.23785 16.8717 9.2827
180 2 6.74613 16.4604 7.63068
181 2 6.19787 17.9828 8.38693
182 1 3.36732 17.1987 8.58911
183 2 3.4334 17.3412 7.49694
184 2 2.35823 16.8414 8.83308
185 2 3.52458 18.1784 9.07133
186 4 5.96375 13.5101 8.2069
187 3 5.63368 11.9444 8.61263
188 1 7.36193 14.0773 9.35226
189 2 6.86796 14.5227 10.2357
190 2 7.96028 13.2395 9.71762
191 2 8.05179 14.8303 8.95859
192 1 6.04866 13.5202 6.34202
193 2 6.98909 13.1483 5.92096
194 2 5.25887 12.8244 6.0389
195 2 5.81616 14.4883 5.88264
196 4 6.71535 10.7995 9.18378
197 3 6.096 9.29125 9.0227
198 1 6.83951 11.0605 11.0238
199 2 5.82638 11.2513 11.3972
200 2 7.2041 10.1411 11.4938
201 2 7.47268 11.8946 11.3423
202 1 8.32587 10.9021 8.22289
203 2 9.17759 10.6657 8.87165
204 2 8.36381 10.1882 7.39396
205 2 8.51354 11.8941 7.79623
206 4 5.73781 8.16564 7.87994
207 3 6.17134 6.6955 8.50804
208 1 3.90118 8.3414 7.58382
209 2 3.70551 9.40649 7.38696
210 2 3.50259 7.7688 6.73708
211 2 3.32906 8.06806 8.48092
212 1 6.76623 8.48431 6.35201
213 2 7.79419 8.11886 6.48295
214 2 6.37325 8.00171 5.45032
215 2 6.80461 9.56065 6.13503
216 4 6.21467 5.13347 7.97972
217 3 7.04742 4.24986 9.11332
218 1 4.40505 4.63226 7.75022
219 2 4.16166 4.47081 6.6913
220 2 4.10304 3.73363 8.30277
221 2 3.7804 5.46501 8.09564
222 1 7.19303 5.04358 6.38568
223 2 8.13075 5.6016 6.48566
224 2 7.4564 4.01009 6.12292
225 2 6.63961 5.46525 5.5377
226 4 7.62284 2.68815 9.39736
227 1 6.32865 1.64632 8.41117
228 2 6.73547 0.75432 7.91883
229 2 5.3667 1.37408 8.86378
230 2 6.08868 2.33664 7.58315
231 1 9.28319 2.27828 8.55483
232 2 9.64978 1.38366 9.08323
233 2 9.92797 3.09503 8.91269
234 4 13.1318 16.0977 6.61886
235 3 12.7767 14.576 7.23628
236 1 14.6733 16.7071 7.48994
237 2 14.688 16.5795 8.59095
238 2 15.5193 16.1535 7.06239
239 2 14.8138 17.7707 7.23475
240 1 11.595 17.1384 7.26504
241 2 10.8383 17.4746 6.53711
242 2 11.0521 16.5502 8.0238
243 2 11.9464 18.0471 7.78951
244 4 11.4653 13.6553 7.62538
245 3 11.7536 12.1231 7.0747
246 1 11.1445 13.6486 9.4855
247 2 10.2499 13.0358 9.66952
248 2 11.941 13.2561 10.1218
249 2 10.8849 14.6579 9.84285
250 1 9.90623 14.1767 6.72281
251 2 10.1146 14.3365 5.67766
252 2 9.17325 13.3693 6.79841
253 2 9.43986 15.0922 7.13955
254 4 12.9133 11.05 6.64714
255 3 12.1679 9.56284 6.70352
256 1 14.3195 11.1812 7.89755
257 2 14.0214 11.0597 8.93997
258 2 15.1239 10.4559 7.67688
259 2 14.7678 12.188 7.7995
260 1 13.6522 11.3598 4.95451
261 2 14.5314 12.0275 5.06707
262 2 13.9949 10.4321 4.50222
263 2 13.0003 11.8554 4.22844
264 4 12.6377 8.21057 7.51466
265 3 11.5888 6.92485 7.26526
266 1 12.542 8.5046 9.35987
267 2 11.5096 8.78506 9.59884
268 2 12.7643 7.58696 9.91891
269 2 13.2077 9.29331 9.72946
270 1 14.304 7.69935 6.82048
271 2 15.065 7.47999 7.58542
272 2 14.1601 6.79279 6.21935
273 2 14.709 8.46602 6.14385
274 4 11.6218 5.52609 8.16486
275 3 11.2581 4.27315 7.1398
276 1 10.3634 5.53456 9.54151
277 2 9.32285 5.51933 9.17932
278 2 10.4987 4.61728 10.1355
279 2 10.4574 6.36933 10.2411
280 1 13.3569 5.14791 8.80906
281 2 13.2833 4.3823 9.59501
282 2 13.9695 4.73768 7.99304
283 2 13.9025 5.99828 9.23834
284 4 11.3294 2.65738 6.90208
285 1 9.5221 2.0609 7.02082
286 2 9.38199 1.02265 6.69696
287 2 8.91242 2.70141 6.37123
288 1 12.4434 1.77194 8.15556
289 2 11.9598 1.76855 9.14232
290 2 12.6045 0.732406 7.86247
291 2 13.4282 2.23608 8.26821
292 4 20.3758 16.0944 7.40383
293 3 20.6883 14.7531 8.28801
294 1 21.7315 17.3734 7.43951
295 2 0.0324328 17.5644 8.46535
296 2 0.613697 17.1289 6.85182
297 2 21.2824 18.2988 7.02
298 1 18.7027 16.8903 7.75998
299 2 17.8685 16.5193 7.15253
300 2 18.4221 16.7409 8.81434
301 2 18.8081 17.961 7.55166
302 4 19.7446 13.536 8.96341
303 3 20.3079 12.0599 8.46619
304 1 19.915 13.672 10.8195
305 2 18.9574 13.4812 11.3277
306 2 20.6485 12.9552 11.2062
307 2 20.2416 14.6815 11.1128
308 1 17.9841 13.8325 8.33725
309 2 17.9846 14.3718 7.38067
310 2 17.425 12.9052 8.17483
311 2 17.4123 14.4394 9.05455
312 4 19.36 10.8438 7.82524
313 3 20.1448 9.38284 7.69087
314 1 17.942 10.5453 9.0211
315 2 17.0193 10.2608 8.50031
316 2 18.2236 9.70904 9.67534
317 2 17.7044 11.402 9.66389
318 1 18.9759 11.3745 6.07727
319 2 19.928 11.411 5.52355
320 2 18.3284 10.657 5.55929
321 2 18.5088 12.3636 5.99215
322 4 19.6201 8.07747 6.79586
323 3 20.1011 6.68524 7.54303
324 1 17.7521 8.00447 6.75246
325 2 17.2652 8.84009 6.23502
326 2 17.4271 7.08496 6.24701
327 2 17.3622 7.97099 7.78039
328 1 20.4547 8.14503 5.14043
329 2 21.5152 8.34165 5.3326
330 2 20.3823 7.19271 4.5953
331 2 20.0912 8.95118 4.48837
332 4 19.7196 5.31606 8.3469
333 3 19.4754 4.0873 7.25426
334 1 18.1629 5.42316 9.38268
335 2 17.2339 5.60417 8.83044
336 2 18.0497 4.46867 9.92237
337 2 18.2722 6.20654 10.1476
338 1 21.128 4.96037 9.48749
339 2 21.1693 5.79078 10.2121
340 2 20.9573 4.04025 10.0669
341 2 0.0875613 4.89488 8.97974
342 4 19.0855 2.49421 7.17197
343 1 17.3481 2.37343 6.44259
344 2 17.3051 2.77807 5.4234
345 2 16.9757 1.34314 6.42705
346 2 16.687 2.99338 7.07423
347 1 19.2244 1.63274 8.85597
348 2 18.2785 1.72404 9.41848
349 2 19.4452 0.56558 8.74955
350 2 20.0313 2.0706 9.45633
351 4 1.99922 16.3178 13.9223
352 3 1.91917 14.7187 13.6061
353 1 3.58221 17.2286 13.4299
354 2 4.49542 16.9185 13.9509
355 2 3.76028 17.1008 12.3477
356 2 3.41831 18.2934 13.6316
357 1 0.51945 17.2547 13.254
358 2 0.537631 17.1731 12.1521
359 2 21.556 16.8703 13.6047
360 2 0.608011 18.3143 13.5238
361 4 2.78667 13.5195 12.821
362 3 2.43116 12.0306 13.4572
363 1 4.58513 13.9062 13.1574
364 2 4.74738 13.8443 14.2468
365 2 5.2746 13.1954 12.6848
366 2 4.87988 14.9097 12.8294
367 1 2.232 13.6405 11.0357
368 2 2.95083 13.2105 10.3281
369 2 1.2667 13.1371 10.8862
370 2 2.10115 14.698 10.7607
371 4 3.3246 10.6147 13.3948
372 3 2.58307 9.32584 14.137
373 1 4.88456 10.9106 14.4045
374 2 4.62654 11.5445 15.2654
375 2 5.29021 9.97434 14.8055
376 2 5.69507 11.4009 13.8571
377 1 3.44768 10.1761 11.5745
378 2 3.84282 10.9886 10.9556
379 2 4.05837 9.28658 11.3734
380 2 2.42906 9.96221 11.2089
381 4 3.20484 7.81057 14.4312
382 3 2.27763 6.72174 13.598
383 1 3.14544 7.47163 16.2685
384 2 2.12325 7.40396 16.6634
385 2 3.66574 6.52695 16.4907
386 2 3.66515 8.27348 16.8146
387 1 4.9816 7.63479 13.808
388 2 5.71126 7.95276 14.5652
389 2 5.20479 6.58359 13.5649
390 2 5.17579 8.22351 12.8988
391 4 2.51644 5.40347 12.6459
392 3 3.50244 4.36046 13.5012
393 1 0.890961 4.55211 12.3166
394 2 0.72139 4.48288 11.2348
395 2 0.88277 3.52397 12.7092
396 2 0.0436099 5.09377 12.7576
397 1 3.43918 5.81869 11.0715
398 2 4.48569 6.10742 11.2437
399 2 3.458 4.93464 10.4161
400 2 2.96062 6.62949 10.5029
401 4 3.85105 2.76073 13.5697
402 1 3.29211 1.88399 11.994
403 2 4.0565 1.17833 11.6611
404 2 2.35665 1.32608 12.0902
405 2 3.14304 2.63076 11.2054
406 1 5.74501 2.66292 13.8822
407 2 6.03676 1.71688 14.3657
408 2 6.018 3.49041 14.5531
409 4 10.3815 16.023 11.9213
410 3 10.7844 14.7934 12.9245
411 1 11.8403 17.1532 11.577
412 2 12.367 17.3777 12.516
413 2 12.5628 16.7122 10.8781
414 2 11.4679 18.0935 11.1436
415 1 8.86265 17.047 12.3803
416 2 7.91227 16.4951 12.3837
417 2 8.98383 17.516 13.3665
418 2 8.76906 17.8537 11.6325
419 4 10.1005 13.6307 13.9254
420 3 10.6717 12.1222 13.5753
421 1 10.6167 14.0337 15.6851
422 2 9.78624 13.8319 16.3873
423 2 11.4651 13.4181 15.9929
424 2 10.8918 15.0915 15.7961
425 1 8.26081 13.8026 13.6117
426 2 8.08245 13.9044 12.5274
427 2 7.63865 12.9846 13.9783
428 2 7.89464 14.7333 14.0816
429 4 10.1241 10.597 13.1024
430 3 11.1844 9.38162 13.4624
431 1 8.54874 10.1836 14.0278
432 2 7.73099 9.93037 13.3395
433 2 8.71653 9.29693 14.6496
434 2 8.1945 10.9915 14.6795
435 1 10.0897 10.6316 11.2543
436 2 11.1277 10.6512 10.897
437 2 9.5996 9.74787 10.8369
438 2 9.58808 11.529 10.8602
439 4 11.2424 7.78768 13.9068
440 3 9.96185 6.87622 13.3311
441 1 11.2758 7.92094 15.7847
442 2 10.286 8.22764 16.152
443 2 11.5816 7.03011 16.3469
444 2 11.9677 8.73574 16.0426
445 1 12.824 7.11699 13.1284
446 2 12.8307 6.02339 13.0808
447 2 12.8298 7.47444 12.0924
448 4 9.38368 5.37248 13.8117
449 3 8.74004 4.49988 12.5319
450 1 8.08326 5.72674 15.1191
451 2 7.12919 6.06061 14.6806
452 2 7.87161 4.87133 15.7716
453 2 8.43976 6.54291 15.7604
454 1 10.8674 4.48685 14.5709
455 2 10.5857 3.71883 15.3061
456 2 11.4982 4.01001 13.807
457 2 11.5057 5.2076 15.1054
458 4 8.12193 2.9934 12.0252
459 1 6.30587 2.79209 12.4405
460 2 6.07322 1.85756 11.9013
461 2 5.79741 3.58888 11.8727
462 1 9.05691 1.79548 13.1691
463 2 8.53852 1.96228 14.1365
464 2 9.00844 0.721487 12.9638
465 2 10.1068 2.07331 13.3339
466 4 16.8319 15.9868 12.2032
467 3 16.9093 14.6334 13.144
468 1 18.4892 16.8945 12.2764
469 2 18.781 16.8822 13.3403
470 2 19.3134 16.4752 11.6915
471 2 18.3274 17.9309 11.9562
472 1 15.5573 17.1965 12.9095
473 2 14.5181 17.0613 12.5778
474 2 15.576 17.0919 14.0031
475 2 15.8707 18.2106 12.632
476 4 15.9154 13.7467 14.144
477 3 16.2097 12.1452 13.8607
478 1 16.3386 14.1628 15.9243
479 2 15.48 13.965 16.5831
480 2 17.1874 13.5732 16.2918
481 2 16.5912 15.2285 16.0281
482 1 14.1255 14.1712 13.7651
483 2 13.9706 14.3576 12.6925
484 2 13.4421 13.362 14.0562
485 2 13.8096 15.0752 14.3074
486 4 15.2292 10.8075 13.888
487 3 16.1826 9.43659 13.9651
488 1 14.0977 10.9097 15.3929
489 2 13.0478 10.9262 15.0668
490 2 14.23 10.0503 16.0645
491 2 14.2815 11.8194 15.9802
492 1 14.2275 10.7813 12.2995
493 2 14.8711 10.9083 11.4178
494 2 13.652 9.85092 12.1831
495 2 13.4888 11.5946 12.3109
496 4 15.7556 7.97869 13.2786
497 3 16.6668 6.7048 13.8569
498 1 14.018 7.67673 13.9395
499 2 14.1827 7.05702 14.8411
500 2 13.7316 8.66112 14.3332
501 1 16.1154 8.14398 11.4427
502 2 16.707 9.06318 11.3055
503 2 16.7233 7.31371 11.0656
504 2 15.2271 8.22677 10.8026
505 4 16.7578 5.14844 13.3334
506 3 16.2394 4.0809 14.5405
507 1 15.5959 4.80878 11.8839
508 2 16.042 4.09589 11.1761
509 2 14.6613 4.36941 12.249
510 2 15.3313 5.70311 11.3132
511 1 18.5588 4.72648 13.0634
512 2 19.0695 4.7259 14.0398
513 2 18.6843 3.72638 12.6221
514 2 19.0659 5.45048 12.4138
515 4 16.1556 2.46179 14.3308
516 1 14.7033 1.87926 13.299
517 2 14.8783 1.9961 12.2185
518 2 14.5279 0.816049 13.5032
519 2 13.804 2.45884 13.5583
520 1 16.5242 1.45657 15.8503
521 2 15.803 1.66516 16.6546
522 2 16.4671 0.393372 15.5938
523 2 17.5314 1.67151 16.2246
ITEM: TIMESTEP
200
ITEM: NUMBER OF ATOMS
523
ITEM: BOX BOUNDS pp pp pp
0.0000000000000000e+00 2.2000000000000000e+01
0.0000000000000000e+00 1.9079962999999999e+01
0.0000000000000000e+00 2.0000000000000000e+01
ITEM: ATOMS id type x y z
1 4 1.65782 15.4708 3.1726
2 3 1.83207 14.2575 2.0962
3 1 2.80439 16.9252 2.81497
4 2 3.85921 16.7296 3.04008
5 2 2.72955 17.177 1.74467
6 2 2.48704 17.7861 3.41151
7 1 21.8858 16.0082 3.29392
8 2 21.5277 16.1476 2.26387
9 2 21.2028 15.3051 3.78694
10 2 21.8138 16.9751 3.81684
11 4 2.90345 13.3544 1.19664
12 3 2.84692 11.802 1.73185
13 1 4.62673 14.0486 1.43689
14 2 4.8853 14.1238 2.50201
15 2 5.36878 13.3873 0.972485
16 2 4.7423 15.0464 0.987134
17 1 2.34092 13.4493 19.4475
18 2 2.93829 12.7889 18.7972
19 2 1.28878 13.1449 19.3404
20 2 2.42889 14.4689 19.0415
21 4 3.87988 10.5307 2.00998
22 3 2.92259 9.19504 2.17583
23 1 4.8051 10.8598 3.60271
24 2 4.12388 10.8765 4.46585
25 2 5.56817 10.0887 3.78127
26 2 5.32703 11.8277 3.56269
27 1 5.03072 10.299 0.558264
28 2 5.80259 11.0839 0.516082
29 2 5.57106 9.34348 0.652025
30 2 4.47671 10.2911 19.6172
31 4 2.98799 7.58788 2.52665
32 3 2.71733 6.76356 1.10908
33 1 1.65081 7.15331 3.74958
34 2 0.659485 7.34044 3.31975
35 2 1.70711 6.08817 4.02128
36 2 1.73506 7.74009 4.67639
37 1 4.67138 7.12396 3.18605
38 2 4.85114 7.59697 4.16153
39 2 4.73185 6.03465 3.32144
40 2 5.4837 7.42318 2.5076
41 4 2.3202 5.25267 0.60554
42 3 2.70155 4.22117 1.87452
43 1 0.500421 5.13927 0.222518
44 2 0.239504 5.83459 19.4233
45 2 0.228577 4.13209 19.9057
46 2 21.9125 5.39781 1.11244
47 1 3.40414 4.76499 19.1961
48 2 4.46441 4.8098 19.4919
49 2 3.1985 3.73995 18.8512
50 2 3.27738 5.43077 18.3315
51 4 2.39939 2.81329 2.64296
52 1 1.95192 1.44119 1.43656
53 2 2.86351 1.124 0.903026
54 2 1.53041 0.570534 1.95116
55 2 1.22324 1.78506 0.691671
56 1 3.85432 2.40925 3.76106
57 2 3.99509 3.15764 4.55099
58 2 3.73019 1.42595 4.22984
59 2 4.76305 2.40699 3.13849
60 4 8.3227 15.7867 3.14947
61 3 8.103 14.5908 2.05353
62 1 9.37989 17.2018 2.49816
63 2 9.35295 18.0401 3.20541
64 2 10.4292 16.9421 2.3159
65 2 8.94329 17.5351 1.54137
66 1 6.66013 16.4357 3.74287
67 2 6.1288 16.8306 2.86125
68 2 6.03555 15.6585 4.19769
69 2 6.79777 17.2517 4.4647
70 4 8.84158 13.7373 0.822216
71 3 8.70781 12.1245 1.16236
72 1 10.6387 14.2827 0.722518
73 2 11.1114 14.3226 1.71447
74 2 11.2292 13.6009 0.0991668
75 2 10.7122 15.2847 0.273221
76 1 7.94084 14.124 19.2617
77 2 8.34603 13.5652 18.4057
78 2 6.86916 13.8837 19.3231
79 2 8.01735 15.1944 19.0094
80 4 9.85787 10.9108 1.24015
81 3 9.11151 9.44525 1.49657
82 1 10.9456 11.2878 2.72239
83 2 10.3243 11.4791 3.60532
84 2 11.6258 10.46 2.9679
85 2 11.5734 12.1753 2.5517
86 1 10.7695 10.8699 19.614
87 2 11.8374 11.1063 19.7207
88 2 10.7084 9.88252 19.1279
89 2 10.3534 11.59 18.8908
90 4 9.79762 8.0791 2.17747
91 3 8.95284 6.75347 1.62946
92 1 9.61554 8.17578 4.04274
93 2 9.14756 9.12613 4.33275
94 2 8.96644 7.36849 4.41011
95 2 10.5707 8.10248 4.58453
96 1 11.5644 7.96664 1.50423
97 2 11.5033 7.29475 0.631317
98 2 11.8057 8.95487 1.08223
99 4 8.92228 5.13214 1.92618
100 3 9.20385 4.30531 0.510096
101 1 7.20686 4.63411 2.46269
102 2 6.46106 4.94179 1.71696
103 2 7.14534 3.54156 2.57647
104 2 6.93583 5.08724 3.42439
105 1 10.2326 4.65233 3.18512
106 2 10.0198 3.6622 3.61307
107 2 11.2335 4.6065 2.7323
108 2 10.2811 5.35963 4.02265
109 4 9.82148 2.90507 19.9276
110 1 8.65044 2.15905 18.6612
111 2 8.51874 2.78349 17.7678
112 2 9.0266 1.17255 18.3379
113 2 7.65697 2.02257 19.1318
114 1 10.2386 1.69265 1.2917
115 2 9.38601 1.58893 1.97778
116 2 10.4451 0.705045 0.869375
117 2 11.103 1.98429 1.8992
118 4 14.8293 15.9023 3.71212
119 3 15.0166 14.3627 3.10312
120 1 16.5011 16.712 4.05104
121 2 17.1019 16.0779 4.72179
122 2 17.1043 16.9402 3.16152
123 2 16.3095 17.6608 4.57799
124 1 13.8278 16.9614 2.50943
125 2 14.3376 17.1442 1.55275
126 2 12.8575 16.4898 2.29006
127 2 13.6236 17.9381 2.97594
128 4 15.685 13.5884 1.80771
129 3 15.3729 11.9758 1.95456
130 1 17.5381 13.8753 1.82416
131 2 17.9861 13.49 2.75172
132 2 18.0301 13.3716 0.98051
133 2 17.7872 14.9441 1.75399
134 1 14.8876 14.2023 0.234107
135 2 15.0925 15.2758 0.0664408
136 2 15.2639 13.649 19.3716
137 2 13.7957 14.0776 0.28066
138 4 15.9996 10.4906 1.59636
139 3 14.7708 9.39274 1.74569
140 1 17.3268 10.0751 2.84981
141 2 16.8933 10.1156 3.86091
142 2 17.7276 9.06231 2.69376
143 2 18.1657 10.788 2.81441
144 1 16.6369 10.4665 19.8612
145 2 17.1007 9.49878 19.6244
146 2 15.8327 10.6355 19.1316
147 2 17.4006 11.2423 19.7046
148 4 14.4106 7.78743 1.62216
149 3 15.5612 6.95296 2.48341
150 1 12.7283 7.5265 2.42235
151 2 12.6328 6.47305 2.72662
152 2 12.7389 8.11023 3.35745
153 1 14.4468 7.24453 19.8512
154 2 15.4459 7.36983 19.4036
155 2 14.1878 6.17803 19.7618
156 2 13.7423 7.80275 19.2136
157 4 16.0579 5.44479 2.90644
158 3 15.5493 4.39954 1.70986
159 1 15.1998 4.86562 4.46374
160 2 14.1086 4.94667 4.3452
161 2 15.4366 3.80913 4.6649
162 2 15.4859 5.4516 5.34858
163 1 17.9226 5.44302 3.00693
164 2 18.2812 6.12372 3.79106
165 2 18.3264 4.44371 3.22698
166 2 18.3547 5.77763 2.05228
167 4 15.8797 3.11396 0.758548
168 1 14.3612 2.50775 19.8912
169 2 13.9475 3.1981 19.1409
170 2 14.5724 1.55336 19.3846
171 2 13.5706 2.33087 0.633215
172 1 16.7324 1.73302 1.72131
173 2 16.1347 1.52066 2.62272
174 2 16.7732 0.830348 1.10051
175 2 17.7544 1.9748 2.04214
176 4 4.69682 16.0393 9.25454
177 3 4.94316 14.4748 8.82214
178 1 6.01045 17.1784 8.51984
179 2 6.9552 17.2076 9.07656
180 2 6.23481 16.8434 7.49414
181 2 5.60961 18.1978 8.48203
182 1 2.97727 16.5802 8.73095
183 2 2.93804 16.5296 7.63135
184 2 2.18397 15.9382 9.12962
185 2 2.78651 17.6154 9.04269
186 4 6.24553 13.5216 8.38231
187 3 5.92943 11.9842 8.86796
188 1 7.76863 14.1647 9.27187
189 2 7.50945 14.4242 10.31
190 2 8.55183 13.3979 9.31374
191 2 8.21194 15.0551 8.80542
192 1 6.3068 13.5806 6.51302
193 2 6.89347 12.7507 6.09554
194 2 5.28494 13.5025 6.11255
195 2 6.74732 14.5176 6.14126
196 4 6.78683 10.6492 9.37203
197 3 5.90813 9.3131 9.00018
198 1 6.93357 10.7234 11.2246
199 2 5.94262 10.7078 11.6936
200 2 7.49634 9.86215 11.6087
201 2 7.44932 11.6395 11.55
202 1 8.45691 10.5995 8.51969
203 2 8.87522 9.58295 8.55571
204 2 8.3964 10.889 7.46123
205 2 9.1908 11.2612 9.0007
206 4 5.57469 8.20428 7.82701
207 3 5.98573 6.71416 8.41274
208 1 3.73662 8.24203 7.48549
209 2 3.43278 9.21262 7.06619
210 2 3.43756 7.45661 6.77443
211 2 3.16683 8.08726 8.41413
212 1 6.62039 8.60435 6.32513
213 2 7.68934 8.51289 6.56657
214 2 6.42028 7.93682 5.47632
215 2 6.43699 9.63484 5.98405
216 4 6.06875 5.1102 8.03985
217 3 7.06393 4.40002 9.14801
218 1 4.36054 4.32998 8.10799
219 2 3.97902 4.13194 7.09492
220 2 4.37471 3.37023 8.64377
221 2 3.63874 4.98627 8.61224
222 1 6.81358 4.95287 6.3231
223 2 7.856 5.30126 6.30828
224 2 6.79012 3.92103 5.94257
225 2 6.24683 5.57187 5.61213
226 4 7.66747 3.05706 9.92371
227 1 6.54738 1.57212 9.59673
228 2 6.98528 0.674693 10.06
229 2 5.53298 1.69269 10.0011
230 2 6.45455 1.37535 8.51795
231 1 9.36509 2.6294 9.1894
232 2 9.75547 1.74696 9.72434
233 2 10.0481 3.45552 9.44337
234 4 13.6952 15.94 5.79534
235 3 12.9154 14.5078 6.07991
236 1 14.8891 16.2518 7.22256
237 2 14.366 16.2902 8.18972
238 2 15.651 15.4609 7.28762
239 2 15.4077 17.2117 7.08036
240 1 12.4615 17.3703 5.68357
241 2 11.7682 17.2189 4.84305
242 2 11.8699 17.5067 6.5998
243 2 13.0037 18.3098 5.49366
244 4 11.6191 13.7898 6.80945
245 3 11.7671 12.1689 6.58508
246 1 11.6426 14.1831 8.64228
247 2 10.9079 13.5527 9.15977
248 2 12.6278 13.9912 9.08647
249 2 11.3778 15.2332 8.83966
250 1 10.0531 14.3362 5.95626
251 2 10.1463 14.1022 4.88536
252 2 9.16177 13.8191 6.33306
253 2 9.88915 15.4194 6.05769
254 4 13.0946 11.1796 6.50638
255 3 12.5189 9.64129 6.72182
256 1 14.2597 11.6611 7.9077
257 2 13.7848 11.5996 8.89689
258 2 15.1541 11.0218 7.91597
259 2 14.6065 12.6979 7.76704
260 1 13.9514 11.3103 4.85537
261 2 14.9621 11.7297 4.96972
262 2 14.0429 10.3383 4.35813
263 2 13.4159 11.982 4.17262
264 4 12.9513 8.36376 7.66384
265 3 11.9569 7.08337 7.29846
266 1 12.7124 8.83441 9.46564
267 2 11.7944 9.43049 9.57444
268 2 12.6237 7.96601 10.1321
269 2 13.5475 9.44271 9.83764
270 1 14.6908 7.87173 7.21952
271 2 15.0692 7.02894 7.81206
272 2 14.7161 7.57774 6.16007
273 2 15.3907 8.70754 7.34281
274 4 11.5914 5.74254 8.19182
275 3 11.1087 4.5545 7.14062
276 1 10.2082 6.17269 9.3748
277 2 9.21296 5.93255 8.97452
278 2 10.3058 5.65868 10.3431
279 2 10.2334 7.2517 9.5794
280 1 13.1225 5.10912 9.07937
281 2 12.8771 4.25913 9.73433
282 2 13.8899 4.77484 8.36706
283 2 13.5703 5.8873 9.71342
284 4 10.9293 2.95183 6.84978
285 1 9.31576 2.36448 7.6548
286 2 9.1362 1.30518 7.42996
287 2 8.49856 2.92435 7.18124
288 1 12.4425 1.98309 7.42214
289 2 12.5358 2.10564 8.51572
290 2 12.3488 0.914464 7.19586
291 2 13.3661 2.35513 6.96062
292 4 20.2477 15.8608 7.4356
293 3 20.4286 14.7617 8.62711
294 1 21.8438 16.7432 7.07422
295 2 0.157851 17.2066 8.01152
296 2 0.637451 16.0776 6.73092
297 2 21.6794 17.5307 6.32459
298 1 18.8008 17.0318 7.71102
299 2 17.819 16.6015 7.47417
300 2 18.7816 17.3306 8.7719
301 2 18.9416 17.9201 7.08324
302 4 19.5959 13.5311 9.40025
303 3 19.9427 12.1358 8.59457
304 1 20.1981 13.421 11.1692
305 2 19.3608 13.5569 11.87
306 2 20.6301 12.4295 11.3617
307 2 20.9626 14.1713 11.4106
308 1 17.7659 13.9418 9.31329
309 2 17.4243 14.1127 8.28282
310 2 17.1469 13.1401 9.7387
311 2 17.5462 14.8566 9.89023
312 4 19.0171 10.8997 7.98232
313 3 20.0089 9.65824 7.52678
314 1 17.8872 10.2924 9.35548
315 2 16.8203 10.3842 9.10664
316 2 18.0828 9.23474 9.57843
317 2 18.0564 10.8544 10.2857
318 1 18.1497 11.5531 6.45573
319 2 18.903 11.9419 5.75271
320 2 17.5857 10.7688 5.93261
321 2 17.4491 12.3696 6.68036
322 4 19.8533 8.296 6.59567
323 3 20.6531 7.06 7.35943
324 1 18.0553 7.79646 6.4319
325 2 17.528 8.37674 5.66219
326 2 17.9733 6.73575 6.15228
327 2 17.5136 7.92618 7.37792
328 1 20.626 8.60999 4.93447
329 2 21.6657 8.94905 5.02798
330 2 20.6154 7.69866 4.31959
331 2 20.0639 9.38612 4.39442
332 4 20.3745 5.71185 8.25299
333 3 19.7717 4.5227 7.23855
334 1 19.0253 6.01086 9.52039
335 2 18.0552 6.15123 9.02526
336 2 18.9277 5.1549 10.2044
337 2 19.2305 6.90228 10.13
338 1 21.9806 5.15783 8.99993
339 2 0.390783 5.95095 9.62344
340 2 21.841 4.26583 9.63527
341 2 0.70414 4.91654 8.22128
342 4 19.513 2.91033 7.13562
343 1 17.9335 2.58665 6.16237
344 2 17.9991 2.93355 5.12485
345 2 17.697 1.51545 6.15845
346 2 17.1128 3.13766 6.65102
347 1 19.4793 2.08059 8.83169
348 2 18.8141 2.65263 9.50107
349 2 19.0864 1.06103 8.73397
350 2 20.4655 2.01967 9.30964
351 4 1.60072 15.9607 14.3723
352 3 1.58445 14.6884 13.3641
353 1 3.20142 16.945 14.3239
354 2 4.05887 16.4068 14.7484
355 2 3.44363 17.1679 13.2704
356 2 3.07946 17.8859 14.8722
357 1 0.0504559 16.9707 14.229
358 2 21.9019 17.1698 13.167
359 2 21.1679 16.4489 14.605
360 2 0.161731 17.9203 14.7687
361 4 2.50538 13.5405 12.5725
362 3 2.40019 12.1504 13.4475
363 1 4.28068 14.1472 12.4831
364 2 4.72901 14.3187 13.471
365 2 4.89903 13.4056 11.9574
366 2 4.35105 15.0847 11.9048
367 1 1.77726 13.3093 10.8676
368 2 2.56414 13.031 10.1515
369 2 1.02423 12.5101 10.8671
370 2 1.29753 14.2233 10.4939
371 4 3.30985 10.7552 13.4859
372 3 2.54532 9.61859 14.4093
373 1 4.91353 11.1797 14.3528
374 2 4.66075 11.6295 15.3264
375 2 5.51824 10.286 14.5506
376 2 5.54236 11.8965 13.8101
377 1 3.39574 10.1131 11.7252
378 2 3.7834 10.8537 11.0123
379 2 4.00842 9.20703 11.6171
380 2 2.37284 9.85836 11.4072
381 4 2.84865 8.05947 14.8702
382 3 1.96233 7.05665 13.8965
383 1 2.2678 7.84366 16.6272
384 2 1.21936 8.15574 16.7376
385 2 2.33691 6.78578 16.9194
386 2 2.87479 8.43075 17.332
387 1 4.66258 7.61811 14.6428
388 2 5.31644 8.11245 15.375
389 2 4.78971 6.53149 14.7539
390 2 5.0223 7.88848 13.637
391 4 2.0361 5.61903 13.1095
392 3 3.09855 4.62975 13.9213
393 1 0.351847 4.84434 13.1093
394 2 0.372618 3.84163 12.644
395 2 21.9802 4.74286 14.1264
396 2 21.6457 5.45791 12.5454
397 1 2.74401 5.89288 11.4018
398 2 3.80312 6.18137 11.4493
399 2 2.66991 4.98672 10.7823
400 2 2.20241 6.69755 10.8821
401 4 3.58085 3.11929 14.3443
402 1 2.79894 1.83696 13.1922
403 2 3.36552 0.898079 13.2325
404 2 1.75072 1.6082 13.425
405 2 2.83451 2.22808 12.1618
406 1 5.47986 3.04774 14.2276
407 2 5.79223 2.02663 14.4872
408 2 5.93091 3.71838 14.9677
409 4 10.4157 15.1983 12.2059
410 3 10.673 14.1368 13.4225
411 1 12.0113 16.1356 11.8544
412 2 12.3599 16.5636 12.8073
413 2 12.8029 15.4862 11.4588
414 2 11.8382 16.9495 11.1375
415 1 8.98472 16.3827 12.5556
416 2 7.99664 15.9062 12.514
417 2 9.11083 16.8074 13.5652
418 2 9.0006 17.2054 11.8283
419 4 10.115 13.2257 14.7011
420 3 10.5741 11.6601 14.4811
421 1 10.9657 13.8795 16.2257
422 2 10.7585 13.2492 17.1035
423 2 12.0528 13.9049 16.0778
424 2 10.6335 14.9023 16.457
425 1 8.25277 13.3919 14.7751
426 2 7.78827 13.0639 13.8332
427 2 7.82449 12.7808 15.5819
428 2 7.95156 14.4358 14.9496
429 4 10.1067 10.2157 13.8006
430 3 11.1245 9.03425 14.3336
431 1 8.39399 9.795 14.4011
432 2 7.63143 10.4751 14.0073
433 2 8.11816 8.76962 14.1189
434 2 8.36849 9.8612 15.4991
435 1 10.3315 10.3799 11.9554
436 2 11.3976 10.5463 11.7454
437 2 10.0186 9.47087 11.422
438 2 9.77461 11.2295 11.5403
439 4 11.3684 7.4218 14.5747
440 3 10.1249 6.54604 13.903
441 1 11.4449 7.16768 16.4317
442 2 10.5224 7.53044 16.9108
443 2 11.5941 6.12069 16.7346
444 2 12.2808 7.75493 16.8419
445 1 12.9888 7.00819 13.7206
446 2 13.2263 5.93621 13.8012
447 2 12.8414 7.20988 12.6459
448 4 9.41522 5.08072 14.2251
449 3 8.59369 4.57893 12.8829
450 1 8.22901 5.30758 15.6607
451 2 7.39487 5.97266 15.3949
452 2 7.80339 4.34883 15.9895
453 2 8.75087 5.74864 16.5217
454 1 10.7684 3.83849 14.6213
455 2 10.3617 2.88263 14.9802
456 2 11.3659 3.62934 13.7219
457 2 11.4468 4.22163 15.3977
458 4 7.71508 3.28827 12.2861
459 1 5.88756 3.43218 12.7873
460 2 5.3578 2.78993 12.0605
461 2 5.56613 4.46183 12.5569
462 1 8.45489 1.67222 12.9268
463 2 8.44476 1.59221 14.0245
464 2 7.89784 0.812243 12.5265
465 2 9.49939 1.57136 12.5984
466 4 17.0759 16.1474 12.4777
467 3 17.1972 14.8276 13.4441
468 1 18.7595 16.9905 12.3836
469 2 19.055 17.2485 13.4126
470 2 19.5395 16.3481 11.9592
471 2 18.6993 17.9142 11.7941
472 1 15.7576 17.3724 13.0603
473 2 14.726 17.0766 12.8335
474 2 15.8425 17.4896 14.1533
475 2 15.9446 18.3434 12.5836
476 4 16.397 13.8759 14.5542
477 3 16.5704 12.2919 14.1224
478 1 17.2241 14.168 16.2025
479 2 16.7505 13.562 16.9892
480 2 18.2876 13.8929 16.1645
481 2 17.1534 15.2237 16.5054
482 1 14.5818 14.3537 14.5527
483 2 14.1783 14.3734 13.5307
484 2 13.9848 13.6283 15.1215
485 2 14.4145 15.3427 15.0023
486 4 15.5152 11.0067 14.2023
487 3 16.3496 9.59401 13.9339
488 1 14.7545 10.9597 15.9267
489 2 13.6545 10.9735 15.8912
490 2 15.0597 10.0484 16.4612
491 2 15.0783 11.8168 16.5345
492 1 14.2523 11.2465 12.831
493 2 14.7621 11.562 11.9076
494 2 13.6903 10.329 12.606
495 2 13.5133 12.0169 13.0903
496 4 15.7426 8.13132 13.4133
497 3 16.7544 6.89833 13.87
498 1 14.1075 7.89581 14.3132
499 2 14.3862 7.53251 15.3185
500 2 13.7005 8.9057 14.4799
501 1 15.6976 8.16955 11.5433
502 2 15.4302 9.1692 11.1778
503 2 16.7011 7.94044 11.1551
504 2 14.9968 7.44693 11.1057
505 4 17.1014 5.33408 13.5057
506 3 16.5479 4.37085 14.7574
507 1 16.2256 4.74279 11.9539
508 2 16.4571 3.68082 11.7743
509 2 15.1334 4.83004 12.0491
510 2 16.5327 5.2995 11.0594
511 1 18.95 5.17345 13.4029
512 2 19.417 5.41377 14.3687
513 2 19.2615 4.15671 13.1203
514 2 19.3547 5.87012 12.655
515 4 16.2704 2.77121 14.969
516 1 14.557 2.27692 14.3825
517 2 14.4239 2.4777 13.3112
518 2 14.3843 1.20627 14.5518
519 2 13.7863 2.84943 14.9251
520 1 16.6754 2.26399 16.7268
521 2 16.0776 2.87192 17.4271
522 2 16.4431 1.20227 16.886
523 2 17.7338 2.43023 16.9637
ITEM: TIMESTEP
284
ITEM: NUMBER OF ATOMS
523
ITEM: BOX BOUNDS pp pp pp
0.0000000000000000e+00 2.2000000000000000e+01
0.0000000000000000e+00 1.9079962999999999e+01
0.0000000000000000e+00 2.0000000000000000e+01
ITEM: ATOMS id type x y z
1 4 1.31803 15.112 3.02238
2 3 1.56585 14.0283 1.82748
3 1 2.35382 16.673 2.81037
4 2 3.42382 16.5191 2.99762
5 2 2.24331 17.0318 1.77456
6 2 1.99342 17.4432 3.50235
7 1 21.5123 15.4641 3.25187
8 2 21.0806 15.7032 2.26722
9 2 20.9254 14.6329 3.66886
10 2 21.3706 16.3375 3.90644
11 4 2.70649 13.2471 0.891419
12 3 2.84827 11.7112 1.44436
13 1 4.34221 14.1405 1.06801
14 2 4.64664 14.2022 2.12189
15 2 5.13004 13.5897 0.539983
16 2 4.31391 15.1589 0.656448
17 1 2.06322 13.2493 19.1662
18 2 2.75346 12.7408 18.4748
19 2 1.09377 12.7325 19.0951
20 2 1.91822 14.2719 18.7836
21 4 3.92923 10.4934 1.76538
22 3 3.01778 9.13113 1.94902
23 1 4.82155 10.889 3.36148
24 2 4.1192 10.9535 4.20546
25 2 5.57004 10.1186 3.59776
26 2 5.35691 11.8476 3.28907
27 1 5.10919 10.2827 0.334253
28 2 5.82446 11.1193 0.280995
29 2 5.71433 9.37049 0.465839
30 2 4.57657 10.2058 19.384
31 4 3.01587 7.53159 2.31742
32 3 2.91417 6.69361 0.881974
33 1 1.52841 7.13902 3.37103
34 2 0.593315 7.41804 2.86695
35 2 1.4824 6.06374 3.60221
36 2 1.56592 7.68158 4.32684
37 1 4.59582 7.05467 3.19113
38 2 4.64837 7.53736 4.17773
39 2 4.63745 5.96636 3.34218
40 2 5.49077 7.34636 2.62258
41 4 2.45034 5.21126 0.341375
42 3 2.75436 4.12736 1.58794
43 1 0.657449 5.18446 19.9234
44 2 0.424451 5.90621 19.1221
45 2 0.345724 4.19405 19.5522
46 2 0.0265957 5.43729 0.779729
47 1 3.53038 4.71793 18.93
48 2 4.5941 4.72121 19.2184
49 2 3.29142 3.70408 18.5687
50 2 3.42725 5.39733 18.0693
51 4 2.28965 2.82182 2.45436
52 1 1.80135 1.38553 1.34692
53 2 2.62315 1.19664 0.636474
54 2 1.63181 0.479463 1.9398
55 2 0.894209 1.58631 0.763139
56 1 3.62645 2.4071 3.70652
57 2 3.69169 3.13763 4.52271
58 2 3.44992 1.41616 4.14258
59 2 4.59387 2.40997 3.17917
60 4 8.1294 15.7382 2.97626
61 3 7.98281 14.5883 1.83022
62 1 9.31565 17.1189 2.49752
63 2 9.17806 17.9765 3.1682
64 2 10.3727 16.8259 2.52577
65 2 9.08421 17.432 1.46644
66 1 6.43972 16.3934 3.47755
67 2 5.92016 16.7112 2.55915
68 2 5.81645 15.6401 3.97471
69 2 6.5491 17.2589 4.14352
70 4 8.76044 13.7483 0.609298
71 3 8.78078 12.1572 1.04815
72 1 10.4863 14.4406 0.394788
73 2 11.0419 14.4548 1.34691
74 2 11.0513 13.8382 19.6842
75 2 10.4357 15.4619 20.0156
76 1 7.75212 13.9684 19.0814
77 2 8.23664 13.5138 18.2039
78 2 6.75754 13.5098 19.1698
79 2 7.60044 15.0333 18.8441
80 4 9.95412 10.9695 1.07894
81 3 9.2471 9.53091 1.5119
82 1 11.2092 11.4585 2.38494
83 2 10.6991 11.7159 3.32442
84 2 11.9203 10.6526 2.60741
85 2 11.806 12.328 2.07575
86 1 10.664 10.8135 19.3657
87 2 11.5941 11.3907 19.2395
88 2 10.8986 9.77213 19.1011
89 2 9.95148 11.1731 18.6073
90 4 9.9433 8.17591 2.19179
91 3 9.03698 6.86484 1.72472
92 1 9.8743 8.32557 4.0515
93 2 10.0282 9.36188 4.38056
94 2 8.88464 8.00875 4.41008
95 2 10.6272 7.70729 4.56006
96 1 11.6838 8.00152 1.46149
97 2 11.5958 7.31527 0.601688
98 2 11.9425 8.97781 1.02149
99 4 8.9821 5.229 1.8956
100 3 9.4516 4.52184 0.472978
101 1 7.22138 4.69416 2.21811
102 2 6.5258 5.09334 1.46764
103 2 7.14896 3.59578 2.2042
104 2 6.89212 5.03835 3.20841
105 1 10.1185 4.66574 3.27657
106 2 10.0104 3.58696 3.46082
107 2 11.1763 4.86197 3.0504
108 2 9.87768 5.18553 4.21376
109 4 9.97484 3.17858 19.7081
110 1 8.6043 2.5186 18.5942
111 2 8.40252 3.17728 17.7432
112 2 8.87065 1.52869 18.2063
113 2 7.67698 2.43788 19.183
114 1 10.5592 1.85901 0.897869
115 2 9.70111 1.54589 1.51479
116 2 10.9183 0.968544 0.358254
117 2 11.3538 2.18687 1.58381
118 4 14.9336 15.94 3.46685
119 3 15.12 14.3891 2.87222
120 1 16.6253 16.7094 3.81254
121 2 17.2034 16.1046 4.52708
122 2 17.2303 16.8348 2.90286
123 2 16.4856 17.7053 4.26164
124 1 14.0228 17.0018 2.19797
125 2 14.6161 17.1575 1.28469
126 2 13.0666 16.5448 1.90249
127 2 13.799 17.9906 2.62762
128 4 15.8006 13.5753 1.60549
129 3 15.5012 11.9618 1.81111
130 1 17.659 13.8661 1.61995
131 2 18.0802 13.5978 2.59924
132 2 18.167 13.2642 0.852786
133 2 17.9056 14.9201 1.42785
134 1 15.0292 14.1267 20.0155
135 2 15.2607 15.1808 19.79
136 2 15.4095 13.5345 19.1664
137 2 13.9423 14.0208 0.0368943
138 4 16.1423 10.4743 1.47324
139 3 14.9292 9.36693 1.67014
140 1 17.5306 10.1039 2.67288
141 2 17.1946 10.2506 3.70818
142 2 17.8723 9.06459 2.56933
143 2 18.3913 10.7661 2.49903
144 1 16.7253 10.4292 19.714
145 2 17.1818 9.46044 19.4594
146 2 15.8931 10.5911 19.013
147 2 17.4838 11.1993 19.5091
148 4 14.5255 7.76817 1.57633
149 3 15.6689 6.91313 2.42643
150 1 12.8421 7.54736 2.38069
151 2 12.7254 6.49347 2.68002
152 2 12.8522 8.12275 3.321
153 1 14.5396 7.21741 19.8051
154 2 15.5466 7.31399 19.3701
155 2 14.2386 6.16325 19.7021
156 2 13.8572 7.81547 19.1818
157 4 16.1537 5.41007 2.87383
158 3 15.5601 4.31637 1.75969
159 1 15.3911 4.96382 4.51947
160 2 14.3019 5.1086 4.48701
161 2 15.5858 3.91307 4.77828
162 2 15.788 5.59362 5.3284
163 1 18.0214 5.37043 2.8446
164 2 18.4481 6.08116 3.56542
165 2 18.4202 4.37356 3.08152
166 2 18.3884 5.64893 1.84573
167 4 15.9276 3.05761 0.775464
168 1 14.4447 2.53574 19.7966
169 2 14.0348 3.3136 19.1322
170 2 14.6633 1.65025 19.1797
171 2 13.6502 2.26524 0.503276
172 1 16.687 1.62916 1.74936
173 2 16.0146 1.37595 2.58538
174 2 16.8001 0.749314 1.10491
175 2 17.6712 1.87232 2.16957
176 4 4.77808 16.0287 9.15204
177 3 5.03717 14.4626 8.74704
178 1 6.0211 17.1925 8.33727
179 2 7.00262 17.2157 8.82689
180 2 6.17547 16.8796 7.2909
181 2 5.61714 18.2117 8.34803
182 1 3.01251 16.5048 8.72291
183 2 2.88364 16.3631 7.6375
184 2 2.26875 15.8836 9.23493
185 2 2.82518 17.558 8.96912
186 4 6.29176 13.4501 8.3118
187 3 5.98242 11.9694 8.95074
188 1 7.88232 14.131 9.02744
189 2 7.76379 14.3116 10.1075
190 2 8.70703 13.4173 8.90604
191 2 8.19713 15.0746 8.56048
192 1 6.26061 13.351 6.44494
193 2 6.98105 12.612 6.06579
194 2 5.26141 13.0544 6.09501
195 2 6.50939 14.3194 5.98652
196 4 6.7866 10.5954 9.4351
197 3 5.87872 9.29856 8.99904
198 1 6.89511 10.612 11.2907
199 2 5.89604 10.5917 11.7407
200 2 7.44392 9.73465 11.6584
201 2 7.41362 11.5124 11.6514
202 1 8.47692 10.5116 8.62869
203 2 8.87671 9.48905 8.69601
204 2 8.45445 10.782 7.56362
205 2 9.19854 11.1732 9.12819
206 4 5.51526 8.20796 7.81804
207 3 5.87461 6.70587 8.40531
208 1 3.68119 8.31767 7.47597
209 2 3.4013 9.3291 7.14606
210 2 3.36261 7.60825 6.69732
211 2 3.10907 8.09246 8.38772
212 1 6.57306 8.56352 6.31391
213 2 7.63998 8.44894 6.55362
214 2 6.34776 7.88567 5.47962
215 2 6.41498 9.59178 5.95458
216 4 5.97323 5.0955 8.08145
217 3 6.95438 4.42288 9.22226
218 1 4.26933 4.32651 8.15221
219 2 3.61233 4.77972 7.39409
220 2 4.30481 3.24411 7.95912
221 2 3.79352 4.48028 9.13023
222 1 6.71113 4.86301 6.36888
223 2 7.74688 5.22849 6.31302
224 2 6.70443 3.80739 6.05855
225 2 6.12014 5.42041 5.62666
226 4 7.591 3.09164 9.99178
227 1 6.48808 1.59865 9.65319
228 2 6.90958 0.696304 10.1215
229 2 5.47356 1.73849 10.0536
230 2 6.39647 1.40277 8.57421
231 1 9.30876 2.75264 9.25807
232 2 9.77229 1.91492 9.80525
233 2 9.92517 3.63654 9.4887
234 4 13.7297 15.9696 5.5181
235 3 12.9005 14.5501 5.7486
236 1 14.9198 16.2314 6.96071
237 2 14.3885 16.2401 7.9248
238 2 15.6823 15.4394 7.00002
239 2 15.4438 17.1936 6.85311
240 1 12.5158 17.4186 5.48683
241 2 11.7922 17.3366 4.66283
242 2 11.9543 17.4974 6.43078
243 2 13.0684 18.3601 5.34499
244 4 11.6348 13.8358 6.53291
245 3 11.8318 12.2037 6.41349
246 1 11.6569 14.3598 8.33806
247 2 10.9599 13.7614 8.9416
248 2 12.6606 14.2325 8.76845
249 2 11.3719 15.4161 8.45905
250 1 10.0442 14.2952 5.66621
251 2 10.1015 13.9926 4.60975
252 2 9.16589 13.8049 6.10649
253 2 9.87862 15.3828 5.70379
254 4 13.1649 11.2146 6.44054
255 3 12.6113 9.67769 6.72488
256 1 14.2592 11.7778 7.86559
257 2 13.6982 11.8134 8.81074
258 2 15.1289 11.1216 8.00889
259 2 14.646 12.7893 7.66847
260 1 14.0652 11.2674 4.81049
261 2 15.1529 11.3084 4.97037
262 2 13.8557 10.3919 4.18207
263 2 13.7986 12.1654 4.2385
264 4 12.9765 8.45199 7.76195
265 3 12.0299 7.14105 7.37587
266 1 12.5608 8.9996 9.50446
267 2 11.5863 9.50844 9.50611
268 2 12.5044 8.16526 10.2174
269 2 13.3043 9.70866 9.89291
270 1 14.7615 7.94905 7.53141
271 2 15.0037 7.04594 8.10999
272 2 14.9565 7.73149 6.47081
273 2 15.4555 8.74143 7.84398
274 4 11.5245 5.8592 8.28265
275 3 11.0854 4.65846 7.22474
276 1 10.0476 6.35833 9.31878
277 2 9.09393 6.07776 8.85169
278 2 10.0677 5.89754 10.3176
279 2 10.0412 7.44724 9.46455
280 1 12.9401 5.17818 9.31589
281 2 12.6019 4.34481 9.95019
282 2 13.7498 4.80373 8.673
283 2 13.3659 5.9421 9.98169
284 4 10.8803 3.06688 6.92005
285 1 9.27774 2.45894 7.73014
286 2 9.14353 1.38919 7.52381
287 2 8.44252 2.97633 7.24129
288 1 12.3967 2.06674 7.41965
289 2 12.4998 2.12495 8.51665
290 2 12.2962 1.01373 7.13203
291 2 13.3153 2.46534 6.97087
292 4 20.0362 15.7923 7.60758
293 3 20.1604 14.7347 8.84274
294 1 21.7003 16.4676 7.12163
295 2 0.121125 16.9434 8.00986
296 2 0.388641 15.6913 6.78317
297 2 21.5884 17.2244 6.33163
298 1 18.7462 17.1207 7.93825
299 2 17.7167 16.7402 7.93067
300 2 18.9362 17.5517 8.9353
301 2 18.8247 17.911 7.18118
302 4 19.3624 13.4646 9.58096
303 3 19.6591 12.1287 8.66506
304 1 20.0593 13.2523 11.3043
305 2 19.2795 13.4281 12.0596
306 2 20.43 12.2273 11.4431
307 2 20.8914 13.9384 11.5143
308 1 17.5285 13.8599 9.61681
309 2 17.1098 14.0338 8.61594
310 2 16.9562 13.0453 10.0825
311 2 17.3331 14.7687 10.2152
312 4 18.7936 10.8477 8.06727
313 3 19.8598 9.68842 7.58047
314 1 17.7506 10.1404 9.45244
315 2 16.7955 10.6685 9.58344
316 2 17.5192 9.08144 9.26983
317 2 18.2935 10.1975 10.4081
318 1 17.8189 11.4437 6.58505
319 2 18.5089 11.749 5.78404
320 2 17.1633 10.659 6.18205
321 2 17.1854 12.3087 6.82553
322 4 19.9256 8.39067 6.55756
323 3 20.8178 7.21244 7.31101
324 1 18.2147 7.69801 6.21797
325 2 17.6674 8.29191 5.47169
326 2 18.2973 6.6728 5.8284
327 2 17.596 7.65209 7.12564
328 1 20.7865 8.8909 4.988
329 2 21.7885 9.29588 5.18552
330 2 20.8921 8.03038 4.31308
331 2 20.2058 9.6615 4.45927
332 4 20.6742 5.88495 8.26317
333 3 19.9267 4.68563 7.36451
334 1 19.5428 6.2262 9.71938
335 2 18.5246 6.45201 9.37096
336 2 19.4824 5.35545 10.3876
337 2 19.8981 7.08473 10.3064
338 1 0.355088 5.32647 8.76041
339 2 0.892836 6.10643 9.31954
340 2 0.323228 4.43087 9.39953
341 2 0.969749 5.08032 7.88133
342 4 19.7059 3.07038 7.21393
343 1 18.1708 2.74096 6.1772
344 2 18.2508 3.13855 5.15915
345 2 17.9722 1.66346 6.1188
346 2 17.3197 3.24037 6.66915
347 1 19.6128 2.208 8.8874
348 2 18.7943 2.66446 9.47095
349 2 19.3947 1.14114 8.7521
350 2 20.5377 2.29642 9.47176
351 4 1.51638 15.7141 14.5487
352 3 1.50171 14.6435 13.3196
353 1 3.02104 16.8511 14.4998
354 2 3.94939 16.3575 14.8143
355 2 3.16542 17.204 13.4662
356 2 2.84892 17.7101 15.1588
357 1 21.9077 16.6156 14.6828
358 2 21.7408 17.1645 13.7425
359 2 21.0374 15.9606 14.8403
360 2 21.9329 17.3527 15.4993
361 4 2.42071 13.4959 12.529
362 3 2.34428 12.1304 13.444
363 1 4.18496 14.1218 12.3849
364 2 4.65574 14.3033 13.3609
365 2 4.80245 13.3912 11.8417
366 2 4.22579 15.063 11.8102
367 1 1.66888 13.2168 10.8417
368 2 2.43501 12.8399 10.1476
369 2 0.857909 12.4791 10.8821
370 2 1.261 14.1431 10.4134
371 4 3.21322 10.7212 13.5672
372 3 2.40671 9.68051 14.5613
373 1 4.84137 11.1415 14.3845
374 2 4.63757 11.571 15.3779
375 2 5.46852 10.2529 14.5305
376 2 5.42831 11.8771 13.819
377 1 3.30031 9.97397 11.8523
378 2 3.68522 10.6798 11.1031
379 2 3.92847 9.07389 11.803
380 2 2.28336 9.68768 11.5428
381 4 2.5653 8.16462 15.1979
382 3 1.85866 7.09134 14.1521
383 1 1.63922 8.12103 16.8149
384 2 0.589608 8.41739 16.6776
385 2 1.65446 7.10794 17.2422
386 2 2.09112 8.80286 17.5507
387 1 4.37279 7.6969 15.3954
388 2 4.88964 8.34326 16.1197
389 2 4.46241 6.65779 15.7436
390 2 4.91467 7.76751 14.4398
391 4 2.06949 5.73942 13.2503
392 3 3.06844 4.70522 14.0844
393 1 0.422952 4.92773 12.9701
394 2 0.538759 4.00344 12.3778
395 2 21.9528 4.67296 13.9197
396 2 21.7588 5.59661 12.4243
397 1 2.94113 6.15081 11.651
398 2 3.96686 6.50191 11.8254
399 2 2.99739 5.26563 11.0029
400 2 2.40684 6.93618 11.0991
401 4 3.54126 3.20834 14.5457
402 1 2.62744 1.88665 13.552
403 2 3.06783 0.897246 13.7235
404 2 1.55761 1.83152 13.7919
405 2 2.71829 2.13445 12.4802
406 1 5.42442 3.0654 14.3343
407 2 5.69386 2.01961 14.5412
408 2 5.93627 3.67683 15.0863
409 4 10.4473 14.9102 12.3431
410 3 10.7073 13.9086 13.6124
411 1 12.0504 15.8277 11.9672
412 2 12.378 16.3185 12.8991
413 2 12.8525 15.1588 11.6302
414 2 11.8892 16.593 11.1971
415 1 9.03366 16.1196 12.6781
416 2 8.05342 15.6329 12.7638
417 2 9.23744 16.6386 13.6306
418 2 8.97724 16.8687 11.8777
419 4 10.151 13.0574 14.9283
420 3 10.4937 11.4662 14.7185
421 1 11.1232 13.6663 16.3977
422 2 10.9056 13.0636 17.2905
423 2 12.2016 13.5981 16.1986
424 2 10.8889 14.7162 16.6275
425 1 8.30695 13.3288 15.096
426 2 7.78397 13.0781 14.1613
427 2 7.88017 12.6966 15.8873
428 2 8.07194 14.3753 15.3399
429 4 10.0598 10.0548 13.9625
430 3 11.078 8.88343 14.5062
431 1 8.32402 9.596 14.4673
432 2 7.58399 10.3248 14.1158
433 2 8.04691 8.6083 14.0702
434 2 8.25615 9.54784 15.5649
435 1 10.3298 10.2843 12.1311
436 2 11.3947 10.4774 11.9402
437 2 10.0415 9.39246 11.5573
438 2 9.76384 11.1394 11.7376
439 4 11.4037 7.28606 14.7406
440 3 10.2283 6.36659 14.013
441 1 11.4455 7.00642 16.5944
442 2 10.5035 7.33653 17.0561
443 2 11.6126 5.95774 16.8791
444 2 12.2553 7.60453 17.0384
445 1 13.062 6.97733 13.9211
446 2 13.3946 5.93717 14.0673
447 2 12.9043 7.09791 12.8352
448 4 9.41935 4.95761 14.3333
449 3 8.57564 4.51057 12.9862
450 1 8.22468 5.28851 15.7415
451 2 7.51085 6.08174 15.4747
452 2 7.64529 4.39323 16.0043
453 2 8.76258 5.6094 16.6456
454 1 10.6846 3.63778 14.7594
455 2 10.2196 2.69103 15.0674
456 2 11.3279 3.4263 13.8919
457 2 11.3314 3.97069 15.5849
458 4 7.62462 3.28349 12.3663
459 1 5.81111 3.49744 12.9016
460 2 5.22887 2.91893 12.1612
461 2 5.5353 4.55072 12.7331
462 1 8.27485 1.61678 12.9754
463 2 8.25398 1.52078 14.0716
464 2 7.66619 0.799536 12.5589
465 2 9.3126 1.45528 12.6489
466 4 17.1479 16.2097 12.5357
467 3 17.3276 14.9009 13.5018
468 1 18.8253 17.0464 12.3215
469 2 19.1895 17.3036 13.329
470 2 19.5726 16.401 11.8439
471 2 18.7273 17.9698 11.7364
472 1 15.8623 17.4392 13.1727
473 2 14.825 17.0934 13.0797
474 2 16.059 17.6336 14.2403
475 2 15.9589 18.3816 12.618
476 4 16.6924 13.9416 14.7085
477 3 16.6625 12.3795 14.1803
478 1 17.8559 14.0848 16.1606
479 2 17.5002 13.4806 17.0086
480 2 18.8619 13.7289 15.8964
481 2 17.9388 15.1269 16.5031
482 1 14.9605 14.5476 15.0975
483 2 14.3249 14.5577 14.2002
484 2 14.4724 13.9034 15.8418
485 2 14.9765 15.567 15.5096
486 4 15.5574 11.1396 14.28
487 3 16.3197 9.71156 13.9144
488 1 14.8977 11.0433 16.0422
489 2 13.8118 11.2159 16.0874
490 2 15.0942 10.0511 16.4716
491 2 15.3838 11.7813 16.696
492 1 14.2342 11.4801 12.993
493 2 14.7046 11.7169 12.0263
494 2 13.5703 10.6176 12.8415
495 2 13.5944 12.3289 13.2738
496 4 15.6937 8.23045 13.4892
497 3 16.757 7.04002 13.9274
498 1 14.1011 7.99202 14.4548
499 2 14.3962 7.72637 15.4846
500 2 13.6217 8.98077 14.5383
501 1 15.5089 8.18822 11.6312
502 2 15.0517 9.11129 11.2524
503 2 16.5038 8.1029 11.1712
504 2 14.9038 7.34009 11.2811
505 4 17.1935 5.48339 13.6487
506 3 16.5016 4.53032 14.835
507 1 16.5539 4.84544 12.004
508 2 16.8506 3.79373 11.8641
509 2 15.4557 4.88668 11.9576
510 2 16.9512 5.41656 11.154
511 1 19.0445 5.38416 13.795
512 2 19.3784 5.67729 14.8003
513 2 19.4141 4.36798 13.5936
514 2 19.5196 6.06193 13.0722
515 4 16.3159 2.92723 15.125
516 1 14.5861 2.35509 14.6753
517 2 14.3606 2.53894 13.6166
518 2 14.469 1.28076 14.8666
519 2 13.8408 2.90267 15.2753
520 1 16.8304 2.52329 16.8831
521 2 16.3233 3.21432 17.5778
522 2 16.5542 1.49069 17.1354
523 2 17.9117 2.63896 17.0344
