========================================== 
PDMS MACE Automated Workflow Started 
Model: mp / mh-1 
Head:  omat_pbe 
Started at: Tue 04/07/2026 20:32:31.30 
========================================== 
[INFO] silicone_slab.lmpdat not found. Generating from XYZ... 
 Container lammps_melting-quenching_cuequ-newimage-base-run-fb257cdbb2a4 Creating 
 Container lammps_melting-quenching_cuequ-newimage-base-run-fb257cdbb2a4 Created 

==========
== CUDA ==
==========

CUDA Version 12.9.0

Container image Copyright (c) 2016-2023, NVIDIA CORPORATION & AFFILIATES. All rights reserved.

This container image and its contents are governed by the NVIDIA Deep Learning Container License.
By pulling and using the container, you accept the terms and conditions of this license:
https://developer.nvidia.com/ngc/nvidia-deep-learning-container-license

A copy of this license is made available in this container at /NGC-DL-CONTAINER-LICENSE for your convenience.

Successfully converted /workspace/silicone_slab.xyz to /workspace/silicone_slab.lmpdat
Cell dimensions: 22.000 x 19.080 x 20.000 A
Elements found: ['C', 'H', 'O', 'Si']
Total atoms: 523
Initial density: 0.762 g/cm^3
Target density: 1.10 g/cm^3 (PDMS rubber)
[INFO] Raw model found at: mace_pretained_models\mace-mh-1.model 
[INFO] MLIAP PT model not found. Triggering conversion... 
 Container lammps_melting-quenching_cuequ-newimage-mace_model_conversion-run-02277625b16d Creating 
 Container lammps_melting-quenching_cuequ-newimage-mace_model_conversion-run-02277625b16d Created 
Failed to get GPU information from pynvml: Not Supported. Using default values for NVIDIA GeForce RTX 5080.
Error during conversion: convert_model_to_mliap() takes from 1 to 2 positional arguments but 3 were given
GPU information: NVIDIA RTX A6000, 8, 6, 45, 84, 300, 2100
cuEquivariance conversion is available - GPU acceleration will be enabled!

[INFO] Starting LAMMPS simulation with model: mace_pretained_models\mace-mh-1.model_omat_pbe.pt 
 Container lammps_melting-quenching_cuequ-newimage-lammps_melt_quench-run-628cc8b01ae2 Creating 
 Container lammps_melting-quenching_cuequ-newimage-lammps_melt_quench-run-628cc8b01ae2 Created 
LAMMPS (10 Dec 2025)
KOKKOS mode with Kokkos version 4.7.1 is enabled
  using double precision
  using view layout = legacy
  will use up to 1 GPU(s) per node
WARNING: When using a single thread, the Kokkos Serial backend (i.e. Makefile.kokkos_mpi_only) gives better performance than the OpenMP backend (src/KOKKOS/kokkos.cpp:266)
  using 1 OpenMP thread(s) per MPI task
Reading data file ...
  orthogonal box = (0 0 0) to (22 19.079963 20)
  1 by 1 by 1 MPI processor grid
  reading atoms ...
  523 atoms
  read_data CPU = 0.049 seconds
ERROR on proc 0: Substitution for illegal variable MODEL_PT_PATH
For more information see https://docs.lammps.org/err0013 (src/input.cpp:668)
--------------------------------------------------------------------------
MPI_ABORT was invoked on rank 0 in communicator MPI_COMM_WORLD
with errorcode 1.

NOTE: invoking MPI_ABORT causes Open MPI to kill all MPI processes.
You may or may not see output from other processes, depending on
exactly when Open MPI kills them.
--------------------------------------------------------------------------

 
[SUCCESS] Workflow completed at: Tue 04/07/2026 20:33:19.32 
Final density should be checked in melt_quench_log.lammps 
