========================================== 
PDMS MACE Automated Workflow Started 
Model: mp / mh-1 
Head:  omat_pbe 
Started at: Tue 04/07/2026 20:35:39.50 
========================================== 
[INFO] silicone_slab.lmpdat found. 
[INFO] Raw model found at: mace_pretained_models\mace-mh-1.model 
[INFO] MLIAP PT model not found. Triggering conversion... 
 Container lammps_melting-quenching_cuequ-newimage-mace_model_conversion-run-6f971c14533b Creating 
 Container lammps_melting-quenching_cuequ-newimage-mace_model_conversion-run-6f971c14533b Created 
Failed to get GPU information from pynvml: Not Supported. Using default values for NVIDIA GeForce RTX 5080.
GPU information: NVIDIA RTX A6000, 8, 6, 45, 84, 300, 2100
cuEquivariance conversion is available - GPU acceleration will be enabled!
Loading model from: python3
Error during conversion: Model file not found: python3

[INFO] Starting LAMMPS simulation with model: mace_pretained_models\mace-mh-1.model_omat_pbe.pt 
 Container lammps_melting-quenching_cuequ-newimage-lammps_melt_quench-run-ec87af54c6d1 Creating 
 Container lammps_melting-quenching_cuequ-newimage-lammps_melt_quench-run-ec87af54c6d1 Created 

==========
== CUDA ==
==========

CUDA Version 12.9.0

Container image Copyright (c) 2016-2023, NVIDIA CORPORATION & AFFILIATES. All rights reserved.

This container image and its contents are governed by the NVIDIA Deep Learning Container License.
By pulling and using the container, you accept the terms and conditions of this license:
https://developer.nvidia.com/ngc/nvidia-deep-learning-container-license

A copy of this license is made available in this container at /NGC-DL-CONTAINER-LICENSE for your convenience.

LAMMPS (10 Dec 2025)
Traceback (most recent call last):
  File "mliap_unified_couple_kokkos.pyx", line 501, in mliap_unified_couple_kokkos.mliap_unified_connect_kokkos
  File "/usr/local/lib/python3.10/dist-packages/torch/serialization.py", line 1484, in load
    with _open_file_like(f, "rb") as opened_file:
  File "/usr/local/lib/python3.10/dist-packages/torch/serialization.py", line 759, in _open_file_like
    return _open_file(name_or_buffer, mode)
  File "/usr/local/lib/python3.10/dist-packages/torch/serialization.py", line 740, in __init__
    super().__init__(open(name, mode))
FileNotFoundError: [Errno 2] No such file or directory: 'mace_pretained_models\\mace-mh-1.model_omat_pbe.pt'
KOKKOS mode with Kokkos version 4.7.1 is enabled
  using double precision
  using view layout = legacy
  will use up to 1 GPU(s) per node
WARNING: When using a single thread, the Kokkos Serial backend (i.e. Makefile.kokkos_mpi_only) gives better performance than the OpenMP backend (src/KOKKOS/kokkos.cpp:266)
  using 1 OpenMP thread(s) per MPI task
Reading data file ...
  orthogonal box = (0 0 0) to (22 19.079963 20)
  1 by 1 by 1 MPI processor grid
  reading atoms ...
  523 atoms
  read_data CPU = 0.037 seconds
ERROR: Running mliappy unified module failure. (src/KOKKOS/mliap_unified_kokkos.cpp:248)
Last input line: pair_style mliap unified ${MODEL_PT_PATH} 0

 
[SUCCESS] Workflow completed at: Tue 04/07/2026 20:36:05.30 
Final density should be checked in melt_quench_log.lammps 
