ITEM: TIMESTEP
0
ITEM: NUMBER OF ATOMS
527
ITEM: BOX BOUNDS pp pp pp
0.0000000000000000e+00 2.2000000000000000e+01
2.0079962999999999e+01 3.9159925000000001e+01
0.0000000000000000e+00 2.0000000000000000e+01
ITEM: ATOMS id type x y z
1 4 4.07771 35.6466 3.07771
2 3 4.07771 34.0166 3.07771
3 1 5.84076 36.2699 3.07771
4 2 5.84076 36.2699 4.16771
5 2 6.15542 35.38 2.53271
6 2 5.52611 37.1599 2.53271
7 1 2.31466 36.2699 3.07771
8 2 2.31466 36.2699 1.98771
9 2 2 35.38 3.62271
10 2 2.62931 37.1599 3.62271
11 4 4.07771 32.3866 3.07771
12 3 4.07771 30.7566 3.07771
13 1 5.32437 33.0099 4.32437
14 2 4.55363 33.0099 5.09512
15 2 5.93224 32.12 4.1615
16 2 5.48725 33.8999 3.71651
17 1 2.83104 33.0099 1.83104
18 2 3.60179 33.0099 1.0603
19 2 2.22317 32.12 1.99392
20 2 2.66816 33.8999 2.43891
21 4 4.07771 29.1266 3.07771
22 3 4.07771 27.4966 3.07771
23 1 4.07771 29.7499 4.84076
24 2 2.98771 29.7499 4.84076
25 2 4.62271 28.86 5.15542
26 2 4.62271 30.6399 4.52611
27 1 4.07771 29.7499 1.31466
28 2 5.16771 29.7499 1.31466
29 2 3.53271 28.86 1
30 2 3.53271 30.6399 1.62931
31 4 4.07771 25.8666 3.07771
32 3 4.07771 24.2366 3.07771
33 1 2.83104 26.4899 4.32437
34 2 2.0603 26.4899 3.55363
35 2 2.99392 25.6 4.93224
36 2 3.43891 27.3799 4.48725
37 1 5.32437 26.4899 1.83104
38 2 6.09512 26.4899 2.60179
39 2 5.1615 25.6 1.22317
40 2 4.71651 27.3799 1.66816
41 4 4.07771 22.6066 3.07771
42 3 4.07771 20.9766 3.07771
43 1 2.31466 23.2299 3.07771
44 2 2.31466 23.2299 1.98771
45 2 2 22.34 3.62271
46 2 2.62931 24.1199 3.62271
47 1 5.84076 23.2299 3.07771
48 2 5.84076 23.2299 4.16771
49 2 6.15542 22.34 2.53271
50 2 5.52611 24.1199 2.53271
51 4 4.07771 38.4266 3.07771
52 1 2.83104 39.0499 1.83104
53 2 3.60179 39.0499 1.0603
54 2 2.22317 38.1599 1.99392
55 2 2.66816 20.8599 2.43891
56 1 5.32437 39.0499 4.32437
57 2 4.55363 39.0499 5.09512
58 2 5.93224 38.1599 4.1615
59 2 5.48725 20.8599 3.71651
60 4 9.57771 35.6466 3.07771
61 3 9.57771 34.0166 3.07771
62 1 11.3408 36.2699 3.07771
63 2 11.3408 36.2699 4.16771
64 2 11.6554 35.38 2.53271
65 2 11.0261 37.1599 2.53271
66 1 7.81466 36.2699 3.07771
67 2 7.81466 36.2699 1.98771
68 2 7.5 35.38 3.62271
69 2 8.12931 37.1599 3.62271
70 4 9.57771 32.3866 3.07771
71 3 9.57771 30.7566 3.07771
72 1 10.8244 33.0099 4.32437
73 2 10.0536 33.0099 5.09512
74 2 11.4322 32.12 4.1615
75 2 10.9873 33.8999 3.71651
76 1 8.33104 33.0099 1.83104
77 2 9.10179 33.0099 1.0603
78 2 7.72317 32.12 1.99392
79 2 8.16816 33.8999 2.43891
80 4 9.57771 29.1266 3.07771
81 3 9.57771 27.4966 3.07771
82 1 9.57771 29.7499 4.84076
83 2 8.48771 29.7499 4.84076
84 2 10.1227 28.86 5.15542
85 2 10.1227 30.6399 4.52611
86 1 9.57771 29.7499 1.31466
87 2 10.6677 29.7499 1.31466
88 2 9.03271 28.86 1
89 2 9.03271 30.6399 1.62931
90 4 9.57771 25.8666 3.07771
91 3 9.57771 24.2366 3.07771
92 1 8.33104 26.4899 4.32437
93 2 7.5603 26.4899 3.55363
94 2 8.49392 25.6 4.93224
95 2 8.93891 27.3799 4.48725
96 1 10.8244 26.4899 1.83104
97 2 11.5951 26.4899 2.60179
98 2 10.6615 25.6 1.22317
99 2 10.2165 27.3799 1.66816
100 4 9.57771 22.6066 3.07771
101 3 9.57771 20.9766 3.07771
102 1 7.81466 23.2299 3.07771
103 2 7.81466 23.2299 1.98771
104 2 7.5 22.34 3.62271
105 2 8.12931 24.1199 3.62271
106 1 11.3408 23.2299 3.07771
107 2 11.3408 23.2299 4.16771
108 2 11.6554 22.34 2.53271
109 2 11.0261 24.1199 2.53271
110 4 9.57771 38.4266 3.07771
111 1 8.33104 39.0499 1.83104
112 2 9.10179 39.0499 1.0603
113 2 7.72317 38.1599 1.99392
114 2 8.16816 20.8599 2.43891
115 1 10.8244 39.0499 4.32437
116 2 10.0536 39.0499 5.09512
117 2 11.4322 38.1599 4.1615
118 2 10.9873 20.8599 3.71651
119 4 15.0777 35.6466 3.07771
120 3 15.0777 34.0166 3.07771
121 1 16.8408 36.2699 3.07771
122 2 16.8408 36.2699 4.16771
123 2 17.1554 35.38 2.53271
124 2 16.5261 37.1599 2.53271
125 1 13.3147 36.2699 3.07771
126 2 13.3147 36.2699 1.98771
127 2 13 35.38 3.62271
128 2 13.6293 37.1599 3.62271
129 4 15.0777 32.3866 3.07771
130 3 15.0777 30.7566 3.07771
131 1 16.3244 33.0099 4.32437
132 2 15.5536 33.0099 5.09512
133 2 16.9322 32.12 4.1615
134 2 16.4873 33.8999 3.71651
135 1 13.831 33.0099 1.83104
136 2 14.6018 33.0099 1.0603
137 2 13.2232 32.12 1.99392
138 2 13.6682 33.8999 2.43891
139 4 15.0777 29.1266 3.07771
140 3 15.0777 27.4966 3.07771
141 1 15.0777 29.7499 4.84076
142 2 13.9877 29.7499 4.84076
143 2 15.6227 28.86 5.15542
144 2 15.6227 30.6399 4.52611
145 1 15.0777 29.7499 1.31466
146 2 16.1677 29.7499 1.31466
147 2 14.5327 28.86 1
148 2 14.5327 30.6399 1.62931
149 4 15.0777 25.8666 3.07771
150 3 15.0777 24.2366 3.07771
151 1 13.831 26.4899 4.32437
152 2 13.0603 26.4899 3.55363
153 2 13.9939 25.6 4.93224
154 2 14.4389 27.3799 4.48725
155 1 16.3244 26.4899 1.83104
156 2 17.0951 26.4899 2.60179
157 2 16.1615 25.6 1.22317
158 2 15.7165 27.3799 1.66816
159 4 15.0777 22.6066 3.07771
160 3 15.0777 20.9766 3.07771
161 1 13.3147 23.2299 3.07771
162 2 13.3147 23.2299 1.98771
163 2 13 22.34 3.62271
164 2 13.6293 24.1199 3.62271
165 1 16.8408 23.2299 3.07771
166 2 16.8408 23.2299 4.16771
167 2 17.1554 22.34 2.53271
168 2 16.5261 24.1199 2.53271
169 4 15.0777 38.4266 3.07771
170 1 13.831 39.0499 1.83104
171 2 14.6018 39.0499 1.0603
172 2 13.2232 38.1599 1.99392
173 2 13.6682 20.8599 2.43891
174 1 16.3244 39.0499 4.32437
175 2 15.5536 39.0499 5.09512
176 2 16.9322 38.1599 4.1615
177 2 16.4873 20.8599 3.71651
178 4 6.82771 35.6466 7.84085
179 3 6.82771 34.0166 7.84085
180 1 8.59076 36.2699 7.84085
181 2 8.59076 36.2699 8.93085
182 2 8.90542 35.38 7.29585
183 2 8.27611 37.1599 7.29585
184 1 5.06466 36.2699 7.84085
185 2 5.06466 36.2699 6.75085
186 2 4.75 35.38 8.38585
187 2 5.37931 37.1599 8.38585
188 4 6.82771 32.3866 7.84085
189 3 6.82771 30.7566 7.84085
190 1 8.07437 33.0099 9.08751
191 2 7.30363 33.0099 9.85826
192 2 8.68224 32.12 8.92464
193 2 8.23725 33.8999 8.47965
194 1 5.58104 33.0099 6.59418
195 2 6.35179 33.0099 5.82343
196 2 4.97317 32.12 6.75706
197 2 5.41816 33.8999 7.20205
198 4 6.82771 29.1266 7.84085
199 3 6.82771 27.4966 7.84085
200 1 6.82771 29.7499 9.6039
201 2 5.73771 29.7499 9.6039
202 2 7.37271 28.86 9.91856
203 2 7.37271 30.6399 9.28925
204 1 6.82771 29.7499 6.0778
205 2 7.91771 29.7499 6.0778
206 2 6.28271 28.86 5.76314
207 2 6.28271 30.6399 6.39245
208 4 6.82771 25.8666 7.84085
209 3 6.82771 24.2366 7.84085
210 1 5.58104 26.4899 9.08751
211 2 4.8103 26.4899 8.31677
212 2 5.74392 25.6 9.69538
213 2 6.18891 27.3799 9.25039
214 1 8.07437 26.4899 6.59418
215 2 8.84512 26.4899 7.36493
216 2 7.9115 25.6 5.98631
217 2 7.46651 27.3799 6.4313
218 4 6.82771 22.6066 7.84085
219 3 6.82771 20.9766 7.84085
220 1 5.06466 23.2299 7.84085
221 2 5.06466 23.2299 6.75085
222 2 4.75 22.34 8.38585
223 2 5.37931 24.1199 8.38585
224 1 8.59076 23.2299 7.84085
225 2 8.59076 23.2299 8.93085
226 2 8.90542 22.34 7.29585
227 2 8.27611 24.1199 7.29585
228 4 6.82771 38.4266 7.84085
229 1 5.58104 39.0499 6.59418
230 2 6.35179 39.0499 5.82343
231 2 4.97317 38.1599 6.75706
232 2 5.41816 20.8599 7.20205
233 1 8.98499 39.0499 8.33237
234 2 9.59286 38.1599 8.16949
235 2 9.14787 20.8599 7.7245
236 4 12.3277 35.6466 7.84085
237 3 12.3277 34.0166 7.84085
238 1 14.0908 36.2699 7.84085
239 2 14.0908 36.2699 8.93085
240 2 14.4054 35.38 7.29585
241 2 13.7761 37.1599 7.29585
242 1 10.5647 36.2699 7.84085
243 2 10.5647 36.2699 6.75085
244 2 10.25 35.38 8.38585
245 2 10.8793 37.1599 8.38585
246 4 12.3277 32.3866 7.84085
247 3 12.3277 30.7566 7.84085
248 1 13.5744 33.0099 9.08751
249 2 12.8036 33.0099 9.85826
250 2 14.1822 32.12 8.92464
251 2 13.7373 33.8999 8.47965
252 1 11.081 33.0099 6.59418
253 2 11.8518 33.0099 5.82343
254 2 10.4732 32.12 6.75706
255 2 10.9182 33.8999 7.20205
256 4 12.3277 29.1266 7.84085
257 3 12.3277 27.4966 7.84085
258 1 12.3277 29.7499 9.6039
259 2 11.2377 29.7499 9.6039
260 2 12.8727 28.86 9.91856
261 2 12.8727 30.6399 9.28925
262 1 12.3277 29.7499 6.0778
263 2 13.4177 29.7499 6.0778
264 2 11.7827 28.86 5.76314
265 2 11.7827 30.6399 6.39245
266 4 12.3277 25.8666 7.84085
267 3 12.3277 24.2366 7.84085
268 1 11.081 26.4899 9.08751
269 2 10.3103 26.4899 8.31677
270 2 11.2439 25.6 9.69538
271 2 11.6889 27.3799 9.25039
272 1 14.485 26.4899 7.34933
273 2 14.3221 25.6 6.74146
274 2 13.8771 27.3799 7.18645
275 4 12.3277 22.6066 7.84085
276 3 12.3277 20.9766 7.84085
277 1 10.5647 23.2299 7.84085
278 2 10.5647 23.2299 6.75085
279 2 10.25 22.34 8.38585
280 2 10.8793 24.1199 8.38585
281 1 14.0908 23.2299 7.84085
282 2 14.0908 23.2299 8.93085
283 2 14.4054 22.34 7.29585
284 2 13.7761 24.1199 7.29585
285 4 12.3277 38.4266 7.84085
286 1 10.1704 39.0499 7.34933
287 2 9.56255 38.1599 7.51221
288 2 10.0075 20.8599 7.9572
289 1 13.5744 39.0499 9.08751
290 2 12.8036 39.0499 9.85826
291 2 14.1822 38.1599 8.92464
292 2 13.7373 20.8599 8.47965
293 4 17.8277 35.6466 7.84085
294 3 17.8277 34.0166 7.84085
295 1 19.5908 36.2699 7.84085
296 2 19.5908 36.2699 8.93085
297 2 19.9054 35.38 7.29585
298 2 19.2761 37.1599 7.29585
299 1 16.0647 36.2699 7.84085
300 2 16.0647 36.2699 6.75085
301 2 15.75 35.38 8.38585
302 2 16.3793 37.1599 8.38585
303 4 17.8277 32.3866 7.84085
304 3 17.8277 30.7566 7.84085
305 1 19.0744 33.0099 9.08751
306 2 18.3036 33.0099 9.85826
307 2 19.6822 32.12 8.92464
308 2 19.2373 33.8999 8.47965
309 1 16.581 33.0099 6.59418
310 2 17.3518 33.0099 5.82343
311 2 15.9732 32.12 6.75706
312 2 16.4182 33.8999 7.20205
313 4 17.8277 29.1266 7.84085
314 3 17.8277 27.4966 7.84085
315 1 17.8277 29.7499 9.6039
316 2 16.7377 29.7499 9.6039
317 2 18.3727 28.86 9.91856
318 2 18.3727 30.6399 9.28925
319 1 17.8277 29.7499 6.0778
320 2 18.9177 29.7499 6.0778
321 2 17.2827 28.86 5.76314
322 2 17.2827 30.6399 6.39245
323 4 17.8277 25.8666 7.84085
324 3 17.8277 24.2366 7.84085
325 1 15.6704 26.4899 8.33237
326 2 15.8333 25.6 8.94024
327 2 16.2783 27.3799 8.49525
328 1 19.0744 26.4899 6.59418
329 2 19.8451 26.4899 7.36493
330 2 18.9115 25.6 5.98631
331 2 18.4665 27.3799 6.4313
332 4 17.8277 22.6066 7.84085
333 3 17.8277 20.9766 7.84085
334 1 16.0647 23.2299 7.84085
335 2 16.0647 23.2299 6.75085
336 2 15.75 22.34 8.38585
337 2 16.3793 24.1199 8.38585
338 1 19.5908 23.2299 7.84085
339 2 19.5908 23.2299 8.93085
340 2 19.9054 22.34 7.29585
341 2 19.2761 24.1199 7.29585
342 4 17.8277 38.4266 7.84085
343 1 16.581 39.0499 6.59418
344 2 17.3518 39.0499 5.82343
345 2 15.9732 38.1599 6.75706
346 2 16.4182 20.8599 7.20205
347 1 19.0744 39.0499 9.08751
348 2 18.3036 39.0499 9.85826
349 2 19.6822 38.1599 8.92464
350 2 19.2373 20.8599 8.47965
351 4 4.07771 35.6466 12.604
352 3 4.07771 34.0166 12.604
353 1 5.84076 36.2699 12.604
354 2 5.84076 36.2699 13.694
355 2 6.15542 35.38 12.059
356 2 5.52611 37.1599 12.059
357 1 2.31466 36.2699 12.604
358 2 2.31466 36.2699 11.514
359 2 2 35.38 13.149
360 2 2.62931 37.1599 13.149
361 4 4.07771 32.3866 12.604
362 3 4.07771 30.7566 12.604
363 1 5.32437 33.0099 13.8507
364 2 4.55363 33.0099 14.6214
365 2 5.93224 32.12 13.6878
366 2 5.48725 33.8999 13.2428
367 1 2.83104 33.0099 11.3573
368 2 3.60179 33.0099 10.5866
369 2 2.22317 32.12 11.5202
370 2 2.66816 33.8999 11.9652
371 4 4.07771 29.1266 12.604
372 3 4.07771 27.4966 12.604
373 1 4.07771 29.7499 14.367
374 2 2.98771 29.7499 14.367
375 2 4.62271 28.86 14.6817
376 2 4.62271 30.6399 14.0524
377 1 4.07771 29.7499 10.8409
378 2 5.16771 29.7499 10.8409
379 2 3.53271 28.86 10.5263
380 2 3.53271 30.6399 11.1556
381 4 4.07771 25.8666 12.604
382 3 4.07771 24.2366 12.604
383 1 2.83104 26.4899 13.8507
384 2 2.0603 26.4899 13.0799
385 2 2.99392 25.6 14.4585
386 2 3.43891 27.3799 14.0135
387 1 5.32437 26.4899 11.3573
388 2 6.09512 26.4899 12.1281
389 2 5.1615 25.6 10.7495
390 2 4.71651 27.3799 11.1944
391 4 4.07771 22.6066 12.604
392 3 4.07771 20.9766 12.604
393 1 2.31466 23.2299 12.604
394 2 2.31466 23.2299 11.514
395 2 2 22.34 13.149
396 2 2.62931 24.1199 13.149
397 1 5.84076 23.2299 12.604
398 2 5.84076 23.2299 13.694
399 2 6.15542 22.34 12.059
400 2 5.52611 24.1199 12.059
401 4 4.07771 38.4266 12.604
402 1 2.83104 39.0499 11.3573
403 2 3.60179 39.0499 10.5866
404 2 2.22317 38.1599 11.5202
405 2 2.66816 20.8599 11.9652
406 1 5.32437 39.0499 13.8507
407 2 4.55363 39.0499 14.6214
408 2 5.93224 38.1599 13.6878
409 2 5.48725 20.8599 13.2428
410 4 9.57771 35.6466 12.604
411 3 9.57771 34.0166 12.604
412 1 11.3408 36.2699 12.604
413 2 11.3408 36.2699 13.694
414 2 11.6554 35.38 12.059
415 2 11.0261 37.1599 12.059
416 1 7.81466 36.2699 12.604
417 2 7.81466 36.2699 11.514
418 2 7.5 35.38 13.149
419 2 8.12931 37.1599 13.149
420 4 9.57771 32.3866 12.604
421 3 9.57771 30.7566 12.604
422 1 10.8244 33.0099 13.8507
423 2 10.0536 33.0099 14.6214
424 2 11.4322 32.12 13.6878
425 2 10.9873 33.8999 13.2428
426 1 8.33104 33.0099 11.3573
427 2 9.10179 33.0099 10.5866
428 2 7.72317 32.12 11.5202
429 2 8.16816 33.8999 11.9652
430 4 9.57771 29.1266 12.604
431 3 9.57771 27.4966 12.604
432 1 9.57771 29.7499 14.367
433 2 8.48771 29.7499 14.367
434 2 10.1227 28.86 14.6817
435 2 10.1227 30.6399 14.0524
436 1 9.57771 29.7499 10.8409
437 2 10.6677 29.7499 10.8409
438 2 9.03271 28.86 10.5263
439 2 9.03271 30.6399 11.1556
440 4 9.57771 25.8666 12.604
441 3 9.57771 24.2366 12.604
442 1 8.33104 26.4899 13.8507
443 2 7.5603 26.4899 13.0799
444 2 8.49392 25.6 14.4585
445 2 8.93891 27.3799 14.0135
446 1 10.8244 26.4899 11.3573
447 2 11.5951 26.4899 12.1281
448 2 10.6615 25.6 10.7495
449 2 10.2165 27.3799 11.1944
450 4 9.57771 22.6066 12.604
451 3 9.57771 20.9766 12.604
452 1 7.81466 23.2299 12.604
453 2 7.81466 23.2299 11.514
454 2 7.5 22.34 13.149
455 2 8.12931 24.1199 13.149
456 1 11.3408 23.2299 12.604
457 2 11.3408 23.2299 13.694
458 2 11.6554 22.34 12.059
459 2 11.0261 24.1199 12.059
460 4 9.57771 38.4266 12.604
461 1 8.33104 39.0499 11.3573
462 2 9.10179 39.0499 10.5866
463 2 7.72317 38.1599 11.5202
464 2 8.16816 20.8599 11.9652
465 1 10.8244 39.0499 13.8507
466 2 10.0536 39.0499 14.6214
467 2 11.4322 38.1599 13.6878
468 2 10.9873 20.8599 13.2428
469 4 15.0777 35.6466 12.604
470 3 15.0777 34.0166 12.604
471 1 16.8408 36.2699 12.604
472 2 16.8408 36.2699 13.694
473 2 17.1554 35.38 12.059
474 2 16.5261 37.1599 12.059
475 1 13.3147 36.2699 12.604
476 2 13.3147 36.2699 11.514
477 2 13 35.38 13.149
478 2 13.6293 37.1599 13.149
479 4 15.0777 32.3866 12.604
480 3 15.0777 30.7566 12.604
481 1 16.3244 33.0099 13.8507
482 2 15.5536 33.0099 14.6214
483 2 16.9322 32.12 13.6878
484 2 16.4873 33.8999 13.2428
485 1 13.831 33.0099 11.3573
486 2 14.6018 33.0099 10.5866
487 2 13.2232 32.12 11.5202
488 2 13.6682 33.8999 11.9652
489 4 15.0777 29.1266 12.604
490 3 15.0777 27.4966 12.604
491 1 15.0777 29.7499 14.367
492 2 13.9877 29.7499 14.367
493 2 15.6227 28.86 14.6817
494 2 15.6227 30.6399 14.0524
495 1 15.0777 29.7499 10.8409
496 2 16.1677 29.7499 10.8409
497 2 14.5327 28.86 10.5263
498 2 14.5327 30.6399 11.1556
499 4 15.0777 25.8666 12.604
500 3 15.0777 24.2366 12.604
501 1 13.831 26.4899 13.8507
502 2 13.0603 26.4899 13.0799
503 2 13.9939 25.6 14.4585
504 2 14.4389 27.3799 14.0135
505 1 16.3244 26.4899 11.3573
506 2 17.0951 26.4899 12.1281
507 2 16.1615 25.6 10.7495
508 2 15.7165 27.3799 11.1944
509 4 15.0777 22.6066 12.604
510 3 15.0777 20.9766 12.604
511 1 13.3147 23.2299 12.604
512 2 13.3147 23.2299 11.514
513 2 13 22.34 13.149
514 2 13.6293 24.1199 13.149
515 1 16.8408 23.2299 12.604
516 2 16.8408 23.2299 13.694
517 2 17.1554 22.34 12.059
518 2 16.5261 24.1199 12.059
519 4 15.0777 38.4266 12.604
520 1 13.831 39.0499 11.3573
521 2 14.6018 39.0499 10.5866
522 2 13.2232 38.1599 11.5202
523 2 13.6682 20.8599 11.9652
524 1 16.3244 39.0499 13.8507
525 2 15.5536 39.0499 14.6214
526 2 16.9322 38.1599 13.6878
527 2 16.4873 20.8599 13.2428
ITEM: TIMESTEP
100
ITEM: NUMBER OF ATOMS
527
ITEM: BOX BOUNDS pp pp pp
0.0000000000000000e+00 2.2000000000000000e+01
2.0079962999999999e+01 3.9159925000000001e+01
0.0000000000000000e+00 2.0000000000000000e+01
ITEM: ATOMS id type x y z
1 4 2.18867 34.7597 3.68313
2 3 1.8123 33.3804 2.81318
3 1 3.57575 35.7179 2.82941
4 2 4.56823 35.5594 3.26406
5 2 3.6237 35.4608 1.7599
6 2 3.33208 36.785 2.92301
7 1 0.683975 35.8633 3.7162
8 2 0.297509 35.9919 2.69128
9 2 21.8765 35.4615 4.33528
10 2 0.978612 36.8473 4.11303
11 4 2.79116 32.3623 1.91965
12 3 2.31144 30.7814 2.12009
13 1 4.53767 32.685 2.55045
14 2 4.53596 32.9205 3.62316
15 2 5.21146 31.8393 2.38596
16 2 4.966 33.5396 2.01614
17 1 2.68738 32.7677 0.0982018
18 2 3.68608 32.7382 19.6413
19 2 2.0558 32.034 19.5809
20 2 2.26889 33.7714 19.9389
21 4 3.2625 29.4099 2.10522
22 3 2.3824 27.9805 2.07333
23 1 4.24481 29.5239 3.70066
24 2 3.57051 29.7571 4.53375
25 2 4.7761 28.5952 3.92551
26 2 4.9952 30.3191 3.64992
27 1 4.35705 29.4322 0.583318
28 2 5.31779 28.9337 0.770355
29 2 3.86851 28.9149 19.7468
30 2 4.57552 30.4604 0.263609
31 4 2.92808 26.5154 2.67873
32 3 2.16898 25.1226 2.13774
33 1 2.56292 26.6079 4.50986
34 2 1.4746 26.6838 4.63662
35 2 2.90981 25.7367 5.07666
36 2 3.01237 27.5004 4.9574
37 1 4.71843 26.3595 2.12911
38 2 5.31504 27.2511 2.35725
39 2 5.2254 25.507 2.59184
40 2 4.73689 26.2133 1.03941
41 4 2.35459 23.6128 2.834
42 3 2.29726 22.389 1.70118
43 1 1.05368 23.3053 4.12951
44 2 0.0320238 23.4315 3.75419
45 2 1.15638 22.2875 4.53232
46 2 1.1851 23.9995 4.97055
47 1 4.03699 23.4456 3.62798
48 2 4.07453 22.5146 4.20567
49 2 4.84168 23.4123 2.88052
50 2 4.24351 24.2668 4.32365
51 4 3.31606 21.1538 1.25716
52 1 2.2938 39.0123 0.298391
53 2 2.14214 20.2479 19.262
54 2 2.79354 38.0314 0.30151
55 2 1.3046 38.923 0.77931
56 1 4.19229 20.284 2.68319
57 2 3.52452 20.11 3.54393
58 2 4.51013 38.3852 2.28962
59 2 5.08893 20.803 3.03968
60 4 10.4738 34.697 1.89035
61 3 10.5397 33.5051 0.690155
62 1 12.0172 35.7125 2.07112
63 2 12.2423 35.9006 3.12941
64 2 12.8804 35.2248 1.60851
65 2 11.8699 36.6834 1.58566
66 1 8.93507 35.7479 1.91452
67 2 8.52146 35.9234 0.910332
68 2 8.14626 35.311 2.54352
69 2 9.18481 36.7296 2.3371
70 4 9.76278 32.385 1.63393
71 3 10.3524 30.8494 1.62538
72 1 10.259 33.2713 3.36279
73 2 9.32313 33.1353 3.92395
74 2 11.0096 32.5055 3.61199
75 2 10.7144 34.117 3.91794
76 1 7.92172 32.5159 1.4062
77 2 7.66592 32.4736 0.339959
78 2 7.39335 31.7072 1.92677
79 2 7.54519 33.4608 1.80864
80 4 9.43021 29.4206 1.42229
81 3 10.3716 28.0318 1.39926
82 1 8.26513 29.2631 2.87977
83 2 7.2081 29.3945 2.60549
84 2 8.36197 28.2624 3.32039
85 2 8.49966 29.9811 3.67963
86 1 8.61014 29.5793 19.7407
87 2 9.25644 30.1369 19.0476
88 2 8.42939 28.5938 19.2839
89 2 7.64359 30.096 19.7977
90 4 9.84668 26.4919 0.957856
91 3 10.5777 25.3595 1.90348
92 1 7.99263 26.3094 1.15225
93 2 7.69683 25.2796 0.904511
94 2 7.65237 26.5006 2.17679
95 2 7.42846 26.9645 0.475996
96 1 10.3373 26.152 19.1976
97 2 11.3548 25.759 19.1003
98 2 9.65256 25.4075 18.782
99 2 10.252 27.0656 18.5967
100 4 10.3778 23.8556 2.5789
101 3 10.642 22.6697 1.42164
102 1 8.66817 23.6482 3.30175
103 2 7.86235 23.7356 2.56067
104 2 8.56918 22.6571 3.77397
105 2 8.49432 24.399 4.08548
106 1 11.6628 23.6911 3.89746
107 2 11.4178 22.8682 4.58514
108 2 12.6377 23.4742 3.44092
109 2 11.7612 24.6071 4.49803
110 4 10.417 21.0254 1.30988
111 1 8.70144 20.7121 0.633084
112 2 8.66679 20.7864 19.5359
113 2 8.34252 38.7903 0.9223
114 2 7.99542 21.4646 1.03737
115 1 10.758 20.2188 2.97362
116 2 10.2192 20.7486 3.78044
117 2 10.4093 38.2549 2.98492
118 2 11.8248 20.2261 3.23646
119 4 17.022 34.9844 1.75432
120 3 16.8377 33.3614 1.80637
121 1 18.6914 35.5727 2.3568
122 2 18.5924 35.956 3.38789
123 2 19.4309 34.7647 2.3438
124 2 19.0391 36.4092 1.73935
125 1 15.6661 36.0566 2.50383
126 2 15.3692 36.8583 1.81894
127 2 14.7701 35.5161 2.82315
128 2 16.1108 36.5459 3.38369
129 4 15.763 32.2301 2.45413
130 3 16.0375 30.7088 1.86472
131 1 16.1123 32.2532 4.29022
132 2 15.2534 31.9919 4.92655
133 2 16.9259 31.5388 4.49737
134 2 16.4723 33.25 4.59846
135 1 14.0938 32.7895 1.84077
136 2 14.1258 32.843 0.740174
137 2 13.2452 32.1402 2.11075
138 2 13.8606 33.7948 2.21216
139 4 15.0806 29.3313 1.99634
140 3 15.9807 27.9748 1.69349
141 1 14.4532 29.2407 3.76228
142 2 13.6355 29.9372 3.96424
143 2 14.0969 28.2342 4.02059
144 2 15.2698 29.4756 4.46888
145 1 13.7086 29.3978 0.718937
146 2 14.1449 29.4573 19.71
147 2 13.0844 28.4957 0.778361
148 2 13.0403 30.2585 0.867483
149 4 15.6283 26.4153 1.22847
150 3 16.7417 25.4157 1.94141
151 1 13.9356 25.9087 1.84897
152 2 13.1375 26.0681 1.10866
153 2 13.9181 24.8397 2.1074
154 2 13.6539 26.4563 2.76099
155 1 15.7612 26.2402 19.3789
156 2 16.7871 26.4696 19.0635
157 2 15.5264 25.2112 19.0674
158 2 15.0685 26.9212 18.855
159 4 16.8555 23.8919 2.53891
160 3 16.3088 22.8246 1.35932
161 1 15.711 23.6397 4.00586
162 2 14.7322 23.3026 3.63961
163 2 16.0866 22.8739 4.6969
164 2 15.5469 24.5649 4.57246
165 1 18.6662 23.5428 2.81377
166 2 19.1267 24.2245 3.53853
167 2 18.8341 22.5116 3.1486
168 2 19.178 23.6793 1.85295
169 4 15.9957 21.2139 1.26366
170 1 14.2983 20.9306 0.545061
171 2 14.2849 21.0713 19.4596
172 2 13.9823 38.9802 0.766574
173 2 13.5643 21.6319 0.972231
174 1 16.4336 20.2292 2.78727
175 2 15.5152 39.0298 3.32898
176 2 16.9319 38.3725 2.5122
177 2 17.0868 20.7872 3.47151
178 4 5.12119 34.8435 9.39798
179 3 4.95763 33.1785 9.19556
180 1 6.49309 35.6772 8.40326
181 2 7.51454 35.3589 8.63478
182 2 6.32065 35.5458 7.31696
183 2 6.43421 36.7571 8.6095
184 1 3.52348 35.6691 8.82944
185 2 3.47391 35.6376 7.72342
186 2 2.60825 35.2105 9.22186
187 2 3.53459 36.7285 9.12553
188 4 5.82701 32.0868 8.26484
189 3 5.69429 30.5508 8.89524
190 1 7.6207 32.6042 8.4595
191 2 7.73614 33.0148 9.47534
192 2 8.30711 31.7505 8.38672
193 2 7.95711 33.3682 7.7469
194 1 5.0324 32.0249 6.57187
195 2 5.68325 32.3592 5.7519
196 2 4.72339 30.9896 6.35634
197 2 4.12591 32.648 6.55188
198 4 6.75643 29.2815 8.59526
199 3 5.94246 27.8467 8.60194
200 1 7.84841 29.2474 10.1152
201 2 7.18795 28.9514 10.9398
202 2 8.67867 28.5331 10.0868
203 2 8.23989 30.242 10.3643
204 1 7.491 29.4947 6.88817
205 2 8.11792 28.6403 6.59829
206 2 6.67749 29.5593 6.14526
207 2 8.10466 30.4004 6.76017
208 4 5.1939 26.6581 7.74796
209 3 5.71762 25.183 8.34371
210 1 3.35306 26.8649 8.07024
211 2 2.75019 26.6396 7.18535
212 2 3.02214 26.2064 8.88089
213 2 3.1377 27.8995 8.36322
214 1 5.63906 26.7742 5.93114
215 2 6.72188 26.829 5.77235
216 2 5.26591 25.9149 5.36472
217 2 5.1889 27.6711 5.49532
218 4 5.73875 23.643 7.7253
219 3 6.64037 22.6581 8.75197
220 1 3.98127 22.9981 7.62384
221 2 3.69258 22.7231 6.59986
222 2 3.848 22.1068 8.25477
223 2 3.28044 23.7739 7.96745
224 1 6.68151 23.6033 6.09904
225 2 7.35122 24.467 6.03321
226 2 7.3006 22.6995 6.02153
227 2 6.02779 23.6106 5.21889
228 4 7.1191 21.0736 8.76041
229 1 6.20175 39.1485 7.44544
230 2 6.8863 38.4064 6.99428
231 2 5.34134 38.5955 7.85594
232 2 5.80686 20.7109 6.63453
233 1 9.00012 20.9542 8.5887
234 2 9.35997 39.15 9.12637
235 2 9.40944 21.8192 9.12668
236 4 13.0419 34.7646 5.96517
237 3 13.4867 33.2526 6.54627
238 1 14.5688 35.8359 6.10982
239 2 15.0059 35.7175 7.12674
240 2 15.3489 35.5819 5.38499
241 2 14.2956 36.9018 5.97637
242 1 11.6605 35.5642 6.98112
243 2 10.6975 35.0424 6.91891
244 2 11.9617 35.6099 8.03977
245 2 11.505 36.6014 6.62933
246 4 12.7506 32.0917 7.51683
247 3 13.0346 30.5843 6.82136
248 1 13.5548 32.1577 9.19798
249 2 13.0356 32.8681 9.85643
250 2 13.5657 31.1901 9.68529
251 2 14.5878 32.5058 9.09811
252 1 10.9047 32.4473 7.4715
253 2 10.6476 32.9822 6.56069
254 2 10.3143 31.522 7.48579
255 2 10.5708 33.0637 8.32174
256 4 12.2712 29.1141 7.01695
257 3 13.3999 27.915 6.86278
258 1 11.4228 29.0539 8.69606
259 2 10.9903 28.052 8.85511
260 2 12.086 29.2723 9.55112
261 2 10.5801 29.7618 8.73923
262 1 10.9892 28.8681 5.68466
263 2 11.454 28.5852 4.73513
264 2 10.3141 28.0623 5.98025
265 2 10.3985 29.7691 5.53434
266 4 13.9321 26.5304 7.56788
267 3 12.9264 25.2637 7.12363
268 1 13.8747 26.7963 9.41739
269 2 12.8517 26.7529 9.81168
270 2 14.487 26.0868 9.98199
271 2 14.2579 27.8003 9.65326
272 1 15.7009 26.1572 6.95688
273 2 15.7261 25.1081 6.63182
274 2 15.8576 26.7506 6.04424
275 4 12.3886 24.0107 8.10248
276 3 11.6735 22.8114 7.18744
277 1 10.9704 24.6672 9.12331
278 2 10.2274 25.0393 8.40263
279 2 10.4936 23.8719 9.70944
280 2 11.2274 25.4929 9.79694
281 1 13.9121 23.2558 8.90098
282 2 13.714 22.7624 9.86326
283 2 14.3334 22.506 8.21271
284 2 14.6922 24.0143 9.06227
285 4 11.4045 21.1854 7.00726
286 1 9.5304 20.8953 7.12637
287 2 9.26911 38.9921 6.66832
288 2 9.04929 21.6662 6.47486
289 1 12.3895 20.1416 8.18301
290 2 11.7401 38.6589 8.87409
291 2 12.9989 38.4764 7.66073
292 2 13.0727 20.7592 8.78175
293 4 19.8375 34.7958 7.3807
294 3 20.3017 33.3301 8.0031
295 1 21.3663 35.7914 7.01136
296 2 22.0077 35.8643 7.90826
297 2 21.9649 35.3252 6.22362
298 2 21.089 36.8079 6.69246
299 1 18.7195 35.7061 8.59479
300 2 17.7422 35.9635 8.16905
301 2 18.5373 35.1098 9.49737
302 2 19.214 36.6443 8.88968
303 4 19.322 32.2014 8.75421
304 3 19.6701 30.6877 8.1427
305 1 19.6355 32.2603 10.6005
306 2 18.8793 31.6989 11.1618
307 2 20.6229 31.8568 10.8563
308 2 19.5817 33.2953 10.9611
309 1 17.554 32.6965 8.34408
310 2 17.4577 32.9554 7.28105
311 2 16.8296 31.9028 8.55692
312 2 17.2549 33.5645 8.93903
313 4 18.5908 29.4117 8.18338
314 3 19.305 27.9145 8.03985
315 1 17.8132 29.5061 9.8836
316 2 17.0942 30.3307 9.98499
317 2 17.299 28.5838 10.1737
318 2 18.6204 29.6674 10.6089
319 1 17.4433 29.6247 6.7103
320 2 18.0538 29.6634 5.79721
321 2 16.7205 28.8052 6.6109
322 2 16.8738 30.5596 6.76121
323 4 18.6669 26.4915 7.4746
324 3 19.4155 25.1945 8.21285
325 1 16.8186 26.4078 7.98838
326 2 16.7694 25.6352 8.77445
327 2 16.6246 27.3553 8.51728
328 1 18.9582 26.4782 5.63176
329 2 20.0243 26.6483 5.42653
330 2 18.6581 25.5422 5.14814
331 2 18.3909 27.2861 5.15186
332 4 19.496 23.5899 7.76574
333 3 19.5132 22.5932 9.11244
334 1 17.9543 23.1753 6.78675
335 2 18.0711 22.2579 6.19817
336 2 17.0999 23.0385 7.4632
337 2 17.6975 23.9772 6.08673
338 1 21.0678 23.3559 6.79987
339 2 21.9395 23.6146 7.4118
340 2 21.1852 22.329 6.43496
341 2 21.0599 24.0234 5.9298
342 4 18.6766 21.2204 9.554
343 1 18.0758 20.2251 8.06674
344 2 18.792 20.2794 7.22874
345 2 17.9838 38.2477 8.36416
346 2 17.0958 20.5479 7.69391
347 1 19.8035 20.1452 10.6056
348 2 19.9455 20.5106 11.6298
349 2 19.3587 38.2181 10.6684
350 2 20.7986 39.1351 10.1326
351 4 2.16461 34.4543 12.9312
352 3 2.40116 33.4322 14.2564
353 1 3.45529 35.7935 12.8038
354 2 3.5517 36.3425 13.7509
355 2 4.44588 35.4187 12.5274
356 2 3.13764 36.5015 12.0292
357 1 0.443628 35.1026 12.6979
358 2 0.388289 35.6157 11.725
359 2 21.6874 34.3076 12.7215
360 2 0.208771 35.8534 13.4637
361 4 3.25466 32.3289 13.3761
362 3 2.82678 30.7705 13.5653
363 1 5.08663 32.6086 13.3484
364 2 5.5186 32.6481 14.3565
365 2 5.57219 31.7823 12.8107
366 2 5.33711 33.5349 12.8172
367 1 2.50393 32.9799 11.5899
368 2 3.42341 32.6254 11.0833
369 2 1.6763 32.2626 11.4859
370 2 2.28373 33.7636 10.8303
371 4 3.73269 29.3653 13.3202
372 3 2.87761 28.0209 13.7584
373 1 5.19975 29.4347 14.4801
374 2 4.79772 29.6483 15.4828
375 2 5.71599 28.4673 14.524
376 2 5.95167 30.1905 14.2331
377 1 4.04045 29.268 11.4812
378 2 4.62568 30.1073 11.0795
379 2 4.56854 28.35 11.1907
380 2 3.06782 29.2557 10.9688
381 4 3.33143 26.4361 14.0157
382 3 2.33128 25.4886 13.1043
383 1 3.13361 26.0418 15.8241
384 2 2.0952 26.212 16.1308
385 2 3.39672 24.9984 16.047
386 2 3.78315 26.6953 16.4263
387 1 5.08468 26.1484 13.393
388 2 5.84493 26.1756 14.1819
389 2 5.16186 25.1739 12.898
390 2 5.36077 26.9026 12.6452
391 4 2.28107 24.0972 12.2323
392 3 2.54592 22.8229 13.3132
393 1 0.543113 23.9946 11.5948
394 2 0.318694 24.7419 10.8226
395 2 0.306625 23.0022 11.1928
396 2 21.8727 24.1907 12.4406
397 1 3.64517 23.967 10.9726
398 2 4.58761 23.6867 11.4605
399 2 3.41655 23.1739 10.2495
400 2 3.83977 24.8864 10.4052
401 4 2.86373 21.2392 13.5065
402 1 2.44855 20.1515 12.0446
403 2 3.36743 38.9189 11.518
404 2 1.94837 38.3191 12.3902
405 2 1.79203 20.6755 11.3372
406 1 4.50562 20.9348 14.3435
407 2 4.43209 21.0243 15.4308
408 2 4.82408 38.9885 14.1031
409 2 5.27282 21.645 14.0025
410 4 8.55368 34.7141 13.7743
411 3 8.42263 33.4735 14.9177
412 1 10.1158 35.7299 13.8539
413 2 10.618 35.6716 14.8311
414 2 10.8335 35.4313 13.0759
415 2 9.86375 36.7824 13.6781
416 1 7.0099 35.733 13.6109
417 2 6.80565 36.0106 12.5691
418 2 6.14196 35.2015 14.0139
419 2 7.13742 36.6662 14.1708
420 4 9.19747 32.3771 13.9433
421 3 8.56613 30.863 13.9065
422 1 11.0391 32.462 14.1892
423 2 11.287 32.5119 15.2558
424 2 11.5306 31.5887 13.7524
425 2 11.4432 33.3463 13.6934
426 1 8.80174 33.372 12.2421
427 2 9.76634 33.1892 11.7379
428 2 8.02521 32.6639 11.9095
429 2 8.4736 34.2806 11.6833
430 4 9.47641 29.4296 14.1674
431 3 8.53604 28.0439 14.1916
432 1 10.2679 29.616 15.8616
433 2 9.64021 30.2339 16.5186
434 2 10.3873 28.6401 16.3584
435 2 11.2628 30.077 15.8041
436 1 10.7078 29.2558 12.7652
437 2 11.7414 29.1987 13.1343
438 2 10.5057 28.3183 12.2266
439 2 10.6604 30.0616 12.0195
440 4 9.15578 26.5302 14.6119
441 3 8.46764 25.3426 13.6963
442 1 8.74756 26.1216 16.3754
443 2 7.76775 25.6365 16.4625
444 2 9.49619 25.4147 16.7533
445 2 8.7645 27.0082 17.022
446 1 11.0026 26.5192 14.3191
447 2 11.4765 25.625 14.7437
448 2 11.2418 26.5421 13.2485
449 2 11.4843 27.3875 14.785
450 4 8.76954 23.8279 13.0805
451 3 8.46432 22.6508 14.2417
452 1 7.57206 23.6486 11.6857
453 2 7.92606 22.9434 10.9211
454 2 6.60779 23.2803 12.0665
455 2 7.38749 24.6123 11.1911
456 1 10.5528 23.6018 12.5462
457 2 11.235 23.5028 13.4027
458 2 10.6359 22.6802 11.9468
459 2 10.9137 24.4249 11.915
460 4 8.72973 21.0117 14.328
461 1 8.39267 20.1973 12.6633
462 2 8.89483 20.7488 11.8521
463 2 8.78845 38.2536 12.6541
464 2 7.32689 20.1549 12.4178
465 1 10.4447 20.6626 15.007
466 2 10.4808 20.7171 16.101
467 2 10.7677 38.7338 14.711
468 2 11.1797 21.3837 14.6144
469 4 16.9472 34.6482 12.1978
470 3 17.2157 33.3689 13.2555
471 1 18.4647 35.7595 12.2022
472 2 18.8641 35.849 13.224
473 2 19.2774 35.4205 11.5502
474 2 18.1483 36.7573 11.8587
475 1 15.5053 35.7428 12.7567
476 2 14.5142 35.3985 12.4431
477 2 15.4976 35.8464 13.8555
478 2 15.6575 36.7426 12.3218
479 4 16.1963 32.4145 14.1717
480 3 16.5905 30.8038 14.0118
481 1 16.3233 32.8859 15.9751
482 2 15.3368 32.8371 16.4573
483 2 16.9948 32.2051 16.5119
484 2 16.7003 33.9123 16.0849
485 1 14.4758 32.766 13.5182
486 2 14.4865 32.8669 12.4243
487 2 13.7538 31.9854 13.7816
488 2 14.0975 33.7046 13.9413
489 4 15.6206 29.4396 14.0975
490 3 16.4981 28.0143 14.2105
491 1 14.5317 29.5446 15.6202
492 2 13.6094 28.9597 15.5003
493 2 15.0637 29.1569 16.5004
494 2 14.2423 30.5819 15.8361
495 1 14.6601 29.4664 12.4824
496 2 15.3602 29.6235 11.6502
497 2 14.0942 28.5482 12.2895
498 2 13.945 30.297 12.4735
499 4 16.05 26.5211 13.5849
500 3 16.8097 25.1762 14.2278
501 1 14.2443 26.2754 14.0151
502 2 13.5438 26.7614 13.3261
503 2 13.9945 25.2078 14.0352
504 2 14.073 26.6678 15.0274
505 1 16.5463 26.5851 11.782
506 2 17.5992 26.8926 11.7325
507 2 16.4583 25.6237 11.2622
508 2 15.9568 27.3206 11.2257
509 4 16.7317 23.6638 13.5262
510 3 16.5421 22.4624 14.6784
511 1 15.2107 23.4315 12.4495
512 2 15.3275 22.5234 11.8465
513 2 14.3358 23.2877 13.1004
514 2 14.9824 24.2543 11.7625
515 1 18.344 23.365 12.6266
516 2 19.1888 23.6645 13.2604
517 2 18.4592 22.301 12.3776
518 2 18.4176 23.9382 11.6901
519 4 15.697 21.0483 14.8466
520 1 14.8929 20.3431 13.297
521 2 15.6124 20.28 12.4628
522 2 14.5834 38.3991 13.559
523 2 14.0087 20.8904 12.9548
524 1 16.8616 38.8469 15.5323
525 2 17.0951 39.0158 16.5883
526 2 16.4029 37.8518 15.4225
527 2 17.8045 38.8706 14.9573
ITEM: TIMESTEP
200
ITEM: NUMBER OF ATOMS
527
ITEM: BOX BOUNDS pp pp pp
0.0000000000000000e+00 2.2000000000000000e+01
2.0079962999999999e+01 3.9159925000000001e+01
0.0000000000000000e+00 2.0000000000000000e+01
ITEM: ATOMS id type x y z
1 4 1.30317 34.2585 2.62731
2 3 1.01135 33.2686 1.32762
3 1 2.0678 35.8894 2.07859
4 2 3.09217 35.788 1.70397
5 2 1.45465 36.3433 1.28296
6 2 2.08388 36.5838 2.93166
7 1 21.6656 34.56 3.49115
8 2 21.0489 35.2401 2.87891
9 2 21.1118 33.6279 3.65175
10 2 21.829 35.039 4.46418
11 4 1.87259 32.4208 0.183847
12 3 1.93928 30.8246 0.619661
13 1 3.58074 33.1989 0.122955
14 2 3.99027 33.2794 1.13886
15 2 4.29886 32.6366 19.5084
16 2 3.52264 34.2158 19.7115
17 1 0.974193 32.4628 18.5514
18 2 1.25176 31.5776 17.9583
19 2 -0.113426 32.4381 18.7043
20 2 1.22431 33.3582 17.9692
21 4 3.10501 29.7205 1.01058
22 3 2.38687 28.3184 1.50391
23 1 4.03042 30.4699 2.4695
24 2 3.28738 30.9477 3.12339
25 2 4.56908 29.7216 3.06439
26 2 4.74988 31.2407 2.16288
27 1 4.09497 29.3512 19.4626
28 2 4.96391 28.7061 19.6499
29 2 3.44264 28.8337 18.746
30 2 4.45471 30.2677 18.9757
31 4 2.5565 26.901 2.33273
32 3 2.06564 25.6441 1.36422
33 1 1.47328 26.9497 3.86121
34 2 0.41258 26.8943 3.5822
35 2 1.69221 26.1046 4.53083
36 2 1.62736 27.8757 4.43208
37 1 4.37177 26.6536 2.72676
38 2 4.72237 27.404 3.44566
39 2 4.55162 25.6643 3.16743
40 2 4.97156 26.7305 1.81125
41 4 1.87871 24.0054 1.48396
42 3 2.54097 23.3474 0.109476
43 1 0.0583565 23.6041 1.56601
44 2 21.6233 23.5038 0.562047
45 2 21.8664 22.6704 2.11511
46 2 21.5194 24.4097 2.08525
47 1 2.7876 23.3397 2.98375
48 2 2.46086 22.3196 3.22686
49 2 3.8702 23.315 2.80318
50 2 2.60771 23.9576 3.87528
51 4 3.06523 21.9711 19.3729
52 1 1.69076 21.2634 18.314
53 2 1.55064 21.8439 17.3995
54 2 1.95627 39.3127 18.0356
55 2 0.729701 21.2719 18.8494
56 1 3.7268 20.7379 0.6236
57 2 2.93217 20.4054 1.31352
58 2 4.09838 38.9282 0.0945011
59 2 4.54126 21.1619 1.22179
60 4 10.2485 34.5398 1.38343
61 3 10.2551 33.3326 0.192476
62 1 11.9704 35.1419 1.7421
63 2 12.3492 34.8219 2.72172
64 2 12.6544 34.7686 0.969414
65 2 11.9781 36.2411 1.70949
66 1 9.01011 35.8739 0.989079
67 2 8.62398 35.7605 19.966
68 2 8.15861 35.879 1.67896
69 2 9.50363 36.8553 1.05694
70 4 9.18721 32.3909 1.01505
71 3 9.65313 30.8248 1.15851
72 1 9.47553 33.2977 2.804
73 2 8.44918 33.4944 3.14514
74 2 9.8455 32.3146 3.16147
75 2 10.1013 33.885 3.51464
76 1 7.42348 32.6877 0.52525
77 2 7.33431 32.7702 19.4356
78 2 6.76649 31.8766 0.859195
79 2 7.06316 33.6227 0.970719
80 4 8.66391 29.464 0.962141
81 3 9.65163 28.1574 0.888858
82 1 7.58638 29.3773 2.49606
83 2 7.21026 30.3683 2.79064
84 2 6.71639 28.7203 2.37624
85 2 8.19101 28.9925 3.32902
86 1 7.80326 29.6561 19.3032
87 2 8.4718 30.2065 18.6249
88 2 7.60392 28.6825 18.8395
89 2 6.85206 30.1969 19.354
90 4 9.59452 26.525 0.572172
91 3 10.2789 25.7749 1.87736
92 1 7.84422 25.9225 0.281999
93 2 7.86505 24.8488 20.0451
94 2 7.17802 26.0692 1.1419
95 2 7.41006 26.431 19.4103
96 1 10.5926 26.1436 19.0534
97 2 11.6265 26.4988 19.1343
98 2 10.6096 25.0561 18.8876
99 2 10.1323 26.6026 18.1697
100 4 10.2902 24.2898 2.59678
101 3 10.2411 23.1139 1.41385
102 1 8.76939 24.1181 3.65029
103 2 7.86113 24.2154 3.03842
104 2 8.74543 23.1334 4.13628
105 2 8.73898 24.8944 4.42903
106 1 11.8993 24.1262 3.53004
107 2 11.8725 23.2017 4.12755
108 2 12.7488 24.0535 2.83556
109 2 12.0913 24.961 4.21689
110 4 11.4317 22.0517 0.944716
111 1 10.8297 21.1754 19.4076
112 2 10.2907 21.864 18.7455
113 2 11.6656 20.7295 18.8534
114 2 10.1527 20.3547 19.6964
115 1 11.9652 20.8742 2.31401
116 2 11.1331 20.5929 2.9755
117 2 12.3475 39.0396 1.84056
118 2 12.7601 21.2858 2.94455
119 4 17.0874 33.5621 0.0264474
120 3 16.9027 32.3616 1.10559
121 1 18.8658 34.0241 -0.243757
122 2 19.3967 34.1557 0.70942
123 2 19.3706 33.2414 19.1829
124 2 18.9072 34.9571 19.1777
125 1 15.8896 34.9803 0.263632
126 2 16.3705 35.9082 -0.0845706
127 2 14.9451 34.8614 19.7195
128 2 15.6506 35.0842 1.33809
129 4 15.84 31.4358 2.00645
130 3 15.8611 29.9167 1.35924
131 1 16.454 31.5209 3.76421
132 2 15.7186 31.1298 4.48261
133 2 17.3929 30.9684 3.89922
134 2 16.6373 32.5751 4.02134
135 1 14.1194 32.1572 1.8781
136 2 13.7494 32.1496 0.845456
137 2 13.4126 31.5764 2.48628
138 2 14.0828 33.1901 2.24742
139 4 14.8236 28.6231 1.20973
140 3 15.3797 27.5904 0.0470102
141 1 14.7289 27.8017 2.88584
142 2 14.4802 28.5443 3.66273
143 2 13.9715 27.0059 2.92685
144 2 15.7019 27.364 3.14216
145 1 13.1777 29.2423 0.567917
146 2 13.3542 30.0069 19.7975
147 2 12.6146 28.4269 0.0927924
148 2 12.533 29.6792 1.34643
149 4 15.7856 26.0363 19.6247
150 3 16.4007 25.337 0.981973
151 1 14.291 25.0715 19.0129
152 2 13.5951 24.8329 -0.168391
153 2 13.7367 25.6334 18.2442
154 2 14.6125 24.1209 18.5586
155 1 17.1078 26.0502 18.3137
156 2 18.0332 26.5122 18.6865
157 2 17.3357 25.0102 18.0264
158 2 16.7947 26.5718 17.3969
159 4 16.9184 24.1281 1.96521
160 3 15.9895 22.7818 1.65001
161 1 16.6884 24.7634 3.70498
162 2 15.6259 24.8907 3.94929
163 2 17.1524 24.1221 4.46816
164 2 17.1628 25.7536 3.77803
165 1 18.7131 23.71 1.65861
166 2 19.3743 24.4849 2.06496
167 2 18.9708 22.7699 2.16591
168 2 18.9449 23.5901 0.592274
169 4 16.2647 21.5574 0.532775
170 1 14.6426 20.6922 20.1999
171 2 13.9312 21.2888 19.6158
172 2 14.8535 38.844 19.6487
173 2 14.1762 20.4305 1.16044
174 1 17.4761 20.3286 1.31622
175 2 16.9093 38.6206 1.84105
176 2 18.11 38.9055 0.576114
177 2 18.1376 20.8181 2.04422
178 4 4.65259 34.3703 9.92878
179 3 5.18805 33.5854 8.56978
180 1 6.11147 35.272 10.7069
181 2 6.87078 34.6163 11.1443
182 2 6.60297 35.8974 9.94268
183 2 5.72603 35.9433 11.4878
184 1 3.44482 35.7135 9.37981
185 2 3.98702 36.4394 8.74878
186 2 2.58899 35.3311 8.81102
187 2 3.0698 36.2496 10.2651
188 4 5.54138 32.4549 7.41785
189 3 5.50654 30.9416 8.10247
190 1 7.24173 32.9003 6.76678
191 2 8.03696 32.6674 7.49008
192 2 7.45773 32.3673 5.82865
193 2 7.27717 33.9825 6.56533
194 1 4.27476 32.5121 6.05572
195 2 4.52685 33.2552 5.28333
196 2 4.18528 31.5302 5.56732
197 2 3.28721 32.7708 6.45632
198 4 6.4684 29.6169 8.33306
199 3 5.53697 28.2766 8.60556
200 1 7.47298 29.8788 9.88127
201 2 6.83188 30.3196 10.6566
202 2 7.86878 28.9274 10.2625
203 2 8.31334 30.5666 9.70538
204 1 7.52232 29.3214 6.81286
205 2 7.99469 28.3349 6.87187
206 2 6.91459 29.3554 5.90122
207 2 8.31201 30.0763 6.72428
208 4 4.55176 27.2022 7.81464
209 3 5.16013 25.6591 7.97928
210 1 2.85402 27.3123 8.58863
211 2 2.31543 26.3594 8.50529
212 2 2.92451 27.5794 9.65196
213 2 2.24914 28.0827 8.0916
214 1 4.4925 27.6993 6.01646
215 2 5.42762 27.4469 5.50351
216 2 3.66946 27.2032 5.49056
217 2 4.3351 28.7836 5.92996
218 4 5.29253 24.1039 7.42419
219 3 6.70918 23.4416 8.01246
220 1 3.87923 23.0201 7.99802
221 2 3.85826 22.1032 7.39649
222 2 3.9875 22.7391 9.05057
223 2 2.91332 23.5259 7.87667
224 1 5.35828 24.0567 5.55979
225 2 6.2626 24.5238 5.15598
226 2 5.32864 23.0155 5.21238
227 2 4.48785 24.5734 5.13606
228 4 7.30724 22.1104 8.79
229 1 6.31144 20.5439 8.47545
230 2 6.88705 38.7689 8.86556
231 2 5.34206 20.5579 8.9912
232 2 6.12611 20.3805 7.4007
233 1 9.11865 21.866 8.3426
234 2 9.45211 20.9063 8.76978
235 2 9.71435 22.6362 8.85269
236 4 13.1065 33.8149 5.44786
237 3 13.5828 33.1745 6.90143
238 1 14.4756 34.9853 4.90932
239 2 15.4645 34.525 5.02407
240 2 14.3572 35.2993 3.86822
241 2 14.435 35.8911 5.53779
242 1 11.4913 34.7584 5.70864
243 2 10.6398 34.102 5.92403
244 2 11.6019 35.4525 6.55441
245 2 11.2494 35.359 4.81708
246 4 13.1913 32.1144 8.11756
247 3 13.1478 30.6024 7.46114
248 1 14.5183 32.1932 9.4145
249 2 14.8688 33.2202 9.56395
250 2 14.1479 31.8162 10.3734
251 2 15.3821 31.5767 9.1205
252 1 11.5358 32.6303 8.83943
253 2 10.6915 32.3667 8.18148
254 2 11.3668 32.1591 9.82092
255 2 11.522 33.7174 8.98249
256 4 12.4095 29.1251 7.36455
257 3 13.5779 27.9737 7.53409
258 1 11.2004 28.9528 8.78282
259 2 10.6589 27.998 8.73525
260 2 11.7444 28.9915 9.73134
261 2 10.4617 29.7668 8.7842
262 1 11.648 28.9549 5.66335
263 2 12.1694 29.6298 4.96824
264 2 11.7355 27.9322 5.28166
265 2 10.5889 29.2321 5.66829
266 4 14.3873 26.6314 8.0464
267 3 13.5053 25.2843 7.64815
268 1 14.6278 26.7643 9.89513
269 2 13.6645 26.8707 10.415
270 2 15.146 25.8924 10.3185
271 2 15.2205 27.6571 10.1377
272 1 16.0044 26.6692 7.09014
273 2 15.7905 26.3268 6.0628
274 2 16.2434 27.7409 6.97742
275 4 12.5337 24.1438 8.34844
276 3 11.9147 23.1619 7.15795
277 1 11.0994 25.0124 9.17464
278 2 10.3973 25.3899 8.41861
279 2 10.5461 24.352 9.85319
280 2 11.4458 25.8731 9.76595
281 1 13.5461 23.0586 9.48122
282 2 12.9269 22.256 9.90889
283 2 14.3578 22.5902 8.90551
284 2 13.9994 23.6221 10.3103
285 4 11.1564 21.95 6.35415
286 1 9.32327 21.9127 6.81939
287 2 8.86876 21.0351 6.3239
288 2 8.82793 22.7957 6.38585
289 1 12.0012 20.3007 6.6135
290 2 12.0561 38.8015 5.67928
291 2 13.0226 20.4376 6.9983
292 2 11.4244 38.7695 7.33126
293 4 21.3236 34.073 7.23403
294 3 21.1266 32.9587 8.43026
295 1 0.976936 33.7146 6.44766
296 2 1.61596 33.3509 7.26902
297 2 0.981123 32.9602 5.65453
298 2 1.40308 34.649 6.0561
299 1 21.4004 35.8096 7.9572
300 2 20.5904 36.0319 8.6625
301 2 0.366739 35.9336 8.47822
302 2 21.3819 36.5403 7.13526
303 4 20.0602 32.0821 9.33367
304 3 19.8357 30.6157 8.5857
305 1 20.833 31.8231 11.0127
306 2 20.1799 31.215 11.6561
307 2 21.7989 31.3115 10.9214
308 2 20.9969 32.7884 11.5124
309 1 18.4723 33.0733 9.45731
310 2 18.1576 33.4317 8.46884
311 2 17.6425 32.5067 9.90164
312 2 18.6401 33.9501 10.0988
313 4 18.5424 29.5672 8.56133
314 3 19.0563 28.0681 8.10099
315 1 17.8749 29.4998 10.3087
316 2 17.5372 30.491 10.6439
317 2 17.0213 28.8176 10.3995
318 2 18.6591 29.1585 10.9987
319 1 17.2946 30.2451 7.32913
320 2 17.4865 29.8761 6.31136
321 2 16.2558 30.0003 7.59114
322 2 17.3788 31.3419 7.29714
323 4 18.9059 26.6441 7.28657
324 3 20.0118 25.5723 7.87741
325 1 17.211 25.894 7.65631
326 2 17.1902 24.8499 7.29709
327 2 17.1638 25.8155 8.75393
328 1 19.2176 26.9409 5.47017
329 2 20.0971 27.5904 5.34761
330 2 19.4097 25.9998 4.93039
331 2 18.3572 27.4347 4.99324
332 4 20.6505 24.0694 7.59387
333 3 20.5131 23.1854 9.00534
334 1 19.71 23.1366 6.25897
335 2 20.0133 22.0794 6.26899
336 2 18.6259 23.1687 6.44858
337 2 19.9025 23.5353 5.25084
338 1 0.450293 24.3068 7.17747
339 2 0.949672 24.8071 8.02002
340 2 0.97032 23.3646 6.96479
341 2 0.538733 24.9617 6.29478
342 4 19.3505 22.8537 10.1358
343 1 17.9423 21.8128 9.45717
344 2 18.2799 21.139 8.65337
345 2 17.5532 21.2051 10.2915
346 2 17.1021 22.4048 9.0726
347 1 20.1278 22.0859 11.6563
348 2 20.558 22.814 12.3515
349 2 19.3472 21.5242 12.1893
350 2 20.9294 21.3845 11.3748
351 4 2.10403 33.3396 13.9553
352 3 3.46416 32.7751 14.7845
353 1 2.389 35.0257 13.2402
354 2 2.22845 35.7782 14.0231
355 2 3.4143 35.1271 12.8562
356 2 1.68604 35.2326 12.4215
357 1 0.556587 33.0355 14.9222
358 2 21.741 33.6872 14.5836
359 2 0.23518 31.9901 14.8401
360 2 0.736466 33.2411 15.9864
361 4 3.76346 31.5813 13.678
362 3 3.46099 30.0929 14.2515
363 1 5.35955 31.782 12.7623
364 2 6.19428 31.8978 13.463
365 2 5.55582 30.901 12.138
366 2 5.30551 32.6637 12.1041
367 1 2.21021 31.93 12.4707
368 2 2.78753 31.2501 11.7933
369 2 1.30444 31.3475 12.68
370 2 2.04149 32.7148 11.7097
371 4 4.19372 28.5925 14.1426
372 3 3.24128 27.551 14.9951
373 1 5.8638 28.7572 14.9269
374 2 5.75068 29.0265 15.9878
375 2 6.44787 27.8277 14.8724
376 2 6.47491 29.534 14.442
377 1 4.27502 28.0248 12.3581
378 2 4.69587 28.7873 11.6849
379 2 4.91357 27.1363 12.2512
380 2 3.27357 27.7569 11.9956
381 4 2.84495 25.9536 14.8435
382 3 2.05414 25.7595 13.4038
383 1 1.71806 25.4531 16.2471
384 2 0.687201 25.775 16.0416
385 2 1.72029 24.3573 16.348
386 2 2.03884 25.8809 17.208
387 1 4.45032 24.9797 14.802
388 2 5.23162 25.5679 14.2966
389 2 4.82034 24.7268 15.8072
390 2 4.33245 24.0471 14.2378
391 4 1.48771 24.5757 12.3977
392 3 1.33274 23.174 13.2873
393 1 21.8651 25.2065 11.7283
394 2 22.0157 26.233 11.3648
395 2 21.4918 24.6021 10.8943
396 2 21.0973 25.2467 12.5114
397 1 2.70036 24.2372 11.0303
398 2 3.74068 24.3653 11.3625
399 2 2.59637 23.2048 10.671
400 2 2.54046 24.9072 10.1744
401 4 1.57172 21.7063 13.9904
402 1 1.6818 20.3327 12.7067
403 2 2.09969 20.6919 11.7535
404 2 2.3466 38.6305 13.1121
405 2 0.715141 38.9409 12.4959
406 1 3.06086 21.6411 15.1501
407 2 2.829 21.9218 16.1808
408 2 3.41089 20.5958 15.1723
409 2 3.88989 22.2869 14.8346
410 4 7.93326 34.5296 14.6305
411 3 8.11822 33.2344 15.6868
412 1 9.02268 35.9795 15.0324
413 2 8.95481 36.1981 16.1092
414 2 10.0779 35.8362 14.7805
415 2 8.65478 36.8675 14.4961
416 1 6.17438 35.0092 14.3484
417 2 5.99938 35.3325 13.3138
418 2 5.45998 34.2096 14.5842
419 2 5.97062 35.8744 14.9966
420 4 9.19329 32.418 14.7081
421 3 8.82359 30.8215 14.569
422 1 10.9421 32.842 15.1843
423 2 11.0036 33.0049 16.2689
424 2 11.6572 32.052 14.9229
425 2 11.2614 33.7684 14.6851
426 1 8.76357 33.3609 13.037
427 2 9.34853 34.2243 12.6754
428 2 9.27929 32.5509 12.4566
429 2 7.76439 33.2865 12.5795
430 4 9.8918 29.5055 14.6942
431 3 9.05121 28.0744 14.6714
432 1 10.768 29.6732 16.3487
433 2 10.4679 30.5908 16.868
434 2 10.5217 28.8297 17.0095
435 2 11.8621 29.705 16.2412
436 1 10.993 29.5834 13.178
437 2 11.2859 28.5773 12.8466
438 2 10.4605 30.0649 12.3451
439 2 11.9134 30.1543 13.3604
440 4 9.293 26.4668 15.0506
441 3 8.98733 25.5651 13.6992
442 1 8.06851 25.9605 16.3648
443 2 7.06756 25.8186 15.9398
444 2 8.3709 25.0147 16.8365
445 2 8.00281 26.7262 17.1497
446 1 11.0627 26.1397 15.5746
447 2 11.1133 25.2143 16.1671
448 2 11.7168 26.0136 14.7016
449 2 11.4676 26.9452 16.1986
450 4 9.14362 24.113 12.9342
451 3 8.61507 22.8619 13.8928
452 1 8.04278 24.2139 11.4468
453 2 8.16568 23.3014 10.8346
454 2 6.98522 24.2592 11.751
455 2 8.25351 25.0803 10.8049
456 1 10.94 23.7569 12.5799
457 2 11.443 23.4391 13.5023
458 2 11.0427 22.9511 11.8441
459 2 11.4611 24.643 12.1969
460 4 7.24286 22.0784 14.3949
461 1 6.67467 20.7219 13.2144
462 2 7.42128 20.4801 12.443
463 2 6.48119 38.9075 13.8323
464 2 5.73433 20.9654 12.7018
465 1 7.57844 21.3488 16.0864
466 2 8.12748 22.0377 16.7384
467 2 6.63563 21.0681 16.5773
468 2 8.17761 20.4285 15.9594
469 4 17.2063 33.8042 13.2496
470 3 17.3252 33.0425 14.719
471 1 18.7925 34.79 13.1002
472 2 18.9164 35.3799 14.0246
473 2 19.6683 34.1395 12.9919
474 2 18.7496 35.4765 12.2432
475 1 15.6874 34.9189 13.254
476 2 14.7821 34.4072 12.9075
477 2 15.4995 35.2905 14.274
478 2 15.8677 35.7773 12.5887
479 4 16.6169 32.1284 15.8911
480 3 16.6511 30.5466 15.4279
481 1 17.5909 32.3056 17.4667
482 2 17.3709 31.4841 18.169
483 2 18.6783 32.3718 17.3322
484 2 17.2533 33.2766 17.9106
485 1 14.9083 32.8046 16.2731
486 2 14.2514 32.8703 15.3953
487 2 14.4016 32.2132 17.0509
488 2 15.0232 33.824 16.6744
489 4 15.6278 29.3128 15.0213
490 3 16.4949 27.9734 14.5849
491 1 14.6352 28.9244 16.5562
492 2 13.9706 28.0579 16.429
493 2 15.3241 28.7074 17.3846
494 2 14.0261 29.7913 16.8504
495 1 14.6153 29.9353 13.5685
496 2 15.2776 30.2574 12.7536
497 2 13.9225 29.1789 13.175
498 2 14.019 30.8086 13.8722
499 4 16.4526 26.4602 13.9111
500 3 17.052 25.3643 15.007
501 1 14.6697 25.9879 13.5595
502 2 14.0921 26.8402 13.1762
503 2 14.6068 25.1846 12.8115
504 2 14.1939 25.6305 14.4826
505 1 17.5468 26.4502 12.3959
506 2 18.552 26.8201 12.6374
507 2 17.6501 25.4345 11.9917
508 2 17.131 27.0829 11.6024
509 4 17.6187 23.8081 15.0665
510 3 16.8512 23.0434 16.3367
511 1 17.256 22.8995 13.4637
512 2 17.4452 21.8229 13.5809
513 2 16.2119 23.0183 13.1421
514 2 17.9023 23.2543 12.6504
515 1 19.4434 23.8596 15.4619
516 2 19.584 24.2342 16.4861
517 2 19.8975 22.8604 15.3972
518 2 19.993 24.5253 14.7815
519 4 16.507 21.5717 17.0367
520 1 15.5994 20.5099 15.7546
521 2 16.3247 39.0673 15.1038
522 2 14.9885 38.8112 16.2304
523 2 14.9515 21.1191 15.1074
524 1 18.0832 20.7097 17.5981
525 2 18.8914 21.4311 17.7883
526 2 17.8896 39.2383 18.5266
527 2 18.4133 39.0486 16.8522
ITEM: TIMESTEP
300
ITEM: NUMBER OF ATOMS
527
ITEM: BOX BOUNDS pp pp pp
0.0000000000000000e+00 2.2000000000000000e+01
2.0079962999999999e+01 3.9159925000000001e+01
0.0000000000000000e+00 2.0000000000000000e+01
ITEM: ATOMS id type x y z
1 4 0.698731 34.0306 2.28745
2 3 0.185028 33.1499 0.97166
3 1 1.30604 35.7201 1.74201
4 2 2.27153 35.6856 1.22467
5 2 0.569186 36.1828 1.06356
6 2 1.41071 36.3643 2.62873
7 1 21.2406 34.2001 3.44583
8 2 20.4107 34.709 2.92712
9 2 20.8882 33.2272 3.80567
10 2 21.525 34.8195 4.30793
11 4 1.01971 32.1977 19.8937
12 3 1.45037 30.8012 0.661616
13 1 2.53167 33.1539 19.3349
14 2 3.20017 33.3753 0.179268
15 2 3.10741 32.6051 18.5749
16 2 2.22749 34.1145 18.8931
17 1 21.8972 31.7439 18.4805
18 2 0.389693 30.9989 17.8395
19 2 20.9719 31.2915 18.8591
20 2 21.6302 32.6054 17.8547
21 4 2.73375 29.7999 0.926332
22 3 2.14057 28.3551 1.44265
23 1 3.78624 30.6055 2.25445
24 2 3.2112 30.6734 3.18881
25 2 4.71785 30.0543 2.4482
26 2 4.05323 31.6307 1.95856
27 1 3.62963 29.4976 19.3161
28 2 4.48813 28.8263 19.4595
29 2 2.94438 29.0223 18.6001
30 2 4.00307 30.4286 18.8672
31 4 2.39871 26.9321 2.23121
32 3 1.98915 25.6984 1.20628
33 1 1.25239 26.9216 3.70623
34 2 0.213488 26.8842 3.34946
35 2 1.42051 26.0565 4.36232
36 2 1.37084 27.834 4.30513
37 1 4.22305 26.7884 2.62597
38 2 4.58797 27.6801 3.15199
39 2 4.43374 25.9125 3.25469
40 2 4.79888 26.6781 1.69689
41 4 1.71602 24.0665 1.25378
42 3 2.4062 23.3974 19.9115
43 1 21.8711 23.7883 1.23395
44 2 21.42 24.3173 0.383466
45 2 21.6194 22.7216 1.15502
46 2 21.4082 24.178 2.15208
47 1 2.55642 23.2773 2.72283
48 2 2.48826 22.1816 2.66262
49 2 3.62355 23.5408 2.73662
50 2 2.1056 23.5943 3.67617
51 4 2.38311 22.6077 18.4682
52 1 0.694211 21.8388 18.1877
53 2 -0.103101 22.594 18.1705
54 2 0.674879 21.3116 17.2239
55 2 0.463097 21.1101 18.9827
56 1 3.75935 21.3426 18.4689
57 2 3.58302 20.6023 19.2684
58 2 3.78699 20.8162 17.5049
59 2 4.74055 21.8041 18.6362
60 4 10.2883 34.6791 1.45315
61 3 10.389 33.5011 0.243762
62 1 11.9742 35.052 2.12742
63 2 12.4025 34.2051 2.68081
64 2 12.6379 35.2735 1.27861
65 2 11.9578 35.9393 2.77556
66 1 9.27471 36.1568 0.953974
67 2 9.07228 36.1596 19.8736
68 2 8.31389 36.1934 1.4824
69 2 9.82676 37.0735 1.19921
70 4 9.11939 32.6292 0.845466
71 3 9.43337 31.0437 1.02849
72 1 9.14173 33.5264 2.67024
73 2 8.11172 33.8716 2.81915
74 2 9.2863 32.517 3.10767
75 2 9.71995 34.0383 3.47503
76 1 7.54484 33.0834 -0.0132195
77 2 7.61824 32.8294 18.9191
78 2 6.66201 32.5837 0.412329
79 2 7.39518 34.1682 0.0720526
80 4 8.52084 29.6205 1.04579
81 3 9.58664 28.3804 0.845292
82 1 7.66702 29.53 2.70397
83 2 7.04642 30.4228 2.87476
84 2 7.01 28.6512 2.78116
85 2 8.4124 29.4666 3.50887
86 1 7.32771 29.6791 19.6084
87 2 7.8141 30.0855 18.7116
88 2 6.9547 28.6763 19.3573
89 2 6.45366 30.3059 19.8305
90 4 9.68797 26.7241 0.719137
91 3 10.1674 26.1511 2.19182
92 1 8.02202 26.0031 0.265296
93 2 8.08022 24.9059 0.198996
94 2 7.24838 26.255 1.00664
95 2 7.69017 26.3686 19.2816
96 1 10.9741 26.3014 19.4382
97 2 11.8954 26.8823 19.589
98 2 11.2244 25.233 19.5083
99 2 10.6008 26.495 18.4221
100 4 10.5154 24.6989 2.90819
101 3 10.7486 23.5757 1.7012
102 1 9.05038 24.1703 3.93576
103 2 8.10526 24.4887 3.47393
104 2 9.02976 23.078 4.04509
105 2 9.09807 24.6128 4.94077
106 1 12.0724 24.8856 3.91497
107 2 12.3995 23.9141 4.31224
108 2 12.8886 25.2901 3.30071
109 2 11.9344 25.5589 4.77233
110 4 11.9553 22.5175 1.24703
111 1 11.6005 22.075 19.4641
112 2 11.8618 22.8748 18.76
113 2 12.1727 21.1735 19.194
114 2 10.5223 21.8679 19.3536
115 1 11.927 21.0014 2.36554
116 2 10.9256 20.5353 2.3316
117 2 12.6592 20.2612 2.0074
118 2 12.1536 21.2286 3.41589
119 4 17.3343 33.5558 0.102764
120 3 17.2502 32.3307 1.19726
121 1 19.123 33.9404 19.7374
122 2 19.7368 33.8809 0.650571
123 2 19.5659 33.2471 19.0174
124 2 19.1976 34.9564 19.3231
125 1 16.3764 35.069 0.673704
126 2 16.6995 35.9389 20.0786
127 2 15.2935 34.9604 0.544085
128 2 16.572 35.2843 1.73764
129 4 16.1704 31.3728 2.01682
130 3 15.8669 30.0206 1.11665
131 1 17.0789 30.92 3.57499
132 2 16.5452 30.1602 4.16266
133 2 18.0612 30.515 3.29685
134 2 17.2457 31.8007 4.20931
135 1 14.5905 32.3453 2.2669
136 2 14.0614 32.4651 1.31237
137 2 13.9047 31.8613 2.97457
138 2 14.8046 33.3476 2.65447
139 4 14.6861 28.8445 1.04897
140 3 15.1171 27.7717 -0.123613
141 1 14.5276 27.9884 2.70183
142 2 14.1312 28.6642 3.47636
143 2 13.8403 27.1339 2.63023
144 2 15.4993 27.6046 3.04267
145 1 13.0884 29.6415 0.49697
146 2 13.2162 30.0676 19.4908
147 2 12.2531 28.9298 0.462095
148 2 12.8004 30.4508 1.18165
149 4 15.9546 26.3882 19.5358
150 3 16.1986 25.5977 0.973615
151 1 14.9063 25.3315 18.3901
152 2 14.7977 24.315 18.7943
153 2 13.9023 25.7725 18.2835
154 2 15.3684 25.2502 17.3961
155 1 17.5952 26.8673 18.7747
156 2 18.2761 27.2539 19.5472
157 2 18.079 26.0174 18.2702
158 2 17.451 27.6572 18.0229
159 4 16.7049 24.1544 1.59711
160 3 16.5494 23.0183 0.410945
161 1 15.6091 23.7466 3.058
162 2 14.5553 23.7948 2.75549
163 2 15.8002 22.7289 3.42466
164 2 15.7555 24.4489 3.89229
165 1 18.4996 24.3017 2.08338
166 2 18.6167 24.9202 2.98442
167 2 18.9471 23.3209 2.29389
168 2 19.092 24.7699 1.28669
169 4 16.7416 21.4573 19.867
170 1 15.1317 20.5492 0.175927
171 2 14.3325 20.9527 19.5419
172 2 15.2542 38.5638 -0.0630472
173 2 14.8205 20.6341 1.22555
174 1 18.1184 20.6454 0.859763
175 2 17.8655 20.6237 1.92862
176 2 18.2838 38.6883 0.533394
177 2 19.0606 21.1959 0.739378
178 4 4.66051 34.0728 9.76275
179 3 5.6017 33.4761 8.5459
180 1 5.79761 35.119 10.8402
181 2 6.64527 34.5408 11.2316
182 2 6.20471 35.9465 10.2322
183 2 5.25604 35.5602 11.6902
184 1 3.32947 35.1477 8.98062
185 2 3.8091 35.9825 8.44154
186 2 2.71154 34.593 8.26285
187 2 2.66721 35.5728 9.74982
188 4 6.03267 32.5511 7.24848
189 3 5.883 30.9512 7.65783
190 1 7.81486 32.9805 6.89834
191 2 8.42463 32.8573 7.80377
192 2 8.23261 32.3436 6.10498
193 2 7.90925 34.0268 6.57689
194 1 4.93075 32.9163 5.79126
195 2 5.05431 33.9592 5.47159
196 2 5.17104 32.2634 4.93902
197 2 3.87391 32.762 6.04698
198 4 6.75272 29.5866 8.01425
199 3 5.73301 28.3101 8.04977
200 1 7.49414 29.7214 9.72444
201 2 6.68837 29.7028 10.4691
202 2 8.1622 28.8753 9.92688
203 2 8.06235 30.6526 9.84826
204 1 8.01366 29.2933 6.66926
205 2 8.51176 28.3228 6.79489
206 2 7.52243 29.2965 5.6857
207 2 8.78334 30.0755 6.66836
208 4 4.56546 27.18 7.84374
209 3 5.29548 25.6946 7.85981
210 1 3.39642 27.3119 9.29544
211 2 2.74737 26.4277 9.38238
212 2 3.97763 27.4041 10.2232
213 2 2.75553 28.2009 9.20455
214 1 3.71947 27.4932 6.21412
215 2 4.45326 27.4878 5.39775
216 2 2.9585 26.7306 5.99508
217 2 3.21896 28.4722 6.21204
218 4 5.2352 24.1402 7.30438
219 3 6.64872 23.3868 7.75559
220 1 3.80827 23.236 8.11508
221 2 3.38457 22.4554 7.46884
222 2 4.15198 22.762 9.04358
223 2 3.00955 23.944 8.37115
224 1 5.17517 24.1419 5.43657
225 2 6.08003 24.6198 5.04007
226 2 5.12044 23.1242 5.02959
227 2 4.30538 24.7036 5.07021
228 4 7.12966 22.0514 8.62827
229 1 6.21646 20.5111 8.03327
230 2 6.66448 38.6982 8.49642
231 2 5.14788 20.5204 8.28598
232 2 6.30644 20.4169 6.93711
233 1 8.98055 21.8197 8.33676
234 2 9.28544 20.8695 8.79698
235 2 9.52566 22.6015 8.88018
236 4 12.6307 33.6324 5.54371
237 3 12.8456 32.9899 7.05501
238 1 14.2668 34.4392 5.1055
239 2 15.0838 33.7088 5.14698
240 2 14.2295 34.8732 4.0987
241 2 14.4871 35.2418 5.82452
242 1 11.254 34.9024 5.73338
243 2 10.305 34.4379 6.03188
244 2 11.5392 35.6217 6.51846
245 2 11.0919 35.4622 4.80308
246 4 12.811 32.0698 8.41367
247 3 12.9644 30.4858 7.98229
248 1 14.274 32.4739 9.48402
249 2 14.3201 33.5425 9.72467
250 2 14.2139 31.9123 10.4249
251 2 15.2081 32.1864 8.98574
252 1 11.2019 32.3936 9.31507
253 2 10.3453 32.1321 8.68002
254 2 11.1377 31.8084 10.2425
255 2 11.1212 33.4592 9.57227
256 4 12.2515 29.0235 7.72943
257 3 13.3942 27.8745 7.9967
258 1 10.8831 28.8233 8.97583
259 2 10.3681 27.8597 8.8865
260 2 11.2911 28.8979 9.99285
261 2 10.1395 29.6203 8.85408
262 1 11.714 28.9287 5.94507
263 2 12.5158 29.3302 5.30794
264 2 11.5079 27.8973 5.62769
265 2 10.8112 29.5283 5.77051
266 4 14.327 26.5376 8.20477
267 3 13.441 25.2004 7.78608
268 1 14.7985 26.4619 10.0067
269 2 13.9128 26.2471 10.6214
270 2 15.5401 25.6804 10.2169
271 2 15.206 27.4179 10.359
272 1 15.7739 26.6837 7.00992
273 2 15.4351 26.288 6.03835
274 2 15.914 27.763 6.83711
275 4 12.405 24.1434 8.52384
276 3 11.8067 23.1406 7.35427
277 1 10.9927 25.1073 9.26841
278 2 10.4028 25.5862 8.47671
279 2 10.3233 24.4611 9.84915
280 2 11.3599 25.8937 9.94287
281 1 13.3297 23.095 9.75674
282 2 12.658 22.3491 10.2007
283 2 14.1455 22.5645 9.24806
284 2 13.7624 23.6935 10.5693
285 4 11.1279 21.948 6.45532
286 1 9.28051 21.8505 6.82499
287 2 8.88714 20.9476 6.32974
288 2 8.77952 22.7001 6.34275
289 1 11.9729 20.2985 6.74653
290 2 12.0585 38.7995 5.81743
291 2 12.9787 20.4358 7.16726
292 2 11.3707 38.7748 7.44478
293 4 21.5493 33.4512 6.80214
294 3 21.2129 32.8283 8.28874
295 1 1.01568 32.5481 6.06598
296 2 1.78342 32.423 6.84839
297 2 0.771361 31.5533 5.67343
298 2 1.43996 33.1409 5.24299
299 1 21.9169 35.2779 7.0294
300 2 21.0149 35.8991 6.9942
301 2 0.387517 35.4298 8.01378
302 2 0.608057 35.6148 6.24207
303 4 19.9789 32.1678 9.16777
304 3 19.5102 30.788 8.39803
305 1 20.7043 31.7363 10.8338
306 2 19.9237 31.4111 11.5365
307 2 21.4165 30.9105 10.7096
308 2 21.237 32.5858 11.2793
309 1 18.5637 33.3926 9.25128
310 2 18.1375 33.5466 8.24964
311 2 17.7583 33.0464 9.918
312 2 18.9121 34.365 9.62654
313 4 18.2052 29.7717 8.33794
314 3 18.6798 28.41 7.56154
315 1 17.6794 29.361 10.0813
316 2 17.2568 30.2401 10.5891
317 2 16.9208 28.5664 10.0974
318 2 18.5476 29.0159 10.6593
319 1 16.8835 30.6067 7.31119
320 2 17.1722 30.603 6.25133
321 2 15.903 30.1191 7.40658
322 2 16.7705 31.6563 7.61568
323 4 18.6849 26.9041 6.92457
324 3 19.9093 26.0572 7.62859
325 1 17.1011 26.0156 7.42467
326 2 17.1317 24.9743 7.0679
327 2 17.1745 25.9447 8.52154
328 1 18.9398 27.0506 5.08547
329 2 20.0099 27.1994 4.87699
330 2 18.6038 26.1469 4.55915
331 2 18.388 27.9109 4.68045
332 4 20.6794 24.6037 7.49447
333 3 20.0664 23.5664 8.62465
334 1 20.3468 23.8433 5.81855
335 2 20.7708 22.8336 5.74447
336 2 19.2639 23.7699 5.63872
337 2 20.782 24.46 5.01678
338 1 0.485973 24.9096 7.80135
339 2 0.649562 25.2513 8.83281
340 2 1.07622 24.0006 7.63595
341 2 0.85766 25.6934 7.12322
342 4 19.4403 23.3832 10.1454
343 1 17.5885 23.0932 10.0218
344 2 17.387 22.2769 9.30912
345 2 17.1944 22.8006 11.0069
346 2 17.0424 23.9803 9.68037
347 1 20.3246 21.9429 10.9461
348 2 21.3231 22.1901 11.3244
349 2 19.7194 21.5808 11.7915
350 2 20.4311 21.1259 10.2119
351 4 1.87905 32.9457 13.4611
352 3 3.19058 32.4658 14.3901
353 1 2.13985 34.58 12.6268
354 2 1.88642 35.3937 13.3203
355 2 3.18229 34.7089 12.3001
356 2 1.49134 34.6876 11.7441
357 1 0.276321 32.6752 14.34
358 2 21.4337 33.0472 13.7411
359 2 0.106416 31.6112 14.5491
360 2 0.274726 33.2188 15.2964
361 4 3.63469 31.2289 13.3682
362 3 3.44814 29.7687 14.0422
363 1 5.27641 31.5041 12.5434
364 2 6.10608 31.1991 13.1989
365 2 5.35736 30.9377 11.6038
366 2 5.38955 32.5731 12.3073
367 1 2.1549 31.4271 12.0574
368 2 2.6237 30.5601 11.5273
369 2 1.16332 30.9918 12.2553
370 2 2.15615 32.143 11.2173
371 4 4.16224 28.3442 14.5345
372 3 2.93132 27.3838 15.055
373 1 5.36728 28.7691 15.8951
374 2 4.87521 29.3439 16.6922
375 2 5.81683 27.8742 16.349
376 2 6.19177 29.3775 15.4935
377 1 4.98866 27.5548 13.056
378 2 5.68695 28.2531 12.5715
379 2 5.55717 26.6537 13.3275
380 2 4.22056 27.2726 12.3225
381 4 2.64372 25.8617 15.6568
382 3 2.25144 24.8578 14.4059
383 1 1.23754 25.9779 16.87
384 2 0.365777 26.4893 16.4415
385 2 0.923419 24.9753 17.1941
386 2 1.56457 26.5306 17.763
387 1 4.18607 25.2227 16.496
388 2 5.03059 25.1 15.805
389 2 4.48734 25.9098 17.3004
390 2 3.99141 24.2424 16.9584
391 4 1.93162 24.3399 12.8755
392 3 1.3039 22.7937 12.9549
393 1 0.613587 25.3792 12.068
394 2 0.993169 26.3696 11.7815
395 2 22.2466 24.8685 11.1662
396 2 21.7576 25.5151 12.7436
397 1 3.49657 24.2213 11.8686
398 2 4.19997 23.5211 12.3396
399 2 3.27102 23.8493 10.8602
400 2 4.00364 25.189 11.7683
401 4 1.0761 21.5248 13.9876
402 1 0.611623 39.098 12.9779
403 2 1.36199 38.9456 12.1844
404 2 0.60558 38.2114 13.6274
405 2 21.6297 20.1069 12.5025
406 1 2.64839 21.2282 14.9723
407 2 2.84802 22.0319 15.6891
408 2 2.58216 20.2732 15.5171
409 2 3.5123 21.168 14.2896
410 4 7.69555 34.3182 15.2106
411 3 8.16108 33.0371 16.2085
412 1 8.62645 35.8722 15.6059
413 2 8.61336 36.0457 16.6927
414 2 9.6723 35.8401 15.2782
415 2 8.14218 36.7322 15.1231
416 1 5.87185 34.4748 14.9796
417 2 5.63273 34.6785 13.9247
418 2 5.34634 33.5546 15.2677
419 2 5.48882 35.318 15.5701
420 4 9.24763 32.4779 15.0836
421 3 9.09837 30.8789 14.7817
422 1 10.97 33.0983 15.4018
423 2 11.1634 33.1368 16.4832
424 2 11.7327 32.4575 14.9376
425 2 11.094 34.1099 14.9942
426 1 8.47384 33.4183 13.5145
427 2 8.33452 34.4476 13.113
428 2 9.40936 33.2316 12.9402
429 2 7.68649 32.782 13.0945
430 4 10.2272 29.6232 14.8265
431 3 9.40188 28.2034 14.7398
432 1 11.1114 29.7376 16.4726
433 2 11.7138 30.6493 16.5621
434 2 10.3764 29.7315 17.2894
435 2 11.7876 28.8858 16.6227
436 1 11.3171 29.7891 13.3197
437 2 12.1274 29.0451 13.327
438 2 10.7093 29.6218 12.4196
439 2 11.7801 30.7838 13.2429
440 4 9.52851 26.5632 15.0173
441 3 9.15418 25.7854 13.6164
442 1 8.28713 26.1406 16.3441
443 2 7.2835 26.0428 15.9063
444 2 8.52598 25.1978 16.855
445 2 8.25177 26.9438 17.0943
446 1 11.2856 26.113 15.4878
447 2 11.3457 25.0484 15.7589
448 2 11.9736 26.2813 14.6465
449 2 11.6332 26.6932 16.3537
450 4 8.80647 24.3409 12.886
451 3 7.93551 23.3935 13.9328
452 1 7.79396 24.7555 11.382
453 2 7.6515 23.8775 10.7317
454 2 6.79727 25.1212 11.6703
455 2 8.27794 25.5378 10.7807
456 1 10.3748 23.4086 12.4869
457 2 10.7766 22.9265 13.388
458 2 10.1644 22.6231 11.7465
459 2 11.1471 24.0685 12.0706
460 4 6.45457 22.6312 14.0289
461 1 6.31929 21.3325 12.6701
462 2 7.06502 20.5345 12.8378
463 2 5.32583 20.8585 12.6665
464 2 6.4902 21.752 11.6692
465 1 6.37636 21.8564 15.7291
466 2 6.33783 22.6 16.5343
467 2 5.49161 21.2106 15.8169
468 2 7.27745 21.2385 15.8789
469 4 17.332 32.9918 12.8938
470 3 16.9462 32.5911 14.4478
471 1 18.7815 34.1908 12.844
472 2 18.8332 34.7683 13.7806
473 2 19.747 33.6957 12.6968
474 2 18.6375 34.8791 11.9984
475 1 15.7672 33.738 12.2069
476 2 14.9337 33.0289 12.235
477 2 15.4864 34.6127 12.8155
478 2 15.9083 34.0584 11.1672
479 4 17.1557 31.7587 15.8558
480 3 17.1297 30.1373 15.5412
481 1 18.8122 32.1657 16.5826
482 2 19.0471 31.5058 17.428
483 2 19.6075 32.0546 15.8333
484 2 18.8235 33.2029 16.9384
485 1 15.7505 32.1948 17.0061
486 2 14.7703 32.1023 16.5139
487 2 15.7615 31.5186 17.8759
488 2 15.8532 33.2248 17.374
489 4 16.028 29.0333 15.0019
490 3 16.8209 27.5908 14.9217
491 1 14.6604 28.876 16.2677
492 2 13.9854 28.0434 16.0261
493 2 15.0911 28.6826 17.259
494 2 14.0557 29.7889 16.3338
495 1 15.4362 29.5446 13.2972
496 2 16.2777 29.5279 12.5899
497 2 14.6559 28.8705 12.9136
498 2 15.0251 30.5632 13.3001
499 4 16.8567 26.0898 14.2429
500 3 17.417 25.0557 15.4116
501 1 15.1128 25.6032 13.7645
502 2 14.6657 26.3803 13.127
503 2 15.0926 24.6595 13.1997
504 2 14.4848 25.4867 14.6591
505 1 18.0035 26.1117 12.7652
506 2 19.0489 26.2589 13.0705
507 2 17.9424 25.1757 12.1905
508 2 17.7373 26.9326 12.0823
509 4 18.1714 23.6071 15.6748
510 3 17.3038 22.8273 16.8498
511 1 18.208 22.5966 14.0968
512 2 18.803 21.681 14.2299
513 2 17.202 22.3007 13.767
514 2 18.6809 23.1756 13.2916
515 1 19.9157 23.9339 16.257
516 2 19.9467 24.6412 17.0952
517 2 20.3978 23.0035 16.5839
518 2 20.5269 24.3493 15.4428
519 4 17.2581 21.3239 17.5848
520 1 15.931 20.2849 16.7402
521 2 16.2061 20.0009 15.713
522 2 15.7519 38.4368 17.3036
523 2 14.9854 20.8444 16.7017
524 1 18.9605 20.5274 17.415
525 2 19.7435 21.2048 17.7783
526 2 19.0045 38.6881 18.0161
527 2 19.1964 20.2616 16.3747
ITEM: TIMESTEP
400
ITEM: NUMBER OF ATOMS
527
ITEM: BOX BOUNDS pp pp pp
0.0000000000000000e+00 2.2000000000000000e+01
2.0079962999999999e+01 3.9159925000000001e+01
0.0000000000000000e+00 2.0000000000000000e+01
ITEM: ATOMS id type x y z
1 4 0.137866 33.3271 1.74081
2 3 21.8071 32.3948 0.403
3 1 0.695618 35.0155 1.14753
4 2 1.66486 34.9758 0.636664
5 2 21.9532 35.4171 0.436629
6 2 0.767211 35.7085 2.00042
7 1 20.5839 33.4333 2.78314
8 2 19.7005 33.414 2.12834
9 2 20.4867 32.5934 3.4801
10 2 20.5943 34.3659 3.36616
11 4 0.714267 31.4256 19.4014
12 3 1.35834 30.2228 0.328518
13 1 2.07422 32.439 18.6014
14 2 2.92314 32.5866 19.2852
15 2 2.4519 31.9518 17.6888
16 2 1.6958 33.432 18.3182
17 1 21.5707 30.6812 18.1433
18 2 0.112875 29.9597 17.5136
19 2 20.7448 30.1549 18.6376
20 2 21.1499 31.4529 17.4859
21 4 2.73518 29.3882 0.68683
22 3 2.27094 27.8936 1.18501
23 1 3.62632 30.3068 2.05547
24 2 3.02481 30.3066 2.97582
25 2 4.60532 29.8582 2.27785
26 2 3.79367 31.3544 1.76875
27 1 3.76363 29.1961 19.1445
28 2 4.69946 28.6635 19.359
29 2 3.21549 28.6199 18.3875
30 2 4.0199 30.1735 18.7136
31 4 2.37751 26.588 2.18029
32 3 2.13001 25.2423 1.25868
33 1 1.04478 26.7347 3.4818
34 2 0.0624672 26.8712 3.00868
35 2 1.00214 25.8379 4.11592
36 2 1.23212 27.5997 4.13286
37 1 4.10644 26.5269 2.88705
38 2 4.37848 27.5021 3.31585
39 2 4.19346 25.7742 3.68226
40 2 4.83619 26.2813 2.10349
41 4 1.43661 23.7457 1.19021
42 3 2.44705 22.7498 0.338409
43 1 21.8058 23.8956 0.298198
44 2 21.9436 24.2326 19.2626
45 2 21.2669 22.9373 0.288728
46 2 21.1732 24.6303 0.811185
47 1 1.28546 23.0087 2.90036
48 2 0.940041 21.9674 2.83868
49 2 2.26436 23.0129 3.40255
50 2 0.574074 23.5665 3.52659
51 4 2.45674 22.0205 18.8469
52 1 1.11661 20.6935 18.787
53 2 0.101573 21.1123 18.8229
54 2 1.19497 20.1118 17.856
55 2 1.24138 39.0794 19.6365
56 1 4.15949 21.2819 18.6505
57 2 4.30353 20.5222 19.4369
58 2 4.2654 20.7956 17.6718
59 2 4.94653 22.0396 18.7509
60 4 10.9448 34.8362 1.13262
61 3 10.7474 33.5797 0.0413053
62 1 12.5783 34.854 1.99216
63 2 12.9271 33.8378 2.21924
64 2 13.3219 35.351 1.35348
65 2 12.5197 35.4212 2.93123
66 1 10.3236 36.462 0.491488
67 2 10.1364 36.4107 19.4081
68 2 9.39882 36.7915 0.981018
69 2 11.0901 37.2301 0.668668
70 4 9.36046 33.0116 0.770342
71 3 9.46599 31.4172 1.08206
72 1 9.52085 34.0187 2.45932
73 2 8.96025 34.9501 2.62535
74 2 8.82661 33.2768 2.92735
75 2 10.3488 33.8838 3.17477
76 1 7.84294 33.5629 19.8636
77 2 7.78461 33.1057 18.8636
78 2 6.91597 33.3271 0.405129
79 2 7.89304 34.6537 19.733
80 4 8.54871 30.018 1.2044
81 3 9.58296 28.7646 0.978232
82 1 7.82348 29.9729 2.91986
83 2 7.17466 30.8428 3.10247
84 2 7.22328 29.0656 3.08119
85 2 8.62981 29.9807 3.66477
86 1 7.24738 30.0357 19.8661
87 2 7.68265 30.3132 18.896
88 2 6.79124 29.0432 19.7482
89 2 6.44112 30.7499 0.0892951
90 4 9.79808 27.1269 0.829334
91 3 10.3792 26.5679 2.27665
92 1 8.16901 26.2785 0.468421
93 2 8.32834 25.1929 0.382359
94 2 7.43082 26.451 1.26604
95 2 7.73746 26.6219 19.5167
96 1 11.0461 26.8366 19.4734
97 2 11.9649 27.4101 19.6574
98 2 11.3084 25.7699 19.4299
99 2 10.6403 27.1306 18.4951
100 4 10.6679 25.0725 2.93916
101 3 11.0615 24.0389 1.69229
102 1 9.12282 24.4367 3.77371
103 2 8.24682 24.5394 3.11869
104 2 9.23655 23.3738 4.02727
105 2 8.9227 24.9881 4.70321
106 1 12.094 25.2464 4.12305
107 2 12.4678 24.2639 4.44318
108 2 12.9234 25.7885 3.6462
109 2 11.8125 25.8022 5.02897
110 4 12.3022 22.9826 1.33161
111 1 12.1216 22.5191 19.5243
112 2 12.594 23.2389 18.8448
113 2 12.5971 21.5403 19.3583
114 2 11.0546 22.4516 19.256
115 1 12.211 21.4941 2.48087
116 2 11.1882 21.0773 2.47568
117 2 12.9037 20.7103 2.13933
118 2 12.457 21.7361 3.52222
119 4 17.3147 33.7135 0.388005
120 3 17.6767 32.3129 1.21015
121 1 18.6739 33.9419 19.1233
122 2 19.6591 33.8374 19.6059
123 2 18.6054 33.1688 18.3506
124 2 18.6048 34.9289 18.6452
125 1 17.1868 35.1589 1.58763
126 2 17.1009 36.1008 1.02396
127 2 16.3156 35.0703 2.24838
128 2 18.0877 35.2192 2.21971
129 4 16.8751 31.2964 2.25566
130 3 16.2169 30.056 1.38362
131 1 18.1908 30.6609 3.42072
132 2 17.7864 29.9741 4.17763
133 2 18.9713 30.1276 2.86282
134 2 18.6673 31.4985 3.94772
135 1 15.4975 32.2482 3.08409
136 2 14.8552 32.7049 2.31867
137 2 14.8656 31.5987 3.70735
138 2 15.876 33.0503 3.73144
139 4 14.7852 29.2405 1.15157
140 3 14.9965 28.1255 19.9574
141 1 14.3167 28.3675 2.73751
142 2 14.2861 29.071 3.58389
143 2 13.3275 27.8988 2.65564
144 2 15.0499 27.5829 2.97195
145 1 13.4486 30.3872 0.515112
146 2 13.7039 30.7508 19.5086
147 2 12.4906 29.8516 0.44066
148 2 13.2902 31.2602 1.16523
149 4 15.9454 26.8767 19.4384
150 3 16.422 26.0299 0.770689
151 1 14.9308 25.762 18.3252
152 2 14.5664 24.8961 18.897
153 2 14.0602 26.2993 17.9188
154 2 15.538 25.3844 17.4894
155 1 17.4508 27.5803 18.582
156 2 18.1724 27.9484 19.3269
157 2 17.9473 26.8228 17.9577
158 2 17.1779 28.4187 17.9236
159 4 16.8249 24.6293 1.5337
160 3 16.4292 23.3547 0.561908
161 1 15.8687 24.5436 3.13157
162 2 14.7858 24.5716 2.95738
163 2 16.0956 23.6153 3.67245
164 2 16.1328 25.3929 3.7774
165 1 18.6685 24.6923 1.81425
166 2 18.9475 25.6373 2.29838
167 2 19.0401 23.8604 2.42734
168 2 19.1819 24.6588 0.845958
169 4 16.8698 21.8126 0.107057
170 1 15.441 20.6715 0.522491
171 2 14.5339 20.9557 19.978
172 2 15.6925 38.7184 0.241884
173 2 15.2064 20.678 1.5963
174 1 18.382 21.2415 1.07976
175 2 18.2115 21.2935 2.16589
176 2 18.6067 20.1934 0.832295
177 2 19.2727 21.8413 0.847668
178 4 4.50662 33.9054 9.77404
179 3 5.32212 33.3817 8.42748
180 1 5.73987 34.8477 10.8325
181 2 6.5404 34.2112 11.2281
182 2 6.20421 35.6435 10.2279
183 2 5.22247 35.3224 11.6791
184 1 3.12735 35.0574 9.22012
185 2 3.53808 35.8348 8.55271
186 2 2.32721 34.5365 8.67717
187 2 2.67746 35.5518 10.0945
188 4 5.36442 32.3913 7.10364
189 3 5.42559 30.8159 7.60859
190 1 6.90737 32.8638 6.16011
191 2 7.73965 33.0396 6.85677
192 2 7.20383 32.0644 5.466
193 2 6.75514 33.7836 5.57987
194 1 3.80209 32.5639 6.09433
195 2 3.73841 33.5496 5.61368
196 2 3.75918 31.7966 5.30712
197 2 2.91731 32.4378 6.73219
198 4 6.42178 29.5201 7.86761
199 3 5.55763 28.1445 7.63865
200 1 7.03087 29.5619 9.63233
201 2 6.17267 29.5617 10.3181
202 2 7.64725 28.6801 9.8584
203 2 7.6311 30.4616 9.82921
204 1 7.78478 29.4905 6.60008
205 2 8.36819 28.5634 6.67155
206 2 7.35401 29.532 5.59057
207 2 8.47398 30.3378 6.70945
208 4 4.35284 27.0346 7.75082
209 3 4.99121 25.5684 7.34205
210 1 3.75962 26.9692 9.52178
211 2 2.82849 26.3938 9.62279
212 2 4.52528 26.4921 10.1492
213 2 3.57552 27.9781 9.91781
214 1 3.01267 27.5149 6.53801
215 2 3.46641 27.8871 5.60789
216 2 2.37492 26.6558 6.27982
217 2 2.36824 28.3098 6.93993
218 4 4.93112 23.949 7.05586
219 3 6.32936 23.2688 7.63826
220 1 3.45558 23.2018 7.93666
221 2 3.49778 22.1044 7.92523
222 2 3.43027 23.5378 8.98379
223 2 2.51505 23.5111 7.45692
224 1 4.90458 23.6332 5.22394
225 2 5.72478 24.1785 4.74013
226 2 5.02397 22.5632 5.01038
227 2 3.95454 23.9696 4.78614
228 4 7.04513 22.2829 8.75859
229 1 6.21449 20.5979 8.74875
230 2 6.79907 38.9752 9.36311
231 2 5.19638 20.6332 9.15636
232 2 6.15787 20.2018 7.72109
233 1 8.88793 22.1054 8.34013
234 2 9.22203 21.1675 8.81541
235 2 9.45476 22.8993 8.84091
236 4 12.1726 33.64 5.42842
237 3 12.0187 32.6734 6.76216
238 1 13.8724 34.4351 5.44101
239 2 14.6532 33.7231 5.73648
240 2 14.1303 34.8405 4.45382
241 2 13.875 35.2722 6.15891
242 1 10.8531 34.9707 5.61016
243 2 9.84062 34.5524 5.65295
244 2 11.0388 35.5164 6.5493
245 2 10.9025 35.6949 4.78362
246 4 12.3158 31.9546 8.22233
247 3 12.6249 30.3495 7.97145
248 1 13.8534 32.6314 9.01945
249 2 13.758 33.6922 9.28033
250 2 14.0735 32.068 9.93405
251 2 14.7121 32.5132 8.34584
252 1 10.789 32.1592 9.27845
253 2 9.8931 31.8579 8.71834
254 2 10.8515 31.5408 10.186
255 2 10.6567 33.2079 9.57948
256 4 11.9171 28.9404 7.48449
257 3 13.0567 27.7638 7.57642
258 1 10.5204 28.5341 8.6599
259 2 9.91434 27.6914 8.30006
260 2 10.9141 28.2673 9.64945
261 2 9.85063 29.3951 8.78693
262 1 11.3685 29.0942 5.70497
263 2 12.2469 29.1592 5.04795
264 2 10.7671 28.2329 5.38148
265 2 10.7707 30.0072 5.56542
266 4 14.1862 26.6341 7.94382
267 3 13.5433 25.1355 7.65356
268 1 14.6943 26.798 9.73969
269 2 13.9957 26.2613 10.399
270 2 15.6958 26.3782 9.91316
271 2 14.71 27.8491 10.0619
272 1 15.6307 26.9079 6.77885
273 2 15.2676 26.717 5.75603
274 2 15.8367 27.9892 6.80758
275 4 12.5263 24.1012 8.44813
276 3 11.806 23.1281 7.32127
277 1 11.2011 25.0663 9.33641
278 2 10.4742 25.498 8.63706
279 2 10.653 24.4168 10.0305
280 2 11.6297 25.8847 9.93159
281 1 13.5094 23.0331 9.61311
282 2 12.847 22.3378 10.1487
283 2 14.2496 22.4465 9.05216
284 2 14.0435 23.6406 10.3602
285 4 10.9822 22.0586 6.39281
286 1 9.14555 22.1088 6.82155
287 2 8.66653 21.2473 6.33286
288 2 8.69215 22.9985 6.36109
289 1 11.7166 20.3448 6.56361
290 2 10.9812 38.679 6.23134
291 2 12.6181 20.2161 5.95155
292 2 11.9903 20.1401 7.61109
293 4 21.5792 32.5559 6.14369
294 3 21.3802 32.5838 7.78392
295 1 0.344334 30.939 5.59149
296 2 0.92028 30.4911 6.4152
297 2 21.5978 30.2057 5.26549
298 2 1.00908 31.1426 4.74007
299 1 0.591272 34.0578 5.66357
300 2 21.9879 34.9227 5.36809
301 2 1.20644 34.3598 6.52459
302 2 1.24241 33.7906 4.82
303 4 20.1664 32.0961 8.81711
304 3 19.5835 30.6689 8.22367
305 1 20.9583 31.8262 10.4827
306 2 20.2164 31.4738 11.2109
307 2 21.7492 31.0709 10.4049
308 2 21.3979 32.7547 10.8671
309 1 18.8487 33.4174 8.83543
310 2 18.4178 33.5483 7.83331
311 2 18.0393 33.1666 9.53531
312 2 19.2764 34.3786 9.1493
313 4 18.2359 29.7036 8.17475
314 3 18.5837 28.4535 7.16446
315 1 17.8791 29.0756 9.89304
316 2 17.6414 29.91 10.5698
317 2 17.0293 28.3783 9.90828
318 2 18.7598 28.5542 10.2931
319 1 16.8348 30.6985 7.42791
320 2 17.014 30.8518 6.35363
321 2 15.8593 30.2049 7.54796
322 2 16.768 31.6877 7.90389
323 4 18.5228 26.9282 6.55769
324 3 19.7516 26.0471 7.18369
325 1 16.9118 26.0874 7.05326
326 2 16.85 25.112 6.54597
327 2 17.013 25.8488 8.12349
328 1 18.6905 27.0313 4.70939
329 2 19.6199 27.5476 4.42783
330 2 18.7089 26.0202 4.2804
331 2 17.8406 27.5778 4.27518
332 4 20.674 24.7996 7.72557
333 3 19.7852 23.9045 8.79531
334 1 21.0878 23.6724 6.30202
335 2 21.6464 22.7932 6.65012
336 2 20.1677 23.3252 5.81236
337 2 21.6957 24.1963 5.55023
338 1 0.176856 25.5301 8.55732
339 2 21.9543 26.5362 8.93501
340 2 0.501673 24.9089 9.40312
341 2 1.01697 25.6152 7.85437
342 4 19.5094 23.6005 10.4054
343 1 17.6813 23.233 10.5917
344 2 17.3791 22.4995 9.82924
345 2 17.4889 22.8039 11.5852
346 2 17.0511 24.1222 10.4809
347 1 20.5507 22.1399 10.9602
348 2 21.5312 22.4014 11.374
349 2 19.9895 21.6287 11.757
350 2 20.7034 21.4408 10.1231
351 4 1.8041 32.3012 13.4938
352 3 3.17675 32.0618 14.4284
353 1 1.71857 33.9907 12.7446
354 2 1.58334 34.7502 13.5261
355 2 2.6284 34.2203 12.1689
356 2 0.856558 34.0597 12.0623
357 1 0.280192 31.6153 14.2852
358 2 21.4287 31.6778 13.5915
359 2 0.417695 30.5638 14.5716
360 2 0.0215309 32.1854 15.1885
361 4 3.86972 30.9841 13.358
362 3 3.88919 29.4719 13.933
363 1 5.48467 31.6019 12.6966
364 2 6.26727 31.4374 13.4518
365 2 5.78751 31.0969 11.7702
366 2 5.40626 32.681 12.5074
367 1 2.39304 30.9434 12.0306
368 2 3.0935 30.3844 11.3634
369 2 1.61125 30.1944 12.2149
370 2 2.09469 31.6936 11.2753
371 4 4.78207 28.1626 14.4614
372 3 3.68401 27.0595 14.9675
373 1 5.85728 28.7357 15.8665
374 2 5.23566 29.2049 16.6442
375 2 6.39609 27.8943 16.3275
376 2 6.60774 29.4628 15.5249
377 1 5.69902 27.4519 13.0028
378 2 6.5103 28.1121 12.6626
379 2 6.14154 26.477 13.244
380 2 4.99411 27.3123 12.169
381 4 2.92834 25.8592 15.8015
382 3 2.50165 24.6797 14.7219
383 1 1.39636 26.5667 16.5989
384 2 0.66691 26.875 15.8356
385 2 0.90885 25.8338 17.2575
386 2 1.64572 27.4513 17.203
387 1 4.08624 25.0987 17.0536
388 2 5.12421 25.0987 16.6915
389 2 4.04892 25.6496 18.0039
390 2 3.80409 24.0553 17.2602
391 4 1.87263 24.3037 13.244
392 3 1.36953 22.7121 13.3092
393 1 0.367984 25.3465 12.8666
394 2 0.606796 26.4158 12.7877
395 2 21.9154 25.0327 11.9167
396 2 21.6068 25.2292 13.6509
397 1 3.1799 24.3864 11.9199
398 2 3.82131 23.4975 11.9569
399 2 2.71228 24.428 10.9269
400 2 3.81666 25.2729 12.033
401 4 0.990491 21.6637 14.5338
402 1 21.9848 20.2552 13.8237
403 2 0.585215 38.8281 13.0488
404 2 21.7443 38.6036 14.6062
405 2 21.05 20.5993 13.3658
406 1 2.57546 21.0979 15.3489
407 2 3.15299 21.951 15.7275
408 2 2.37771 20.4093 16.1813
409 2 3.1906 20.5573 14.61
410 4 7.38531 34.2919 15.7036
411 3 7.55307 32.8141 16.4858
412 1 8.13771 35.6762 16.6923
413 2 8.50127 35.3033 17.6613
414 2 8.9716 36.1742 16.1819
415 2 7.36453 36.4328 16.8807
416 1 5.75999 34.6318 14.8943
417 2 5.91882 34.9898 13.8654
418 2 5.11589 33.7427 14.8547
419 2 5.24221 35.4335 15.4393
420 4 8.97251 32.4432 15.6783
421 3 8.96121 30.8818 15.1799
422 1 10.4831 33.0202 16.5921
423 2 10.5588 32.5915 17.5996
424 2 11.4098 32.7832 16.0501
425 2 10.4342 34.1098 16.7084
426 1 8.68013 33.6261 14.1422
427 2 8.9961 34.6807 14.0441
428 2 9.54224 33.1885 13.5828
429 2 7.83851 33.3791 13.4791
430 4 10.1445 29.6795 15.1296
431 3 9.3665 28.234 15.0166
432 1 11.11 29.754 16.7302
433 2 11.8258 30.5844 16.7382
434 2 10.435 29.879 17.5875
435 2 11.6811 28.8316 16.8958
436 1 11.161 30.0024 13.5951
437 2 11.9813 29.2797 13.4789
438 2 10.5183 29.9375 12.7057
439 2 11.6057 31.0087 13.6203
440 4 9.57184 26.5841 15.107
441 3 9.07507 25.962 13.6613
442 1 8.4927 25.9142 16.4828
443 2 7.53965 25.5406 16.0836
444 2 8.98913 25.0825 17.0012
445 2 8.27779 26.6982 17.2215
446 1 11.3768 26.1524 15.3731
447 2 11.4809 25.078 15.5856
448 2 11.9807 26.3773 14.4823
449 2 11.8034 26.6912 16.2307
450 4 8.91035 24.5138 12.8703
451 3 7.97609 23.5031 13.7912
452 1 8.0611 24.9159 11.267
453 2 7.9086 24.0169 10.6491
454 2 7.0753 25.3577 11.4657
455 2 8.64247 25.6386 10.6792
456 1 10.5762 23.691 12.6771
457 2 10.933 23.3062 13.6423
458 2 10.5143 22.8449 11.9796
459 2 11.3288 24.3938 12.2951
460 4 6.39592 23.0053 13.975
461 1 5.97745 21.7917 12.5972
462 2 6.64284 20.9133 12.6594
463 2 4.93861 21.4391 12.688
464 2 6.09963 22.2341 11.5991
465 1 6.30786 22.2031 15.6626
466 2 6.43699 22.9206 16.4815
467 2 5.33841 21.7055 15.802
468 2 7.10691 21.4487 15.7401
469 4 17.444 32.8529 12.6026
470 3 16.826 32.579 14.1249
471 1 18.9505 33.979 12.6767
472 2 18.781 34.8063 13.3853
473 2 19.8648 33.4512 12.9754
474 2 19.1251 34.3999 11.6757
475 1 16.0208 33.6292 11.6781
476 2 15.1363 32.9816 11.6991
477 2 15.7553 34.5815 12.1664
478 2 16.2709 33.8348 10.6284
479 4 17.1474 31.7592 15.5268
480 3 16.8464 30.1543 15.3016
481 1 18.9382 31.9584 15.9736
482 2 19.1549 31.4286 16.9087
483 2 19.601 31.5537 15.1999
484 2 19.1792 33.021 16.1126
485 1 16.0317 32.3808 16.8861
486 2 14.9752 32.3578 16.5809
487 2 16.1401 31.7338 17.7693
488 2 16.2829 33.4057 17.1892
489 4 15.843 29.0303 14.6312
490 3 16.6698 27.6125 14.6181
491 1 14.3562 28.7874 15.7307
492 2 13.6701 28.0418 15.304
493 2 14.6794 28.4278 16.7168
494 2 13.7956 29.7207 15.8711
495 1 15.362 29.5872 12.9073
496 2 16.2028 29.507 12.2033
497 2 14.5293 28.9886 12.5078
498 2 15.0413 30.6382 12.9278
499 4 17.1687 26.1242 14.1471
500 3 17.6475 25.2951 15.505
501 1 15.731 25.2303 13.3482
502 2 15.3457 25.8044 12.4913
503 2 16.0254 24.24 12.9755
504 2 14.9114 25.1026 14.0686
505 1 18.6116 26.327 12.9776
506 2 19.4567 26.808 13.4883
507 2 18.9499 25.3517 12.5972
508 2 18.347 26.9447 12.1066
509 4 18.5003 23.9434 15.955
510 3 17.542 23.1125 17.0217
511 1 18.8908 22.8999 14.4423
512 2 19.2873 21.9155 14.7273
513 2 17.9962 22.7282 13.8272
514 2 19.651 23.3738 13.8052
515 1 20.0675 24.4817 16.8144
516 2 19.8472 25.1013 17.6932
517 2 20.643 23.6075 17.1505
518 2 20.7175 25.0649 16.1461
519 4 17.3304 21.6484 17.8056
520 1 15.8631 20.7905 17.0017
521 2 15.973 20.7266 15.9096
522 2 15.7537 38.8524 17.4024
523 2 14.9359 21.3407 17.2161
524 1 18.911 20.6357 17.6247
525 2 19.7853 21.2111 17.9626
526 2 18.8502 38.8103 18.2468
527 2 19.0932 20.3144 16.5893
ITEM: TIMESTEP
500
ITEM: NUMBER OF ATOMS
527
ITEM: BOX BOUNDS pp pp pp
0.0000000000000000e+00 2.2000000000000000e+01
2.0079962999999999e+01 3.9159925000000001e+01
0.0000000000000000e+00 2.0000000000000000e+01
ITEM: ATOMS id type x y z
1 4 0.114545 33.4411 0.844489
2 3 21.7921 32.4225 19.5782
3 1 0.091118 35.2075 0.223155
4 2 0.830057 35.3568 19.4258
5 2 21.0981 35.4636 19.8175
6 2 0.299865 35.9027 1.04935
7 1 20.9186 33.1002 2.24183
8 2 19.943 32.8006 1.83027
9 2 21.2636 32.2818 2.88265
10 2 20.801 34.0019 2.85983
11 4 0.649713 31.1608 18.8966
12 3 1.17987 30.2118 0.14137
13 1 2.07829 31.8659 17.9179
14 2 2.83382 32.3302 18.5693
15 2 2.57225 31.0916 17.3134
16 2 1.72278 32.6311 17.2144
17 1 21.4914 30.1736 17.8332
18 2 21.9878 29.2535 17.4892
19 2 20.5939 29.8875 18.3957
20 2 21.1827 30.7437 16.9491
21 4 2.47099 29.4035 0.775484
22 3 1.88209 28.0366 1.47917
23 1 3.25559 30.5153 2.06002
24 2 2.50341 30.8855 2.77183
25 2 4.0332 29.9883 2.63277
26 2 3.72493 31.3902 1.58795
27 1 3.66415 28.9504 19.4088
28 2 4.59131 28.5248 19.8185
29 2 3.21541 28.2092 18.7336
30 2 3.93288 29.8376 18.8197
31 4 2.25524 26.6753 2.34138
32 3 1.95087 25.3683 1.38547
33 1 1.1619 26.6663 3.85112
34 2 0.103472 26.6384 3.55858
35 2 1.36722 25.7989 4.49415
36 2 1.32537 27.5785 4.44039
37 1 4.07655 26.6841 2.75991
38 2 4.37199 27.6541 3.18574
39 2 4.32604 25.9093 3.49702
40 2 4.6836 26.5032 1.86214
41 4 1.13455 23.9668 1.10117
42 3 2.24166 22.8179 0.642241
43 1 -0.086548 24.2313 19.7115
44 2 0.303475 24.9316 18.9619
45 2 21.7027 23.2779 19.2056
46 2 20.9626 24.6338 0.0854192
47 1 0.33164 23.3624 2.67604
48 2 -0.213404 22.4272 2.49182
49 2 1.09246 23.1701 3.44476
50 2 21.6242 24.1023 3.07549
51 4 2.52991 21.9346 19.2611
52 1 1.45416 20.3908 19.313
53 2 0.39141 20.6251 19.4636
54 2 1.53753 38.8991 18.3773
55 2 1.78506 38.8215 0.140663
56 1 4.34731 21.5064 19.2057
57 2 4.54637 20.6617 -0.114711
58 2 4.64682 21.2016 18.1944
59 2 4.96906 22.3601 19.5066
60 4 10.9431 34.8889 1.11167
61 3 10.5372 33.7622 19.9361
62 1 12.6789 34.6928 1.72712
63 2 13.108 33.75 1.35707
64 2 13.2987 35.5274 1.37368
65 2 12.7293 34.6766 2.82446
66 1 10.3558 36.6029 0.704093
67 2 10.2145 36.7196 19.619
68 2 9.40741 36.8522 1.19835
69 2 11.1083 37.3346 1.03162
70 4 9.21081 33.2175 0.782898
71 3 9.26033 31.6167 1.0534
72 1 9.66198 34.0397 2.52823
73 2 9.55455 35.0599 2.94116
74 2 8.66478 33.687 2.88831
75 2 10.3774 33.4516 3.11376
76 1 7.64736 33.8907 0.0540956
77 2 7.50269 33.4657 19.0493
78 2 6.76035 33.6668 0.662483
79 2 7.74071 34.9818 -0.0433106
80 4 8.3666 30.2011 1.07147
81 3 9.47017 28.9822 1.02362
82 1 7.38882 30.1387 2.65857
83 2 6.68876 30.9842 2.7306
84 2 6.80159 29.2114 2.72336
85 2 8.06764 30.1752 3.51964
86 1 7.25163 30.2151 19.5752
87 2 7.78406 30.546 18.6742
88 2 6.81958 29.2251 19.369
89 2 6.41558 30.9129 19.7355
90 4 9.76833 27.356 0.886771
91 3 10.424 26.8406 2.31679
92 1 8.15783 26.4597 0.556872
93 2 8.31867 25.3725 0.515007
94 2 7.40039 26.6628 1.32915
95 2 7.74369 26.7618 19.5827
96 1 10.9979 27.0892 19.5099
97 2 11.9872 27.479 19.7871
98 2 11.0999 26.0172 19.29
99 2 10.6668 27.5936 18.5911
100 4 10.7013 25.373 3.04944
101 3 11.1919 24.2949 1.87865
102 1 9.11356 24.7478 3.80627
103 2 8.27616 24.84 3.10165
104 2 9.21058 23.6905 4.0866
105 2 8.85927 25.3178 4.71123
106 1 12.0575 25.5932 4.3091
107 2 12.531 24.6266 4.53117
108 2 12.8354 26.2724 3.92969
109 2 11.6955 26.0018 5.26252
110 4 12.5596 23.4032 1.53343
111 1 12.4225 22.8684 19.7455
112 2 12.4784 23.7132 19.0485
113 2 13.2376 22.1695 19.5056
114 2 11.4614 22.3528 19.5887
115 1 12.6843 21.9283 2.69838
116 2 11.7277 21.377 2.7171
117 2 13.4665 21.2415 2.34125
118 2 12.9223 22.2027 3.73363
119 4 17.3776 33.6725 0.359081
120 3 17.8337 32.2484 1.10346
121 1 18.5344 33.9388 18.9203
122 2 19.5803 33.886 19.2547
123 2 18.4023 33.1564 18.1697
124 2 18.3545 34.9162 18.4495
125 1 17.4245 35.0651 1.61787
126 2 17.3851 36.0376 1.10163
127 2 16.5807 35.0105 2.31577
128 2 18.3566 35.0135 2.20413
129 4 16.9484 31.224 2.07881
130 3 16.086 30.2286 1.08389
131 1 18.158 30.2173 3.08089
132 2 17.6442 29.7 3.90495
133 2 18.6393 29.4591 2.44986
134 2 18.9387 30.8555 3.51698
135 1 15.8209 32.2503 3.16373
136 2 15.1299 32.8735 2.57936
137 2 15.2155 31.6228 3.83405
138 2 16.4101 32.921 3.80515
139 4 14.6154 29.4599 0.961168
140 3 14.77 28.2054 19.9058
141 1 14.1323 28.7773 2.63148
142 2 13.9855 29.5754 3.37455
143 2 13.1993 28.2011 2.57296
144 2 14.9255 28.1088 2.99874
145 1 13.3779 30.6502 0.219669
146 2 13.6012 30.8104 19.1541
147 2 12.3498 30.2695 0.297944
148 2 13.4171 31.6286 0.721123
149 4 15.8464 27.0267 19.4712
150 3 16.3865 26.3166 0.860237
151 1 14.95 25.766 18.4204
152 2 14.5706 24.9525 19.0554
153 2 14.0923 26.2305 17.9099
154 2 15.6165 25.328 17.6653
155 1 17.278 27.8454 18.5787
156 2 17.9682 28.3101 19.2995
157 2 17.8421 27.1232 17.9699
158 2 16.9191 28.6313 17.8974
159 4 17.18 25.1067 1.64779
160 3 17.0355 23.7137 0.785471
161 1 16.347 24.8812 3.30154
162 2 15.318 24.5262 3.15466
163 2 16.8742 24.1463 3.9248
164 2 16.2994 25.8279 3.85498
165 1 18.976 25.6163 1.7528
166 2 19.1269 26.3998 2.50597
167 2 19.6265 24.7714 2.01294
168 2 19.302 26.0218 0.785557
169 4 17.4036 22.153 0.3569
170 1 16.0458 21.0328 1.01558
171 2 15.0725 21.3134 0.595303
172 2 16.2467 39.0675 0.73868
173 2 15.9695 21.086 2.11026
174 1 19.0671 21.6621 1.10927
175 2 19.0018 21.556 2.20225
176 2 19.3974 20.6946 0.701678
177 2 19.8422 22.4075 0.88346
178 4 3.76602 33.3723 9.37763
179 3 4.49222 33.1005 7.91273
180 1 4.84983 34.5788 10.3306
181 2 5.84685 34.1658 10.5337
182 2 4.97199 35.5049 9.74485
183 2 4.38163 34.8396 11.2926
184 1 2.06949 34.0874 9.00494
185 2 2.17434 34.9544 8.33189
186 2 1.40217 33.3702 8.5096
187 2 1.58695 34.4257 9.93411
188 4 5.15229 32.1355 6.74871
189 3 5.29734 30.6044 7.36101
190 1 6.82226 32.8435 6.28164
191 2 7.49088 32.8863 7.15306
192 2 7.29852 32.221 5.51018
193 2 6.72672 33.8619 5.88161
194 1 4.02236 32.016 5.27197
195 2 3.82287 32.991 4.80998
196 2 4.48183 31.3677 4.51118
197 2 3.06505 31.5623 5.55808
198 4 6.42529 29.4514 7.72902
199 3 5.66291 28.0009 7.80911
200 1 7.13613 29.8252 9.41239
201 2 6.30748 30.0156 10.1089
202 2 7.71776 28.9779 9.80036
203 2 7.77958 30.7166 9.39694
204 1 7.69399 29.3653 6.365
205 2 8.28514 28.4437 6.41798
206 2 7.1906 29.3855 5.38817
207 2 8.38296 30.219 6.40505
208 4 4.43054 26.93 7.96406
209 3 4.96334 25.4911 7.35732
210 1 4.03522 26.7101 9.77668
211 2 3.17175 26.0445 9.91854
212 2 4.89825 26.2699 10.2952
213 2 3.8071 27.673 10.2566
214 1 2.96715 27.5343 6.97483
215 2 3.2225 27.5517 5.90632
216 2 2.09442 26.8768 7.10458
217 2 2.67678 28.5512 7.27619
218 4 4.71406 23.9038 7.0009
219 3 6.09678 23.065 7.37334
220 1 3.29028 23.2269 8.00747
221 2 3.04003 22.2045 7.69352
222 2 3.54925 23.2048 9.07494
223 2 2.39218 23.8488 7.88912
224 1 4.47474 23.7109 5.16645
225 2 5.34106 24.135 4.64156
226 2 4.38686 22.6512 4.89423
227 2 3.57015 24.2359 4.82529
228 4 6.85721 22.2604 8.60619
229 1 6.14932 20.5238 8.71542
230 2 6.7153 39.0122 9.45107
231 2 5.09584 20.5286 9.02448
232 2 6.21235 20.019 7.73687
233 1 8.7179 22.1943 8.23703
234 2 9.07004 21.2222 8.62113
235 2 9.24678 22.9449 8.83795
236 4 12.3374 33.5906 5.45785
237 3 12.0111 32.7886 6.86345
238 1 14.1231 34.1709 5.4849
239 2 14.8111 33.3456 5.70429
240 2 14.4059 34.6035 4.51533
241 2 14.2511 34.9449 6.25853
242 1 11.1607 35.0589 5.39996
243 2 10.1134 34.7414 5.47201
244 2 11.3816 35.7292 6.2471
245 2 11.2938 35.6341 4.47334
246 4 12.1076 32.019 8.32054
247 3 12.4235 30.4196 8.07151
248 1 13.5268 32.6564 9.33998
249 2 13.4508 33.7348 9.5289
250 2 13.5482 32.1343 10.3071
251 2 14.4848 32.458 8.83866
252 1 10.4664 32.2296 9.18199
253 2 9.66851 31.727 8.61739
254 2 10.4928 31.7974 10.1931
255 2 10.2022 33.2921 9.26525
256 4 11.9493 29.0293 7.32458
257 3 13.223 27.9923 7.37342
258 1 10.5031 28.3124 8.261
259 2 10.062 27.4586 7.72804
260 2 10.8074 27.9742 9.25961
261 2 9.71443 29.0662 8.39027
262 1 11.5321 29.3765 5.53744
263 2 12.3802 29.8537 5.02897
264 2 11.281 28.458 4.98827
265 2 10.6735 30.0605 5.47386
266 4 14.2394 26.7865 7.83903
267 3 13.4394 25.3422 7.75312
268 1 14.8585 27.1096 9.57304
269 2 14.0707 26.9522 10.3247
270 2 15.7002 26.4497 9.82548
271 2 15.2032 28.1482 9.66845
272 1 15.6488 26.8069 6.5981
273 2 15.2222 26.5547 5.61334
274 2 15.9456 27.8635 6.50684
275 4 12.5145 24.1851 8.47114
276 3 11.6837 23.3811 7.28403
277 1 11.2503 24.9617 9.59503
278 2 10.5623 25.5997 9.02938
279 2 10.6533 24.1888 10.0948
280 2 11.7242 25.5717 10.3777
281 1 13.613 22.9724 9.36082
282 2 13.0083 22.2026 9.86111
283 2 14.2838 22.4747 8.64706
284 2 14.2319 23.4735 10.1204
285 4 10.8652 22.2982 6.36319
286 1 9.02099 22.3729 6.73724
287 2 8.52255 21.5938 6.14138
288 2 8.60966 23.3263 6.37558
289 1 11.5542 20.5756 6.58416
290 2 10.9703 38.9389 5.99017
291 2 12.6033 20.5149 6.26642
292 2 11.5025 20.2738 7.6435
293 4 21.4562 32.2651 5.70491
294 3 21.4151 32.3669 7.35725
295 1 21.7701 30.4971 5.19099
296 2 0.673345 30.1075 5.68876
297 2 20.9271 29.8469 5.45685
298 2 21.9265 30.4446 4.10349
299 1 0.751496 33.4701 5.08067
300 2 0.359579 34.4699 4.86819
301 2 1.54735 33.5718 5.83426
302 2 1.18513 33.0727 4.15265
303 4 20.3703 31.9302 8.57685
304 3 19.6108 30.5445 8.08542
305 1 21.4186 31.6032 10.0853
306 2 20.7985 31.5358 10.992
307 2 21.9682 30.6593 9.97178
308 2 0.150388 32.4094 10.2257
309 1 19.1372 33.3047 8.83701
310 2 18.589 33.5098 7.90665
311 2 18.4064 33.0414 9.61559
312 2 19.6437 34.2278 9.15108
313 4 18.2578 29.6301 8.38315
314 3 18.427 28.231 7.54352
315 1 18.1525 29.2485 10.2051
316 2 17.8429 30.1359 10.7778
317 2 17.426 28.4474 10.4034
318 2 19.1311 28.9249 10.5866
319 1 16.7785 30.5568 7.71401
320 2 16.8961 30.7273 6.63375
321 2 15.838 30.0102 7.87302
322 2 16.6888 31.5396 8.20176
323 4 18.5509 26.7287 6.89873
324 3 19.5405 25.8236 7.8528
325 1 16.8604 25.8956 6.90778
326 2 16.8837 25.0554 6.19489
327 2 16.7519 25.4075 7.89007
328 1 19.2554 26.8838 5.18022
329 2 20.1003 27.5877 5.18465
330 2 19.6129 25.9136 4.80344
331 2 18.4979 27.2686 4.48399
332 4 20.8317 24.9122 8.31935
333 3 20.2657 23.6321 9.21157
334 1 21.7195 24.1908 6.8474
335 2 0.27698 23.292 7.14112
336 2 21.0118 23.91 6.05552
337 2 0.429911 24.9168 6.42514
338 1 21.9617 25.9438 9.38686
339 2 21.3924 26.4686 10.1657
340 2 0.70993 25.3103 9.88436
341 2 0.499095 26.6945 8.79165
342 4 19.6265 23.3647 10.7125
343 1 17.7696 23.147 10.5742
344 2 17.5492 22.3681 9.82769
345 2 17.3493 22.8363 11.5416
346 2 17.2645 24.0706 10.2647
347 1 20.4849 21.881 11.4754
348 2 21.4586 22.1148 11.9212
349 2 19.8443 21.4778 12.2747
350 2 20.6403 21.1108 10.7029
351 4 1.66991 32.0609 13.4956
352 3 2.99727 31.8811 14.5063
353 1 1.58447 33.7359 12.7181
354 2 1.41143 34.5052 13.4815
355 2 2.50778 33.9795 12.1751
356 2 0.747012 33.7797 12.0063
357 1 0.111858 31.3668 14.2068
358 2 21.3558 31.2317 13.4183
359 2 0.293344 30.3941 14.6846
360 2 21.6886 32.0464 14.9577
361 4 3.78379 30.8438 13.4632
362 3 3.95089 29.3708 14.1075
363 1 5.30598 31.6001 12.7268
364 2 6.14686 31.5259 13.4302
365 2 5.60453 31.1089 11.7907
366 2 5.11888 32.6621 12.5139
367 1 2.32407 30.6438 12.1259
368 2 3.06659 30.1427 11.4621
369 2 1.60595 29.8451 12.3513
370 2 1.94702 31.3291 11.3407
371 4 4.9528 28.1083 14.5574
372 3 3.97712 26.856 14.9581
373 1 5.9263 28.6849 16.0323
374 2 5.24356 28.9751 16.8467
375 2 6.58912 27.8915 16.4066
376 2 6.5542 29.5478 15.7692
377 1 5.95477 27.6036 13.0696
378 2 6.60006 28.4275 12.7324
379 2 6.60175 26.7444 13.2857
380 2 5.27504 27.3356 12.2471
381 4 3.1857 25.665 15.7698
382 3 2.87536 24.4376 14.7099
383 1 1.59576 26.3583 16.4548
384 2 1.01195 26.8556 15.6682
385 2 0.970861 25.5655 16.8898
386 2 1.80228 27.0958 17.2433
387 1 4.27551 24.964 17.1134
388 2 5.27473 24.722 16.7239
389 2 4.39242 25.6845 17.9364
390 2 3.83933 24.0422 17.5278
391 4 2.02949 23.874 13.4134
392 3 1.43186 22.3697 13.8232
393 1 0.574723 24.9752 13.0233
394 2 0.893146 25.9785 12.7053
395 2 21.97 24.5452 12.2131
396 2 21.9262 25.0834 13.9037
397 1 3.17535 23.6651 11.9601
398 2 3.80881 22.7764 12.0796
399 2 2.6012 23.5523 11.0296
400 2 3.83212 24.5408 11.8527
401 4 1.28791 21.5803 15.2776
402 1 0.0452739 20.1944 15.0608
403 2 0.514787 38.461 14.4824
404 2 21.7333 38.8634 16.0308
405 2 21.1542 20.54 14.5203
406 1 2.98124 20.9822 15.8064
407 2 3.64193 21.8098 16.0843
408 2 2.90915 20.2903 16.6587
409 2 3.44269 20.4423 14.9631
410 4 7.1779 34.2107 15.8415
411 3 7.51349 32.784 16.6729
412 1 7.92707 35.7217 16.6308
413 2 8.14072 35.5528 17.6964
414 2 8.86108 36.0271 16.1404
415 2 7.21766 36.5571 16.5534
416 1 5.4354 34.3407 15.2459
417 2 5.40045 34.5912 14.1751
418 2 4.88304 33.402 15.394
419 2 4.92217 35.1478 15.7871
420 4 8.8538 32.4592 15.7263
421 3 8.84351 30.9274 15.1439
422 1 10.3927 33.0752 16.5587
423 2 10.5774 32.5463 17.5031
424 2 11.2929 32.9985 15.9305
425 2 10.2412 34.1303 16.8252
426 1 8.36205 33.6196 14.2101
427 2 8.45894 34.7116 14.0356
428 2 9.31887 33.3644 13.6941
429 2 7.58719 33.1886 13.5632
430 4 10.0133 29.7175 14.9896
431 3 9.23185 28.2726 14.7944
432 1 10.9911 29.7149 16.5805
433 2 11.6633 30.5789 16.6383
434 2 10.3229 29.7493 17.451
435 2 11.6129 28.8167 16.6739
436 1 11.0254 30.0928 13.4656
437 2 11.7251 29.275 13.2365
438 2 10.3676 30.2235 12.5941
439 2 11.6201 31.01 13.5879
440 4 9.56531 26.6455 14.9571
441 3 8.98351 25.8718 13.6148
442 1 8.66958 25.9869 16.4609
443 2 7.62964 25.7438 16.2016
444 2 9.14332 25.0707 16.8388
445 2 8.66259 26.7277 17.2725
446 1 11.4226 26.3901 15.0313
447 2 11.6835 25.3361 14.8642
448 2 11.9333 26.9777 14.2546
449 2 11.8391 26.6697 16.0095
450 4 8.88147 24.3475 12.9682
451 3 8.0442 23.3798 14.0234
452 1 7.931 24.5106 11.3786
453 2 7.78839 23.5306 10.8988
454 2 6.9364 24.9369 11.5684
455 2 8.44492 25.165 10.6626
456 1 10.5796 23.5904 12.7721
457 2 10.9062 23.123 13.7114
458 2 10.5617 22.8093 11.9996
459 2 11.3272 24.3399 12.4796
460 4 6.57022 22.6224 14.1712
461 1 6.34236 21.3547 12.7967
462 2 7.23732 20.7138 12.7217
463 2 5.47969 20.7118 13.0332
464 2 6.16858 21.8049 11.811
465 1 6.56483 21.8223 15.8627
466 2 6.35211 22.5283 16.6743
467 2 5.79748 21.0352 15.8896
468 2 7.5505 21.3697 16.057
469 4 17.6406 32.8843 12.5595
470 3 16.9077 32.6224 14.0324
471 1 19.1855 33.9395 12.7734
472 2 18.9406 34.8732 13.3057
473 2 19.9798 33.4253 13.3294
474 2 19.5871 34.1993 11.7827
475 1 16.3581 33.7461 11.509
476 2 15.5316 33.0903 11.2146
477 2 15.9367 34.582 12.0914
478 2 16.8186 34.1482 10.5956
479 4 17.1567 31.7574 15.4232
480 3 16.7988 30.1723 15.1446
481 1 18.9443 31.8219 15.9151
482 2 19.0798 31.4009 16.9187
483 2 19.5608 31.2302 15.2292
484 2 19.32 32.8539 15.9187
485 1 16.0444 32.4173 16.7682
486 2 14.9845 32.3481 16.4838
487 2 16.1866 31.827 17.6859
488 2 16.2674 33.4654 17.0062
489 4 15.69 29.115 14.5382
490 3 16.4029 27.6382 14.4945
491 1 14.2545 28.9928 15.7213
492 2 13.4767 28.3249 15.3271
493 2 14.5968 28.5867 16.683
494 2 13.7966 29.9743 15.9045
495 1 15.175 29.6883 12.8267
496 2 15.9363 29.43 12.0758
497 2 14.2237 29.2311 12.517
498 2 15.0521 30.7805 12.8163
499 4 16.8629 26.1358 14.0258
500 3 17.2349 25.2591 15.3882
501 1 15.4389 25.3118 13.1383
502 2 15.0938 25.9436 12.3064
503 2 15.7296 24.3383 12.7202
504 2 14.5909 25.1571 13.8197
505 1 18.3688 26.3004 12.9319
506 2 19.2385 26.6639 13.4963
507 2 18.6365 25.3383 12.4687
508 2 18.1803 27.0104 12.1144
509 4 18.3207 24.1303 15.9369
510 3 17.625 23.3947 17.2466
511 1 18.6806 22.8496 14.6133
512 2 19.5879 22.2833 14.8719
513 2 17.8545 22.1331 14.5031
514 2 18.859 23.3081 13.6319
515 1 19.8884 24.9874 16.4801
516 2 19.7022 25.6393 17.3428
517 2 20.6523 24.2539 16.7737
518 2 20.309 25.6063 15.6752
519 4 17.4971 21.9219 18.0236
520 1 15.9162 21.0984 17.435
521 2 15.9024 20.9682 16.3449
522 2 15.8041 39.1912 17.9035
523 2 15.0473 21.7098 17.712
524 1 19.0075 20.8518 17.6266
525 2 19.9433 21.3735 17.8775
526 2 18.9782 39.0066 18.2222
527 2 19.0501 20.5615 16.5678
ITEM: TIMESTEP
546
ITEM: NUMBER OF ATOMS
527
ITEM: BOX BOUNDS pp pp pp
0.0000000000000000e+00 2.2000000000000000e+01
2.0079962999999999e+01 3.9159925000000001e+01
0.0000000000000000e+00 2.0000000000000000e+01
ITEM: ATOMS id type x y z
1 4 0.0829721 33.5167 0.657472
2 3 21.7911 32.3975 19.4852
3 1 -0.155065 35.2323 -0.046438
4 2 0.387328 35.331 19.0027
5 2 20.7763 35.4235 19.763
6 2 0.196225 35.9981 0.656826
7 1 21.1273 33.0982 2.20636
8 2 20.0985 32.8031 1.94655
9 2 21.5876 32.256 2.73598
10 2 21.1045 33.9639 2.88203
11 4 0.650242 31.1016 18.864
12 3 1.27114 30.2662 0.146012
13 1 2.01754 31.7555 17.7738
14 2 2.80296 32.2454 18.3693
15 2 2.48824 30.9567 17.1827
16 2 1.63101 32.4903 17.0543
17 1 21.4085 30.0553 17.9599
18 2 21.8289 29.0697 17.7099
19 2 20.5206 29.9025 18.5872
20 2 21.0884 30.5419 17.0293
21 4 2.53193 29.4312 0.810133
22 3 1.89331 28.1274 1.58655
23 1 3.35862 30.5663 2.04615
24 2 2.62521 30.9507 2.76963
25 2 4.1477 30.046 2.60891
26 2 3.81699 31.429 1.54332
27 1 3.7041 28.8559 19.4727
28 2 4.60929 28.4127 19.9133
29 2 3.22982 28.0986 18.8339
30 2 4.01826 29.6965 18.8392
31 4 2.24019 26.7288 2.3978
32 3 1.844 25.4689 1.41708
33 1 1.20421 26.7374 3.9458
34 2 0.136111 26.7497 3.69083
35 2 1.40394 25.8561 4.57101
36 2 1.42209 27.6366 4.53801
37 1 4.07051 26.6219 2.75128
38 2 4.41597 27.4921 3.32844
39 2 4.30758 25.7191 3.33072
40 2 4.64181 26.5783 1.81375
41 4 1.04867 24.0591 1.12812
42 3 2.17013 22.9151 0.694582
43 1 21.8834 24.3344 19.6963
44 2 0.409434 24.8281 18.8687
45 2 21.4952 23.3751 19.3253
46 2 21.0318 24.9643 -0.0154971
47 1 0.227747 23.4572 2.69295
48 2 21.6763 22.5261 2.50882
49 2 0.987661 23.2583 3.46147
50 2 21.5285 24.203 3.09534
51 4 2.48838 22.0799 19.2907
52 1 1.37132 20.5649 19.2523
53 2 0.309642 20.8274 19.1429
54 2 1.63537 38.9866 18.4108
55 2 1.48442 39.0782 0.190898
56 1 4.30586 21.646 19.3029
57 2 4.4993 20.8753 20.0665
58 2 4.62125 21.2545 18.3269
59 2 4.91877 22.528 19.5327
60 4 11.0684 34.7899 1.01261
61 3 10.6497 33.6168 19.8861
62 1 12.8091 34.628 1.63247
63 2 13.2475 33.683 1.2781
64 2 13.4278 35.4602 1.27273
65 2 12.8473 34.6248 2.73215
66 1 10.4527 36.4719 0.52891
67 2 10.3832 36.5533 19.4331
68 2 9.46126 36.6921 0.948476
69 2 11.1492 37.2455 0.885634
70 4 9.31326 33.1447 0.759375
71 3 9.29934 31.556 1.07739
72 1 9.84085 33.986 2.48197
73 2 9.86313 35.0072 2.91325
74 2 8.8172 33.7536 2.86058
75 2 10.5166 33.3332 3.04461
76 1 7.75327 33.8673 0.070694
77 2 7.51235 33.3914 19.109
78 2 6.89642 33.7423 0.747934
79 2 7.90273 34.9409 19.8926
80 4 8.36508 30.1675 1.0894
81 3 9.4268 28.9245 0.939622
82 1 7.46705 30.0945 2.72251
83 2 6.74484 30.9208 2.80919
84 2 6.91348 29.1503 2.83182
85 2 8.18535 30.1701 3.54982
86 1 7.19662 30.2403 19.6348
87 2 7.7088 30.5727 18.7217
88 2 6.74531 29.2594 19.4249
89 2 6.3739 30.9458 19.8277
90 4 9.67203 27.2882 0.85184
91 3 10.2216 26.7935 2.33337
92 1 8.04726 26.4435 0.459038
93 2 8.19219 25.371 0.264385
94 2 7.32871 26.5452 1.28618
95 2 7.5929 26.8781 19.5562
96 1 10.9792 26.9613 19.5615
97 2 11.8962 27.5209 19.7904
98 2 11.2303 25.8926 19.5445
99 2 10.6337 27.2487 18.5591
100 4 10.5829 25.3377 3.04986
101 3 11.1737 24.3238 1.8728
102 1 9.02483 24.5742 3.73213
103 2 8.22548 24.5778 2.97906
104 2 9.20519 23.5338 4.03509
105 2 8.66475 25.1281 4.6108
106 1 11.8827 25.651 4.34792
107 2 12.4607 24.7384 4.54913
108 2 12.587 26.4256 4.00837
109 2 11.4569 25.9843 5.30441
110 4 12.5878 23.5202 1.5057
111 1 12.4201 22.9569 19.7278
112 2 12.3361 23.8009 19.0314
113 2 13.291 22.3568 19.4279
114 2 11.5168 22.3339 19.6266
115 1 12.8194 22.1 2.71399
116 2 11.8839 21.5184 2.79136
117 2 13.6161 21.4275 2.36458
118 2 13.0787 22.4341 3.72638
119 4 17.4322 33.7751 0.489831
120 3 17.8238 32.3009 1.17391
121 1 18.3553 33.9536 18.8741
122 2 19.2013 33.2517 18.8373
123 2 17.7147 33.7425 18.0112
124 2 18.7174 34.9876 18.7637
125 1 17.8469 35.1121 1.74643
126 2 17.8793 36.0994 1.25786
127 2 17.1124 35.1517 2.55971
128 2 18.8338 34.9079 2.19374
129 4 16.8752 31.3001 2.11509
130 3 16.0128 30.3345 1.09406
131 1 18.0546 30.2858 3.14466
132 2 17.5123 29.6888 3.89274
133 2 18.6414 29.6017 2.51777
134 2 18.753 30.9445 3.67991
135 1 15.7451 32.3376 3.18973
136 2 14.9391 32.8159 2.61722
137 2 15.2764 31.7349 3.98205
138 2 16.316 33.131 3.69122
139 4 14.5761 29.515 0.921333
140 3 14.7803 28.3386 19.7852
141 1 14.1178 28.7282 2.55296
142 2 14.0249 29.479 3.35257
143 2 13.1585 28.1976 2.48503
144 2 14.8911 28.0043 2.84673
145 1 13.2812 30.6796 0.2451
146 2 13.6271 31.1243 19.3011
147 2 12.339 30.15 0.0450227
148 2 13.0557 31.4988 0.943256
149 4 15.8062 27.1041 19.3859
150 3 16.3579 26.4688 0.809078
151 1 14.8655 25.7932 18.4344
152 2 14.5362 24.9941 19.1146
153 2 13.9721 26.2217 17.9535
154 2 15.4987 25.3403 17.659
155 1 17.2234 27.8235 18.3863
156 2 18.0088 28.2243 19.0452
157 2 17.6711 27.0673 17.7247
158 2 16.869 28.6449 17.7459
159 4 17.1799 25.242 1.54436
160 3 17.0518 23.8891 0.614607
161 1 16.3853 24.9386 3.2051
162 2 15.3336 24.6505 3.07151
163 2 16.8938 24.132 3.75165
164 2 16.4157 25.8423 3.82844
165 1 18.9573 25.8022 1.66153
166 2 19.0441 26.6798 2.31592
167 2 19.6187 25.017 2.05033
168 2 19.3174 26.0945 0.665921
169 4 17.3692 22.3098 0.207238
170 1 16.0034 21.2265 0.908712
171 2 15.0151 21.5595 0.568734
172 2 16.1455 20.1895 0.571227
173 2 16.0016 21.2269 2.00797
174 1 19.0302 21.7946 0.942249
175 2 18.981 21.7357 2.03929
176 2 19.3125 20.8002 0.566724
177 2 19.8285 22.5006 0.677811
178 4 3.51591 33.3813 9.38147
179 3 4.13897 32.8514 7.94325
180 1 4.82576 34.3873 10.2856
181 2 5.73809 33.8058 10.471
182 2 5.09147 35.2701 9.68038
183 2 4.43976 34.7429 11.2524
184 1 2.01303 34.4111 8.94035
185 2 2.33382 35.3087 8.3829
186 2 1.30396 33.8513 8.31635
187 2 1.49061 34.7444 9.84974
188 4 5.18091 31.9967 6.98797
189 3 5.29256 30.4543 7.58206
190 1 6.86689 32.8149 7.01378
191 2 7.30814 32.7647 8.01976
192 2 7.55162 32.3141 6.3117
193 2 6.8053 33.874 6.72878
194 1 4.45373 31.9413 5.27193
195 2 3.97828 32.8955 5.01253
196 2 5.22786 31.7347 4.51739
197 2 3.69756 31.148 5.20203
198 4 6.43138 29.2887 7.89142
199 3 5.65017 27.8632 8.09346
200 1 7.30815 29.6945 9.49019
201 2 6.57417 29.9941 10.2515
202 2 7.85252 28.8208 9.87394
203 2 8.02219 30.5208 9.35942
204 1 7.59896 29.1234 6.44125
205 2 8.07225 28.1328 6.43091
206 2 7.05925 29.2483 5.49229
207 2 8.39579 29.8783 6.48021
208 4 4.43878 26.7596 8.07884
209 3 5.01079 25.4102 7.31548
210 1 4.03517 26.3563 9.85675
211 2 3.16023 25.6982 9.93741
212 2 4.89247 25.8525 10.3254
213 2 3.82728 27.2703 10.4305
214 1 2.98191 27.4347 7.12508
215 2 3.28871 27.6786 6.09806
216 2 2.17023 26.6935 7.06598
217 2 2.57902 28.3459 7.58875
218 4 4.75135 23.807 7.01719
219 3 6.17243 22.9898 7.2979
220 1 3.41746 23.1501 8.15214
221 2 3.21588 22.0886 7.95718
222 2 3.71736 23.2522 9.20376
223 2 2.47787 23.7033 8.01348
224 1 4.35048 23.5838 5.21318
225 2 5.20373 23.9118 4.60602
226 2 4.13709 22.5336 4.97993
227 2 3.47534 24.1886 4.93311
228 4 6.95968 22.343 8.60963
229 1 6.30179 20.6092 8.91547
230 2 6.96062 39.1665 9.62532
231 2 5.28975 20.618 9.34052
232 2 6.26582 39.1151 7.97447
233 1 8.82696 22.295 8.28275
234 2 9.16948 21.317 8.65693
235 2 9.34055 23.0309 8.91694
236 4 12.5973 33.6811 5.51538
237 3 12.1978 32.8852 6.90806
238 1 14.3458 34.3498 5.68395
239 2 15.0649 33.5711 5.96747
240 2 14.6738 34.7931 4.73296
241 2 14.3618 35.1383 6.45424
242 1 11.3785 35.1089 5.36416
243 2 10.338 34.7619 5.36682
244 2 11.5175 35.7909 6.21965
245 2 11.5582 35.6857 4.44543
246 4 12.0173 32.0807 8.33293
247 3 12.2437 30.4716 8.0828
248 1 13.3255 32.5938 9.55082
249 2 13.3321 33.6796 9.71349
250 2 13.1595 32.0955 10.517
251 2 14.3181 32.2932 9.18416
252 1 10.2922 32.3894 8.97593
253 2 9.54231 32.054 8.24529
254 2 10.123 31.8471 9.91841
255 2 10.1279 33.4602 9.15581
256 4 11.9672 29.0927 7.22975
257 3 13.3663 28.222 7.24128
258 1 10.6043 28.1541 8.08974
259 2 10.3156 27.2513 7.53353
260 2 10.9169 27.8563 9.09841
261 2 9.71162 28.7847 8.19261
262 1 11.5345 29.4937 5.45674
263 2 12.3454 30.0428 4.96038
264 2 11.3345 28.5807 4.87751
265 2 10.6332 30.1229 5.41814
266 4 14.2774 26.9706 7.81165
267 3 13.3657 25.5907 7.80207
268 1 14.8656 27.3371 9.5495
269 2 14.029 27.3019 10.265
270 2 15.6221 26.6079 9.87609
271 2 15.3097 28.3399 9.60942
272 1 15.6999 26.8464 6.59347
273 2 15.2783 26.5407 5.62192
274 2 16.0357 27.8822 6.42959
275 4 12.6589 24.3528 8.62942
276 3 11.7847 23.4664 7.5432
277 1 11.4657 24.9924 9.90619
278 2 10.7071 25.6421 9.45493
279 2 10.9453 24.1542 10.3866
280 2 11.984 25.5591 10.6947
281 1 13.95 23.2541 9.40628
282 2 13.4681 22.4535 9.98419
283 2 14.5802 22.792 8.63471
284 2 14.603 23.8201 10.0892
285 4 11.0349 22.4602 6.48923
286 1 9.17648 22.5077 6.79842
287 2 8.70402 21.7358 6.16936
288 2 8.76601 23.4621 6.44506
289 1 11.7371 20.733 6.64555
290 2 11.1732 39.1127 6.01126
291 2 12.7917 20.7003 6.3427
292 2 11.6755 20.3901 7.69187
293 4 21.5781 32.2565 5.68041
294 3 21.4722 32.3575 7.32685
295 1 21.7527 30.4736 5.15626
296 2 0.697664 30.0568 5.54071
297 2 20.9258 29.8643 5.54148
298 2 21.7717 30.3963 4.06038
299 1 0.986677 33.3563 5.10871
300 2 0.686012 34.3897 4.90898
301 2 1.77442 33.3738 5.87792
302 2 1.39926 32.9383 4.17937
303 4 20.3894 31.9526 8.52887
304 3 19.6597 30.5366 8.07235
305 1 21.4088 31.6957 10.0698
306 2 20.8274 31.8935 10.9823
307 2 21.7688 30.6592 10.1076
308 2 0.279585 32.3639 10.0653
309 1 19.1286 33.3209 8.6756
310 2 18.5577 33.4103 7.73999
311 2 18.416 33.1321 9.49226
312 2 19.6202 34.283 8.87279
313 4 18.3172 29.633 8.45353
314 3 18.4902 28.1829 7.7064
315 1 18.2315 29.3635 10.2946
316 2 18.0428 30.3135 10.8213
317 2 17.4177 28.6729 10.556
318 2 19.1703 28.9434 10.6792
319 1 16.8109 30.5253 7.79229
320 2 16.9455 30.7947 6.73476
321 2 15.9017 29.9133 7.87529
322 2 16.6492 31.4543 8.36138
323 4 18.575 26.7375 6.94027
324 3 19.5893 25.7489 7.77249
325 1 16.8801 25.9246 6.97733
326 2 16.8985 25.0358 6.32572
327 2 16.7577 25.5122 7.99185
328 1 19.2058 26.9937 5.2102
329 2 20.2506 27.3334 5.24226
330 2 19.1599 26.0653 4.6267
331 2 18.6153 27.7576 4.68592
332 4 20.8675 24.8395 8.26165
333 3 20.294 23.576 9.16714
334 1 21.7416 24.0605 6.81205
335 2 0.348459 23.2107 7.15153
336 2 21.0161 23.69 6.0746
337 2 0.401744 24.7814 6.30751
338 1 22.0054 25.8913 9.30082
339 2 21.4666 26.3192 10.1571
340 2 0.841492 25.2931 9.69167
341 2 0.426572 26.7179 8.71164
342 4 19.6516 23.2245 10.6478
343 1 17.798 22.9945 10.4996
344 2 17.5925 22.2362 9.72826
345 2 17.3862 22.6425 11.4562
346 2 17.2726 23.9163 10.2212
347 1 20.4972 21.6845 11.3027
348 2 21.5089 21.8627 11.6857
349 2 19.8964 21.2744 12.1283
350 2 20.5623 20.9395 10.4924
351 4 1.46619 31.9489 13.4893
352 3 2.81833 31.8929 14.4798
353 1 1.30103 33.5691 12.6104
354 2 1.33073 34.3991 13.3278
355 2 2.10393 33.7207 11.8754
356 2 0.337988 33.6122 12.081
357 1 -0.0457686 31.2337 14.2759
358 2 21.17 31.0683 13.5211
359 2 0.177816 30.2703 14.7545
360 2 21.5438 31.9098 15.0368
361 4 3.6415 30.8517 13.4692
362 3 3.97872 29.4635 14.2189
363 1 5.03687 31.6771 12.576
364 2 5.94359 31.6792 13.1968
365 2 5.2738 31.1827 11.6238
366 2 4.75699 32.7176 12.3639
367 1 2.13439 30.4461 12.2323
368 2 2.87208 30.0509 11.4967
369 2 1.561 29.5753 12.5742
370 2 1.56038 31.0075 11.4629
371 4 4.9704 28.1796 14.6191
372 3 3.98573 26.895 14.8803
373 1 5.88567 28.6578 16.1651
374 2 5.18387 28.85 16.9914
375 2 6.57084 27.8549 16.4742
376 2 6.48364 29.5625 15.9893
377 1 6.07207 27.7952 13.1636
378 2 6.71839 28.6555 12.9346
379 2 6.72766 26.9392 13.3714
380 2 5.46551 27.5707 12.2734
381 4 3.21025 25.6752 15.6716
382 3 2.92811 24.4692 14.5862
383 1 1.59483 26.3233 16.3461
384 2 0.960423 26.7104 15.5366
385 2 1.03487 25.5301 16.8618
386 2 1.76827 27.1386 17.0636
387 1 4.30998 24.99 17.0167
388 2 5.34667 24.8976 16.6628
389 2 4.30669 25.6526 17.895
390 2 3.96984 23.9959 17.3411
391 4 2.06122 23.7705 13.3731
392 3 1.45102 22.3243 13.9387
393 1 0.613697 24.8367 12.8769
394 2 0.933685 25.835 12.5468
395 2 22.0541 24.3761 12.0514
396 2 21.9209 24.9586 13.7209
397 1 3.19941 23.381 11.9579
398 2 3.92261 22.6052 12.2365
399 2 2.62822 23.0194 11.0935
400 2 3.76266 24.2742 11.6558
401 4 1.3752 21.5969 15.4285
402 1 0.0950803 20.2339 15.3285
403 2 0.409093 38.5809 14.5668
404 2 22.0058 38.7996 16.2957
405 2 21.1076 20.6206 15.0454
406 1 3.07767 20.9763 15.8875
407 2 3.78728 21.7989 16.0323
408 2 3.04206 20.3822 16.8103
409 2 3.45657 20.3308 15.0783
410 4 7.06763 34.1525 15.7887
411 3 7.39826 32.7351 16.6371
412 1 7.77484 35.6612 16.6225
413 2 8.02362 35.447 17.6724
414 2 8.67874 36.0374 16.1256
415 2 7.02381 36.4627 16.6073
416 1 5.34967 34.2887 15.1233
417 2 5.36098 34.404 14.0291
418 2 4.74209 33.4054 15.3664
419 2 4.86569 35.1823 15.5423
420 4 8.76923 32.4227 15.7308
421 3 8.81248 30.8758 15.1938
422 1 10.2848 33.0913 16.5657
423 2 10.4874 32.5819 17.5157
424 2 11.1839 33.0266 15.9353
425 2 10.1108 34.1473 16.8098
426 1 8.28966 33.5502 14.1887
427 2 8.33138 34.642 13.988
428 2 9.2747 33.3435 13.7057
429 2 7.5508 33.0721 13.5331
430 4 10.0294 29.7064 15.0875
431 3 9.31161 28.2253 14.9471
432 1 11.0026 29.7931 16.68
433 2 11.6936 30.6444 16.683
434 2 10.3332 29.8969 17.5438
435 2 11.6024 28.8886 16.8386
436 1 11.0173 30.0675 13.5448
437 2 11.7676 29.2863 13.355
438 2 10.3479 30.1129 12.6736
439 2 11.5506 31.0266 13.6208
440 4 9.63136 26.5998 15.124
441 3 9.07736 25.8426 13.7612
442 1 8.70085 25.954 16.6141
443 2 7.75448 25.4907 16.3037
444 2 9.28854 25.1937 17.1466
445 2 8.47799 26.7665 17.3183
446 1 11.4732 26.2732 15.2572
447 2 11.6586 25.1957 15.3763
448 2 12.0095 26.6006 14.3551
449 2 11.9211 26.7691 16.1301
450 4 8.94966 24.3289 13.0961
451 3 8.02688 23.3977 14.1062
452 1 8.09946 24.5746 11.4605
453 2 7.75488 23.6231 11.0303
454 2 7.22603 25.2295 11.585
455 2 8.7697 25.0527 10.7339
456 1 10.6132 23.4806 12.9927
457 2 10.8922 23.0655 13.9712
458 2 10.5718 22.646 12.2792
459 2 11.4073 24.1666 12.6699
460 4 6.5489 22.6596 14.2761
461 1 6.31932 21.3955 12.9002
462 2 7.17065 20.6936 12.8935
463 2 5.3996 20.8152 13.0708
464 2 6.25102 21.8531 11.9047
465 1 6.58593 21.8643 15.9711
466 2 6.40823 22.5776 16.7854
467 2 5.81769 21.0805 16.0337
468 2 7.57614 21.4076 16.1299
469 4 17.575 32.8834 12.4241
470 3 16.8643 32.5907 13.8978
471 1 19.1566 33.8748 12.6718
472 2 18.9275 34.8291 13.1729
473 2 19.8974 33.3397 13.2788
474 2 19.6138 34.0982 11.6971
475 1 16.3209 33.8384 11.412
476 2 15.5284 33.2094 10.9922
477 2 15.8426 34.5974 12.0521
478 2 16.8296 34.3429 10.5778
479 4 17.0141 31.7789 15.3332
480 3 16.7274 30.1731 15.0813
481 1 18.7435 31.911 15.995
482 2 18.8144 31.447 16.9871
483 2 19.4483 31.3883 15.3385
484 2 19.0569 32.9593 16.0785
485 1 15.7484 32.4786 16.5145
486 2 14.7262 32.3243 16.1387
487 2 15.8276 31.9888 17.4963
488 2 15.8931 33.5583 16.658
489 4 15.6296 29.112 14.4537
490 3 16.3641 27.6483 14.3403
491 1 14.2124 28.9415 15.6523
492 2 13.4741 28.2149 15.2889
493 2 14.5782 28.5951 16.6282
494 2 13.6985 29.9001 15.8018
495 1 15.0894 29.7223 12.7629
496 2 15.893 29.5823 12.026
497 2 14.2022 29.1811 12.4031
498 2 14.8506 30.7941 12.7945
499 4 16.8094 26.1552 13.8266
500 3 17.2041 25.2563 15.1663
501 1 15.3786 25.3341 12.9432
502 2 15.0436 25.9484 12.0941
503 2 15.6734 24.352 12.5454
504 2 14.5221 25.1915 13.6163
505 1 18.2881 26.3249 12.6958
506 2 19.1788 26.6829 13.2317
507 2 18.5384 25.363 12.2215
508 2 18.073 27.038 11.8872
509 4 18.2607 24.0919 15.6946
510 3 17.567 23.3863 17.0204
511 1 18.5672 22.8254 14.346
512 2 19.3724 22.136 14.6398
513 2 17.6758 22.2265 14.1125
514 2 18.8951 23.318 13.4203
515 1 19.8717 24.8904 16.2025
516 2 19.7145 25.6324 16.9955
517 2 20.5738 24.1325 16.5787
518 2 20.3456 25.4013 15.3524
519 4 17.4203 21.9667 17.884
520 1 15.8275 21.1294 17.3499
521 2 15.8395 20.8749 16.2815
522 2 15.6836 20.2017 17.9202
523 2 14.9651 21.7839 17.5333
524 1 18.8907 20.8255 17.5396
525 2 19.8381 21.2668 17.8825
526 2 18.7534 38.9587 18.085
527 2 18.9927 20.5779 16.474
