527
 Atoms. Timestep: 0
Si 4.07771 35.6466 3.07771
O 4.07771 34.0166 3.07771
C 5.84076 36.2699 3.07771
H 5.84076 36.2699 4.16771
H 6.15542 35.38 2.53271
H 5.52611 37.1599 2.53271
C 2.31466 36.2699 3.07771
H 2.31466 36.2699 1.98771
H 2 35.38 3.62271
H 2.62931 37.1599 3.62271
Si 4.07771 32.3866 3.07771
O 4.07771 30.7566 3.07771
C 5.32437 33.0099 4.32437
H 4.55363 33.0099 5.09512
H 5.93224 32.12 4.1615
H 5.48725 33.8999 3.71651
C 2.83104 33.0099 1.83104
H 3.60179 33.0099 1.0603
H 2.22317 32.12 1.99392
H 2.66816 33.8999 2.43891
Si 4.07771 29.1266 3.07771
O 4.07771 27.4966 3.07771
C 4.07771 29.7499 4.84076
H 2.98771 29.7499 4.84076
H 4.62271 28.86 5.15542
H 4.62271 30.6399 4.52611
C 4.07771 29.7499 1.31466
H 5.16771 29.7499 1.31466
H 3.53271 28.86 1
H 3.53271 30.6399 1.62931
Si 4.07771 25.8666 3.07771
O 4.07771 24.2366 3.07771
C 2.83104 26.4899 4.32437
H 2.0603 26.4899 3.55363
H 2.99392 25.6 4.93224
H 3.43891 27.3799 4.48725
C 5.32437 26.4899 1.83104
H 6.09512 26.4899 2.60179
H 5.1615 25.6 1.22317
H 4.71651 27.3799 1.66816
Si 4.07771 22.6066 3.07771
O 4.07771 20.9766 3.07771
C 2.31466 23.2299 3.07771
H 2.31466 23.2299 1.98771
H 2 22.34 3.62271
H 2.62931 24.1199 3.62271
C 5.84076 23.2299 3.07771
H 5.84076 23.2299 4.16771
H 6.15542 22.34 2.53271
H 5.52611 24.1199 2.53271
Si 4.07771 38.4266 3.07771
C 2.83104 39.0499 1.83104
H 3.60179 39.0499 1.0603
H 2.22317 38.1599 1.99392
H 2.66816 20.8599 2.43891
C 5.32437 39.0499 4.32437
H 4.55363 39.0499 5.09512
H 5.93224 38.1599 4.1615
H 5.48725 20.8599 3.71651
Si 9.57771 35.6466 3.07771
O 9.57771 34.0166 3.07771
C 11.3408 36.2699 3.07771
H 11.3408 36.2699 4.16771
H 11.6554 35.38 2.53271
H 11.0261 37.1599 2.53271
C 7.81466 36.2699 3.07771
H 7.81466 36.2699 1.98771
H 7.5 35.38 3.62271
H 8.12931 37.1599 3.62271
Si 9.57771 32.3866 3.07771
O 9.57771 30.7566 3.07771
C 10.8244 33.0099 4.32437
H 10.0536 33.0099 5.09512
H 11.4322 32.12 4.1615
H 10.9873 33.8999 3.71651
C 8.33104 33.0099 1.83104
H 9.10179 33.0099 1.0603
H 7.72317 32.12 1.99392
H 8.16816 33.8999 2.43891
Si 9.57771 29.1266 3.07771
O 9.57771 27.4966 3.07771
C 9.57771 29.7499 4.84076
H 8.48771 29.7499 4.84076
H 10.1227 28.86 5.15542
H 10.1227 30.6399 4.52611
C 9.57771 29.7499 1.31466
H 10.6677 29.7499 1.31466
H 9.03271 28.86 1
H 9.03271 30.6399 1.62931
Si 9.57771 25.8666 3.07771
O 9.57771 24.2366 3.07771
C 8.33104 26.4899 4.32437
H 7.5603 26.4899 3.55363
H 8.49392 25.6 4.93224
H 8.93891 27.3799 4.48725
C 10.8244 26.4899 1.83104
H 11.5951 26.4899 2.60179
H 10.6615 25.6 1.22317
H 10.2165 27.3799 1.66816
Si 9.57771 22.6066 3.07771
O 9.57771 20.9766 3.07771
C 7.81466 23.2299 3.07771
H 7.81466 23.2299 1.98771
H 7.5 22.34 3.62271
H 8.12931 24.1199 3.62271
C 11.3408 23.2299 3.07771
H 11.3408 23.2299 4.16771
H 11.6554 22.34 2.53271
H 11.0261 24.1199 2.53271
Si 9.57771 38.4266 3.07771
C 8.33104 39.0499 1.83104
H 9.10179 39.0499 1.0603
H 7.72317 38.1599 1.99392
H 8.16816 20.8599 2.43891
C 10.8244 39.0499 4.32437
H 10.0536 39.0499 5.09512
H 11.4322 38.1599 4.1615
H 10.9873 20.8599 3.71651
Si 15.0777 35.6466 3.07771
O 15.0777 34.0166 3.07771
C 16.8408 36.2699 3.07771
H 16.8408 36.2699 4.16771
H 17.1554 35.38 2.53271
H 16.5261 37.1599 2.53271
C 13.3147 36.2699 3.07771
H 13.3147 36.2699 1.98771
H 13 35.38 3.62271
H 13.6293 37.1599 3.62271
Si 15.0777 32.3866 3.07771
O 15.0777 30.7566 3.07771
C 16.3244 33.0099 4.32437
H 15.5536 33.0099 5.09512
H 16.9322 32.12 4.1615
H 16.4873 33.8999 3.71651
C 13.831 33.0099 1.83104
H 14.6018 33.0099 1.0603
H 13.2232 32.12 1.99392
H 13.6682 33.8999 2.43891
Si 15.0777 29.1266 3.07771
O 15.0777 27.4966 3.07771
C 15.0777 29.7499 4.84076
H 13.9877 29.7499 4.84076
H 15.6227 28.86 5.15542
H 15.6227 30.6399 4.52611
C 15.0777 29.7499 1.31466
H 16.1677 29.7499 1.31466
H 14.5327 28.86 1
H 14.5327 30.6399 1.62931
Si 15.0777 25.8666 3.07771
O 15.0777 24.2366 3.07771
C 13.831 26.4899 4.32437
H 13.0603 26.4899 3.55363
H 13.9939 25.6 4.93224
H 14.4389 27.3799 4.48725
C 16.3244 26.4899 1.83104
H 17.0951 26.4899 2.60179
H 16.1615 25.6 1.22317
H 15.7165 27.3799 1.66816
Si 15.0777 22.6066 3.07771
O 15.0777 20.9766 3.07771
C 13.3147 23.2299 3.07771
H 13.3147 23.2299 1.98771
H 13 22.34 3.62271
H 13.6293 24.1199 3.62271
C 16.8408 23.2299 3.07771
H 16.8408 23.2299 4.16771
H 17.1554 22.34 2.53271
H 16.5261 24.1199 2.53271
Si 15.0777 38.4266 3.07771
C 13.831 39.0499 1.83104
H 14.6018 39.0499 1.0603
H 13.2232 38.1599 1.99392
H 13.6682 20.8599 2.43891
C 16.3244 39.0499 4.32437
H 15.5536 39.0499 5.09512
H 16.9322 38.1599 4.1615
H 16.4873 20.8599 3.71651
Si 6.82771 35.6466 7.84085
O 6.82771 34.0166 7.84085
C 8.59076 36.2699 7.84085
H 8.59076 36.2699 8.93085
H 8.90542 35.38 7.29585
H 8.27611 37.1599 7.29585
C 5.06466 36.2699 7.84085
H 5.06466 36.2699 6.75085
H 4.75 35.38 8.38585
H 5.37931 37.1599 8.38585
Si 6.82771 32.3866 7.84085
O 6.82771 30.7566 7.84085
C 8.07437 33.0099 9.08751
H 7.30363 33.0099 9.85826
H 8.68224 32.12 8.92464
H 8.23725 33.8999 8.47965
C 5.58104 33.0099 6.59418
H 6.35179 33.0099 5.82343
H 4.97317 32.12 6.75706
H 5.41816 33.8999 7.20205
Si 6.82771 29.1266 7.84085
O 6.82771 27.4966 7.84085
C 6.82771 29.7499 9.6039
H 5.73771 29.7499 9.6039
H 7.37271 28.86 9.91856
H 7.37271 30.6399 9.28925
C 6.82771 29.7499 6.0778
H 7.91771 29.7499 6.0778
H 6.28271 28.86 5.76314
H 6.28271 30.6399 6.39245
Si 6.82771 25.8666 7.84085
O 6.82771 24.2366 7.84085
C 5.58104 26.4899 9.08751
H 4.8103 26.4899 8.31677
H 5.74392 25.6 9.69538
H 6.18891 27.3799 9.25039
C 8.07437 26.4899 6.59418
H 8.84512 26.4899 7.36493
H 7.9115 25.6 5.98631
H 7.46651 27.3799 6.4313
Si 6.82771 22.6066 7.84085
O 6.82771 20.9766 7.84085
C 5.06466 23.2299 7.84085
H 5.06466 23.2299 6.75085
H 4.75 22.34 8.38585
H 5.37931 24.1199 8.38585
C 8.59076 23.2299 7.84085
H 8.59076 23.2299 8.93085
H 8.90542 22.34 7.29585
H 8.27611 24.1199 7.29585
Si 6.82771 38.4266 7.84085
C 5.58104 39.0499 6.59418
H 6.35179 39.0499 5.82343
H 4.97317 38.1599 6.75706
H 5.41816 20.8599 7.20205
C 8.98499 39.0499 8.33237
H 9.59286 38.1599 8.16949
H 9.14787 20.8599 7.7245
Si 12.3277 35.6466 7.84085
O 12.3277 34.0166 7.84085
C 14.0908 36.2699 7.84085
H 14.0908 36.2699 8.93085
H 14.4054 35.38 7.29585
H 13.7761 37.1599 7.29585
C 10.5647 36.2699 7.84085
H 10.5647 36.2699 6.75085
H 10.25 35.38 8.38585
H 10.8793 37.1599 8.38585
Si 12.3277 32.3866 7.84085
O 12.3277 30.7566 7.84085
C 13.5744 33.0099 9.08751
H 12.8036 33.0099 9.85826
H 14.1822 32.12 8.92464
H 13.7373 33.8999 8.47965
C 11.081 33.0099 6.59418
H 11.8518 33.0099 5.82343
H 10.4732 32.12 6.75706
H 10.9182 33.8999 7.20205
Si 12.3277 29.1266 7.84085
O 12.3277 27.4966 7.84085
C 12.3277 29.7499 9.6039
H 11.2377 29.7499 9.6039
H 12.8727 28.86 9.91856
H 12.8727 30.6399 9.28925
C 12.3277 29.7499 6.0778
H 13.4177 29.7499 6.0778
H 11.7827 28.86 5.76314
H 11.7827 30.6399 6.39245
Si 12.3277 25.8666 7.84085
O 12.3277 24.2366 7.84085
C 11.081 26.4899 9.08751
H 10.3103 26.4899 8.31677
H 11.2439 25.6 9.69538
H 11.6889 27.3799 9.25039
C 14.485 26.4899 7.34933
H 14.3221 25.6 6.74146
H 13.8771 27.3799 7.18645
Si 12.3277 22.6066 7.84085
O 12.3277 20.9766 7.84085
C 10.5647 23.2299 7.84085
H 10.5647 23.2299 6.75085
H 10.25 22.34 8.38585
H 10.8793 24.1199 8.38585
C 14.0908 23.2299 7.84085
H 14.0908 23.2299 8.93085
H 14.4054 22.34 7.29585
H 13.7761 24.1199 7.29585
Si 12.3277 38.4266 7.84085
C 10.1704 39.0499 7.34933
H 9.56255 38.1599 7.51221
H 10.0075 20.8599 7.9572
C 13.5744 39.0499 9.08751
H 12.8036 39.0499 9.85826
H 14.1822 38.1599 8.92464
H 13.7373 20.8599 8.47965
Si 17.8277 35.6466 7.84085
O 17.8277 34.0166 7.84085
C 19.5908 36.2699 7.84085
H 19.5908 36.2699 8.93085
H 19.9054 35.38 7.29585
H 19.2761 37.1599 7.29585
C 16.0647 36.2699 7.84085
H 16.0647 36.2699 6.75085
H 15.75 35.38 8.38585
H 16.3793 37.1599 8.38585
Si 17.8277 32.3866 7.84085
O 17.8277 30.7566 7.84085
C 19.0744 33.0099 9.08751
H 18.3036 33.0099 9.85826
H 19.6822 32.12 8.92464
H 19.2373 33.8999 8.47965
C 16.581 33.0099 6.59418
H 17.3518 33.0099 5.82343
H 15.9732 32.12 6.75706
H 16.4182 33.8999 7.20205
Si 17.8277 29.1266 7.84085
O 17.8277 27.4966 7.84085
C 17.8277 29.7499 9.6039
H 16.7377 29.7499 9.6039
H 18.3727 28.86 9.91856
H 18.3727 30.6399 9.28925
C 17.8277 29.7499 6.0778
H 18.9177 29.7499 6.0778
H 17.2827 28.86 5.76314
H 17.2827 30.6399 6.39245
Si 17.8277 25.8666 7.84085
O 17.8277 24.2366 7.84085
C 15.6704 26.4899 8.33237
H 15.8333 25.6 8.94024
H 16.2783 27.3799 8.49525
C 19.0744 26.4899 6.59418
H 19.8451 26.4899 7.36493
H 18.9115 25.6 5.98631
H 18.4665 27.3799 6.4313
Si 17.8277 22.6066 7.84085
O 17.8277 20.9766 7.84085
C 16.0647 23.2299 7.84085
H 16.0647 23.2299 6.75085
H 15.75 22.34 8.38585
H 16.3793 24.1199 8.38585
C 19.5908 23.2299 7.84085
H 19.5908 23.2299 8.93085
H 19.9054 22.34 7.29585
H 19.2761 24.1199 7.29585
Si 17.8277 38.4266 7.84085
C 16.581 39.0499 6.59418
H 17.3518 39.0499 5.82343
H 15.9732 38.1599 6.75706
H 16.4182 20.8599 7.20205
C 19.0744 39.0499 9.08751
H 18.3036 39.0499 9.85826
H 19.6822 38.1599 8.92464
H 19.2373 20.8599 8.47965
Si 4.07771 35.6466 12.604
O 4.07771 34.0166 12.604
C 5.84076 36.2699 12.604
H 5.84076 36.2699 13.694
H 6.15542 35.38 12.059
H 5.52611 37.1599 12.059
C 2.31466 36.2699 12.604
H 2.31466 36.2699 11.514
H 2 35.38 13.149
H 2.62931 37.1599 13.149
Si 4.07771 32.3866 12.604
O 4.07771 30.7566 12.604
C 5.32437 33.0099 13.8507
H 4.55363 33.0099 14.6214
H 5.93224 32.12 13.6878
H 5.48725 33.8999 13.2428
C 2.83104 33.0099 11.3573
H 3.60179 33.0099 10.5866
H 2.22317 32.12 11.5202
H 2.66816 33.8999 11.9652
Si 4.07771 29.1266 12.604
O 4.07771 27.4966 12.604
C 4.07771 29.7499 14.367
H 2.98771 29.7499 14.367
H 4.62271 28.86 14.6817
H 4.62271 30.6399 14.0524
C 4.07771 29.7499 10.8409
H 5.16771 29.7499 10.8409
H 3.53271 28.86 10.5263
H 3.53271 30.6399 11.1556
Si 4.07771 25.8666 12.604
O 4.07771 24.2366 12.604
C 2.83104 26.4899 13.8507
H 2.0603 26.4899 13.0799
H 2.99392 25.6 14.4585
H 3.43891 27.3799 14.0135
C 5.32437 26.4899 11.3573
H 6.09512 26.4899 12.1281
H 5.1615 25.6 10.7495
H 4.71651 27.3799 11.1944
Si 4.07771 22.6066 12.604
O 4.07771 20.9766 12.604
C 2.31466 23.2299 12.604
H 2.31466 23.2299 11.514
H 2 22.34 13.149
H 2.62931 24.1199 13.149
C 5.84076 23.2299 12.604
H 5.84076 23.2299 13.694
H 6.15542 22.34 12.059
H 5.52611 24.1199 12.059
Si 4.07771 38.4266 12.604
C 2.83104 39.0499 11.3573
H 3.60179 39.0499 10.5866
H 2.22317 38.1599 11.5202
H 2.66816 20.8599 11.9652
C 5.32437 39.0499 13.8507
H 4.55363 39.0499 14.6214
H 5.93224 38.1599 13.6878
H 5.48725 20.8599 13.2428
Si 9.57771 35.6466 12.604
O 9.57771 34.0166 12.604
C 11.3408 36.2699 12.604
H 11.3408 36.2699 13.694
H 11.6554 35.38 12.059
H 11.0261 37.1599 12.059
C 7.81466 36.2699 12.604
H 7.81466 36.2699 11.514
H 7.5 35.38 13.149
H 8.12931 37.1599 13.149
Si 9.57771 32.3866 12.604
O 9.57771 30.7566 12.604
C 10.8244 33.0099 13.8507
H 10.0536 33.0099 14.6214
H 11.4322 32.12 13.6878
H 10.9873 33.8999 13.2428
C 8.33104 33.0099 11.3573
H 9.10179 33.0099 10.5866
H 7.72317 32.12 11.5202
H 8.16816 33.8999 11.9652
Si 9.57771 29.1266 12.604
O 9.57771 27.4966 12.604
C 9.57771 29.7499 14.367
H 8.48771 29.7499 14.367
H 10.1227 28.86 14.6817
H 10.1227 30.6399 14.0524
C 9.57771 29.7499 10.8409
H 10.6677 29.7499 10.8409
H 9.03271 28.86 10.5263
H 9.03271 30.6399 11.1556
Si 9.57771 25.8666 12.604
O 9.57771 24.2366 12.604
C 8.33104 26.4899 13.8507
H 7.5603 26.4899 13.0799
H 8.49392 25.6 14.4585
H 8.93891 27.3799 14.0135
C 10.8244 26.4899 11.3573
H 11.5951 26.4899 12.1281
H 10.6615 25.6 10.7495
H 10.2165 27.3799 11.1944
Si 9.57771 22.6066 12.604
O 9.57771 20.9766 12.604
C 7.81466 23.2299 12.604
H 7.81466 23.2299 11.514
H 7.5 22.34 13.149
H 8.12931 24.1199 13.149
C 11.3408 23.2299 12.604
H 11.3408 23.2299 13.694
H 11.6554 22.34 12.059
H 11.0261 24.1199 12.059
Si 9.57771 38.4266 12.604
C 8.33104 39.0499 11.3573
H 9.10179 39.0499 10.5866
H 7.72317 38.1599 11.5202
H 8.16816 20.8599 11.9652
C 10.8244 39.0499 13.8507
H 10.0536 39.0499 14.6214
H 11.4322 38.1599 13.6878
H 10.9873 20.8599 13.2428
Si 15.0777 35.6466 12.604
O 15.0777 34.0166 12.604
C 16.8408 36.2699 12.604
H 16.8408 36.2699 13.694
H 17.1554 35.38 12.059
H 16.5261 37.1599 12.059
C 13.3147 36.2699 12.604
H 13.3147 36.2699 11.514
H 13 35.38 13.149
H 13.6293 37.1599 13.149
Si 15.0777 32.3866 12.604
O 15.0777 30.7566 12.604
C 16.3244 33.0099 13.8507
H 15.5536 33.0099 14.6214
H 16.9322 32.12 13.6878
H 16.4873 33.8999 13.2428
C 13.831 33.0099 11.3573
H 14.6018 33.0099 10.5866
H 13.2232 32.12 11.5202
H 13.6682 33.8999 11.9652
Si 15.0777 29.1266 12.604
O 15.0777 27.4966 12.604
C 15.0777 29.7499 14.367
H 13.9877 29.7499 14.367
H 15.6227 28.86 14.6817
H 15.6227 30.6399 14.0524
C 15.0777 29.7499 10.8409
H 16.1677 29.7499 10.8409
H 14.5327 28.86 10.5263
H 14.5327 30.6399 11.1556
Si 15.0777 25.8666 12.604
O 15.0777 24.2366 12.604
C 13.831 26.4899 13.8507
H 13.0603 26.4899 13.0799
H 13.9939 25.6 14.4585
H 14.4389 27.3799 14.0135
C 16.3244 26.4899 11.3573
H 17.0951 26.4899 12.1281
H 16.1615 25.6 10.7495
H 15.7165 27.3799 11.1944
Si 15.0777 22.6066 12.604
O 15.0777 20.9766 12.604
C 13.3147 23.2299 12.604
H 13.3147 23.2299 11.514
H 13 22.34 13.149
H 13.6293 24.1199 13.149
C 16.8408 23.2299 12.604
H 16.8408 23.2299 13.694
H 17.1554 22.34 12.059
H 16.5261 24.1199 12.059
Si 15.0777 38.4266 12.604
C 13.831 39.0499 11.3573
H 14.6018 39.0499 10.5866
H 13.2232 38.1599 11.5202
H 13.6682 20.8599 11.9652
C 16.3244 39.0499 13.8507
H 15.5536 39.0499 14.6214
H 16.9322 38.1599 13.6878
H 16.4873 20.8599 13.2428
527
 Atoms. Timestep: 100
Si 2.18867 34.7597 3.68313
O 1.8123 33.3804 2.81318
C 3.57575 35.7179 2.82941
H 4.56823 35.5594 3.26406
H 3.6237 35.4608 1.7599
H 3.33208 36.785 2.92301
C 0.683975 35.8633 3.7162
H 0.297509 35.9919 2.69128
H 21.8765 35.4615 4.33528
H 0.978612 36.8473 4.11303
Si 2.79116 32.3623 1.91965
O 2.31144 30.7814 2.12009
C 4.53767 32.685 2.55045
H 4.53596 32.9205 3.62316
H 5.21146 31.8393 2.38596
H 4.966 33.5396 2.01614
C 2.68738 32.7677 0.0982018
H 3.68608 32.7382 19.6413
H 2.0558 32.034 19.5809
H 2.26889 33.7714 19.9389
Si 3.2625 29.4099 2.10522
O 2.3824 27.9805 2.07333
C 4.24481 29.5239 3.70066
H 3.57051 29.7571 4.53375
H 4.7761 28.5952 3.92551
H 4.9952 30.3191 3.64992
C 4.35705 29.4322 0.583318
H 5.31779 28.9337 0.770355
H 3.86851 28.9149 19.7468
H 4.57552 30.4604 0.263609
Si 2.92808 26.5154 2.67873
O 2.16898 25.1226 2.13774
C 2.56292 26.6079 4.50986
H 1.4746 26.6838 4.63662
H 2.90981 25.7367 5.07666
H 3.01237 27.5004 4.9574
C 4.71843 26.3595 2.12911
H 5.31504 27.2511 2.35725
H 5.2254 25.507 2.59184
H 4.73689 26.2133 1.03941
Si 2.35459 23.6128 2.834
O 2.29726 22.389 1.70118
C 1.05368 23.3053 4.12951
H 0.0320238 23.4315 3.75419
H 1.15638 22.2875 4.53232
H 1.1851 23.9995 4.97055
C 4.03699 23.4456 3.62798
H 4.07453 22.5146 4.20567
H 4.84168 23.4123 2.88052
H 4.24351 24.2668 4.32365
Si 3.31606 21.1538 1.25716
C 2.2938 39.0123 0.298391
H 2.14214 20.2479 19.262
H 2.79354 38.0314 0.30151
H 1.3046 38.923 0.77931
C 4.19229 20.284 2.68319
H 3.52452 20.11 3.54393
H 4.51013 38.3852 2.28962
H 5.08893 20.803 3.03968
Si 10.4738 34.697 1.89035
O 10.5397 33.5051 0.690155
C 12.0172 35.7125 2.07112
H 12.2423 35.9006 3.12941
H 12.8804 35.2248 1.60851
H 11.8699 36.6834 1.58566
C 8.93507 35.7479 1.91452
H 8.52146 35.9234 0.910332
H 8.14626 35.311 2.54352
H 9.18481 36.7296 2.3371
Si 9.76278 32.385 1.63393
O 10.3524 30.8494 1.62538
C 10.259 33.2713 3.36279
H 9.32313 33.1353 3.92395
H 11.0096 32.5055 3.61199
H 10.7144 34.117 3.91794
C 7.92172 32.5159 1.4062
H 7.66592 32.4736 0.339959
H 7.39335 31.7072 1.92677
H 7.54519 33.4608 1.80864
Si 9.43021 29.4206 1.42229
O 10.3716 28.0318 1.39926
C 8.26513 29.2631 2.87977
H 7.2081 29.3945 2.60549
H 8.36197 28.2624 3.32039
H 8.49966 29.9811 3.67963
C 8.61014 29.5793 19.7407
H 9.25644 30.1369 19.0476
H 8.42939 28.5938 19.2839
H 7.64359 30.096 19.7977
Si 9.84668 26.4919 0.957856
O 10.5777 25.3595 1.90348
C 7.99263 26.3094 1.15225
H 7.69683 25.2796 0.904511
H 7.65237 26.5006 2.17679
H 7.42846 26.9645 0.475996
C 10.3373 26.152 19.1976
H 11.3548 25.759 19.1003
H 9.65256 25.4075 18.782
H 10.252 27.0656 18.5967
Si 10.3778 23.8556 2.5789
O 10.642 22.6697 1.42164
C 8.66817 23.6482 3.30175
H 7.86235 23.7356 2.56067
H 8.56918 22.6571 3.77397
H 8.49432 24.399 4.08548
C 11.6628 23.6911 3.89746
H 11.4178 22.8682 4.58514
H 12.6377 23.4742 3.44092
H 11.7612 24.6071 4.49803
Si 10.417 21.0254 1.30988
C 8.70144 20.7121 0.633084
H 8.66679 20.7864 19.5359
H 8.34252 38.7903 0.9223
H 7.99542 21.4646 1.03737
C 10.758 20.2188 2.97362
H 10.2192 20.7486 3.78044
H 10.4093 38.2549 2.98492
H 11.8248 20.2261 3.23646
Si 17.022 34.9844 1.75432
O 16.8377 33.3614 1.80637
C 18.6914 35.5727 2.3568
H 18.5924 35.956 3.38789
H 19.4309 34.7647 2.3438
H 19.0391 36.4092 1.73935
C 15.6661 36.0566 2.50383
H 15.3692 36.8583 1.81894
H 14.7701 35.5161 2.82315
H 16.1108 36.5459 3.38369
Si 15.763 32.2301 2.45413
O 16.0375 30.7088 1.86472
C 16.1123 32.2532 4.29022
H 15.2534 31.9919 4.92655
H 16.9259 31.5388 4.49737
H 16.4723 33.25 4.59846
C 14.0938 32.7895 1.84077
H 14.1258 32.843 0.740174
H 13.2452 32.1402 2.11075
H 13.8606 33.7948 2.21216
Si 15.0806 29.3313 1.99634
O 15.9807 27.9748 1.69349
C 14.4532 29.2407 3.76228
H 13.6355 29.9372 3.96424
H 14.0969 28.2342 4.02059
H 15.2698 29.4756 4.46888
C 13.7086 29.3978 0.718937
H 14.1449 29.4573 19.71
H 13.0844 28.4957 0.778361
H 13.0403 30.2585 0.867483
Si 15.6283 26.4153 1.22847
O 16.7417 25.4157 1.94141
C 13.9356 25.9087 1.84897
H 13.1375 26.0681 1.10866
H 13.9181 24.8397 2.1074
H 13.6539 26.4563 2.76099
C 15.7612 26.2402 19.3789
H 16.7871 26.4696 19.0635
H 15.5264 25.2112 19.0674
H 15.0685 26.9212 18.855
Si 16.8555 23.8919 2.53891
O 16.3088 22.8246 1.35932
C 15.711 23.6397 4.00586
H 14.7322 23.3026 3.63961
H 16.0866 22.8739 4.6969
H 15.5469 24.5649 4.57246
C 18.6662 23.5428 2.81377
H 19.1267 24.2245 3.53853
H 18.8341 22.5116 3.1486
H 19.178 23.6793 1.85295
Si 15.9957 21.2139 1.26366
C 14.2983 20.9306 0.545061
H 14.2849 21.0713 19.4596
H 13.9823 38.9802 0.766574
H 13.5643 21.6319 0.972231
C 16.4336 20.2292 2.78727
H 15.5152 39.0298 3.32898
H 16.9319 38.3725 2.5122
H 17.0868 20.7872 3.47151
Si 5.12119 34.8435 9.39798
O 4.95763 33.1785 9.19556
C 6.49309 35.6772 8.40326
H 7.51454 35.3589 8.63478
H 6.32065 35.5458 7.31696
H 6.43421 36.7571 8.6095
C 3.52348 35.6691 8.82944
H 3.47391 35.6376 7.72342
H 2.60825 35.2105 9.22186
H 3.53459 36.7285 9.12553
Si 5.82701 32.0868 8.26484
O 5.69429 30.5508 8.89524
C 7.6207 32.6042 8.4595
H 7.73614 33.0148 9.47534
H 8.30711 31.7505 8.38672
H 7.95711 33.3682 7.7469
C 5.0324 32.0249 6.57187
H 5.68325 32.3592 5.7519
H 4.72339 30.9896 6.35634
H 4.12591 32.648 6.55188
Si 6.75643 29.2815 8.59526
O 5.94246 27.8467 8.60194
C 7.84841 29.2474 10.1152
H 7.18795 28.9514 10.9398
H 8.67867 28.5331 10.0868
H 8.23989 30.242 10.3643
C 7.491 29.4947 6.88817
H 8.11792 28.6403 6.59829
H 6.67749 29.5593 6.14526
H 8.10466 30.4004 6.76017
Si 5.1939 26.6581 7.74796
O 5.71762 25.183 8.34371
C 3.35306 26.8649 8.07024
H 2.75019 26.6396 7.18535
H 3.02214 26.2064 8.88089
H 3.1377 27.8995 8.36322
C 5.63906 26.7742 5.93114
H 6.72188 26.829 5.77235
H 5.26591 25.9149 5.36472
H 5.1889 27.6711 5.49532
Si 5.73875 23.643 7.7253
O 6.64037 22.6581 8.75197
C 3.98127 22.9981 7.62384
H 3.69258 22.7231 6.59986
H 3.848 22.1068 8.25477
H 3.28044 23.7739 7.96745
C 6.68151 23.6033 6.09904
H 7.35122 24.467 6.03321
H 7.3006 22.6995 6.02153
H 6.02779 23.6106 5.21889
Si 7.1191 21.0736 8.76041
C 6.20175 39.1485 7.44544
H 6.8863 38.4064 6.99428
H 5.34134 38.5955 7.85594
H 5.80686 20.7109 6.63453
C 9.00012 20.9542 8.5887
H 9.35997 39.15 9.12637
H 9.40944 21.8192 9.12668
Si 13.0419 34.7646 5.96517
O 13.4867 33.2526 6.54627
C 14.5688 35.8359 6.10982
H 15.0059 35.7175 7.12674
H 15.3489 35.5819 5.38499
H 14.2956 36.9018 5.97637
C 11.6605 35.5642 6.98112
H 10.6975 35.0424 6.91891
H 11.9617 35.6099 8.03977
H 11.505 36.6014 6.62933
Si 12.7506 32.0917 7.51683
O 13.0346 30.5843 6.82136
C 13.5548 32.1577 9.19798
H 13.0356 32.8681 9.85643
H 13.5657 31.1901 9.68529
H 14.5878 32.5058 9.09811
C 10.9047 32.4473 7.4715
H 10.6476 32.9822 6.56069
H 10.3143 31.522 7.48579
H 10.5708 33.0637 8.32174
Si 12.2712 29.1141 7.01695
O 13.3999 27.915 6.86278
C 11.4228 29.0539 8.69606
H 10.9903 28.052 8.85511
H 12.086 29.2723 9.55112
H 10.5801 29.7618 8.73923
C 10.9892 28.8681 5.68466
H 11.454 28.5852 4.73513
H 10.3141 28.0623 5.98025
H 10.3985 29.7691 5.53434
Si 13.9321 26.5304 7.56788
O 12.9264 25.2637 7.12363
C 13.8747 26.7963 9.41739
H 12.8517 26.7529 9.81168
H 14.487 26.0868 9.98199
H 14.2579 27.8003 9.65326
C 15.7009 26.1572 6.95688
H 15.7261 25.1081 6.63182
H 15.8576 26.7506 6.04424
Si 12.3886 24.0107 8.10248
O 11.6735 22.8114 7.18744
C 10.9704 24.6672 9.12331
H 10.2274 25.0393 8.40263
H 10.4936 23.8719 9.70944
H 11.2274 25.4929 9.79694
C 13.9121 23.2558 8.90098
H 13.714 22.7624 9.86326
H 14.3334 22.506 8.21271
H 14.6922 24.0143 9.06227
Si 11.4045 21.1854 7.00726
C 9.5304 20.8953 7.12637
H 9.26911 38.9921 6.66832
H 9.04929 21.6662 6.47486
C 12.3895 20.1416 8.18301
H 11.7401 38.6589 8.87409
H 12.9989 38.4764 7.66073
H 13.0727 20.7592 8.78175
Si 19.8375 34.7958 7.3807
O 20.3017 33.3301 8.0031
C 21.3663 35.7914 7.01136
H 22.0077 35.8643 7.90826
H 21.9649 35.3252 6.22362
H 21.089 36.8079 6.69246
C 18.7195 35.7061 8.59479
H 17.7422 35.9635 8.16905
H 18.5373 35.1098 9.49737
H 19.214 36.6443 8.88968
Si 19.322 32.2014 8.75421
O 19.6701 30.6877 8.1427
C 19.6355 32.2603 10.6005
H 18.8793 31.6989 11.1618
H 20.6229 31.8568 10.8563
H 19.5817 33.2953 10.9611
C 17.554 32.6965 8.34408
H 17.4577 32.9554 7.28105
H 16.8296 31.9028 8.55692
H 17.2549 33.5645 8.93903
Si 18.5908 29.4117 8.18338
O 19.305 27.9145 8.03985
C 17.8132 29.5061 9.8836
H 17.0942 30.3307 9.98499
H 17.299 28.5838 10.1737
H 18.6204 29.6674 10.6089
C 17.4433 29.6247 6.7103
H 18.0538 29.6634 5.79721
H 16.7205 28.8052 6.6109
H 16.8738 30.5596 6.76121
Si 18.6669 26.4915 7.4746
O 19.4155 25.1945 8.21285
C 16.8186 26.4078 7.98838
H 16.7694 25.6352 8.77445
H 16.6246 27.3553 8.51728
C 18.9582 26.4782 5.63176
H 20.0243 26.6483 5.42653
H 18.6581 25.5422 5.14814
H 18.3909 27.2861 5.15186
Si 19.496 23.5899 7.76574
O 19.5132 22.5932 9.11244
C 17.9543 23.1753 6.78675
H 18.0711 22.2579 6.19817
H 17.0999 23.0385 7.4632
H 17.6975 23.9772 6.08673
C 21.0678 23.3559 6.79987
H 21.9395 23.6146 7.4118
H 21.1852 22.329 6.43496
H 21.0599 24.0234 5.9298
Si 18.6766 21.2204 9.554
C 18.0758 20.2251 8.06674
H 18.792 20.2794 7.22874
H 17.9838 38.2477 8.36416
H 17.0958 20.5479 7.69391
C 19.8035 20.1452 10.6056
H 19.9455 20.5106 11.6298
H 19.3587 38.2181 10.6684
H 20.7986 39.1351 10.1326
Si 2.16461 34.4543 12.9312
O 2.40116 33.4322 14.2564
C 3.45529 35.7935 12.8038
H 3.5517 36.3425 13.7509
H 4.44588 35.4187 12.5274
H 3.13764 36.5015 12.0292
C 0.443628 35.1026 12.6979
H 0.388289 35.6157 11.725
H 21.6874 34.3076 12.7215
H 0.208771 35.8534 13.4637
Si 3.25466 32.3289 13.3761
O 2.82678 30.7705 13.5653
C 5.08663 32.6086 13.3484
H 5.5186 32.6481 14.3565
H 5.57219 31.7823 12.8107
H 5.33711 33.5349 12.8172
C 2.50393 32.9799 11.5899
H 3.42341 32.6254 11.0833
H 1.6763 32.2626 11.4859
H 2.28373 33.7636 10.8303
Si 3.73269 29.3653 13.3202
O 2.87761 28.0209 13.7584
C 5.19975 29.4347 14.4801
H 4.79772 29.6483 15.4828
H 5.71599 28.4673 14.524
H 5.95167 30.1905 14.2331
C 4.04045 29.268 11.4812
H 4.62568 30.1073 11.0795
H 4.56854 28.35 11.1907
H 3.06782 29.2557 10.9688
Si 3.33143 26.4361 14.0157
O 2.33128 25.4886 13.1043
C 3.13361 26.0418 15.8241
H 2.0952 26.212 16.1308
H 3.39672 24.9984 16.047
H 3.78315 26.6953 16.4263
C 5.08468 26.1484 13.393
H 5.84493 26.1756 14.1819
H 5.16186 25.1739 12.898
H 5.36077 26.9026 12.6452
Si 2.28107 24.0972 12.2323
O 2.54592 22.8229 13.3132
C 0.543113 23.9946 11.5948
H 0.318694 24.7419 10.8226
H 0.306625 23.0022 11.1928
H 21.8727 24.1907 12.4406
C 3.64517 23.967 10.9726
H 4.58761 23.6867 11.4605
H 3.41655 23.1739 10.2495
H 3.83977 24.8864 10.4052
Si 2.86373 21.2392 13.5065
C 2.44855 20.1515 12.0446
H 3.36743 38.9189 11.518
H 1.94837 38.3191 12.3902
H 1.79203 20.6755 11.3372
C 4.50562 20.9348 14.3435
H 4.43209 21.0243 15.4308
H 4.82408 38.9885 14.1031
H 5.27282 21.645 14.0025
Si 8.55368 34.7141 13.7743
O 8.42263 33.4735 14.9177
C 10.1158 35.7299 13.8539
H 10.618 35.6716 14.8311
H 10.8335 35.4313 13.0759
H 9.86375 36.7824 13.6781
C 7.0099 35.733 13.6109
H 6.80565 36.0106 12.5691
H 6.14196 35.2015 14.0139
H 7.13742 36.6662 14.1708
Si 9.19747 32.3771 13.9433
O 8.56613 30.863 13.9065
C 11.0391 32.462 14.1892
H 11.287 32.5119 15.2558
H 11.5306 31.5887 13.7524
H 11.4432 33.3463 13.6934
C 8.80174 33.372 12.2421
H 9.76634 33.1892 11.7379
H 8.02521 32.6639 11.9095
H 8.4736 34.2806 11.6833
Si 9.47641 29.4296 14.1674
O 8.53604 28.0439 14.1916
C 10.2679 29.616 15.8616
H 9.64021 30.2339 16.5186
H 10.3873 28.6401 16.3584
H 11.2628 30.077 15.8041
C 10.7078 29.2558 12.7652
H 11.7414 29.1987 13.1343
H 10.5057 28.3183 12.2266
H 10.6604 30.0616 12.0195
Si 9.15578 26.5302 14.6119
O 8.46764 25.3426 13.6963
C 8.74756 26.1216 16.3754
H 7.76775 25.6365 16.4625
H 9.49619 25.4147 16.7533
H 8.7645 27.0082 17.022
C 11.0026 26.5192 14.3191
H 11.4765 25.625 14.7437
H 11.2418 26.5421 13.2485
H 11.4843 27.3875 14.785
Si 8.76954 23.8279 13.0805
O 8.46432 22.6508 14.2417
C 7.57206 23.6486 11.6857
H 7.92606 22.9434 10.9211
H 6.60779 23.2803 12.0665
H 7.38749 24.6123 11.1911
C 10.5528 23.6018 12.5462
H 11.235 23.5028 13.4027
H 10.6359 22.6802 11.9468
H 10.9137 24.4249 11.915
Si 8.72973 21.0117 14.328
C 8.39267 20.1973 12.6633
H 8.89483 20.7488 11.8521
H 8.78845 38.2536 12.6541
H 7.32689 20.1549 12.4178
C 10.4447 20.6626 15.007
H 10.4808 20.7171 16.101
H 10.7677 38.7338 14.711
H 11.1797 21.3837 14.6144
Si 16.9472 34.6482 12.1978
O 17.2157 33.3689 13.2555
C 18.4647 35.7595 12.2022
H 18.8641 35.849 13.224
H 19.2774 35.4205 11.5502
H 18.1483 36.7573 11.8587
C 15.5053 35.7428 12.7567
H 14.5142 35.3985 12.4431
H 15.4976 35.8464 13.8555
H 15.6575 36.7426 12.3218
Si 16.1963 32.4145 14.1717
O 16.5905 30.8038 14.0118
C 16.3233 32.8859 15.9751
H 15.3368 32.8371 16.4573
H 16.9948 32.2051 16.5119
H 16.7003 33.9123 16.0849
C 14.4758 32.766 13.5182
H 14.4865 32.8669 12.4243
H 13.7538 31.9854 13.7816
H 14.0975 33.7046 13.9413
Si 15.6206 29.4396 14.0975
O 16.4981 28.0143 14.2105
C 14.5317 29.5446 15.6202
H 13.6094 28.9597 15.5003
H 15.0637 29.1569 16.5004
H 14.2423 30.5819 15.8361
C 14.6601 29.4664 12.4824
H 15.3602 29.6235 11.6502
H 14.0942 28.5482 12.2895
H 13.945 30.297 12.4735
Si 16.05 26.5211 13.5849
O 16.8097 25.1762 14.2278
C 14.2443 26.2754 14.0151
H 13.5438 26.7614 13.3261
H 13.9945 25.2078 14.0352
H 14.073 26.6678 15.0274
C 16.5463 26.5851 11.782
H 17.5992 26.8926 11.7325
H 16.4583 25.6237 11.2622
H 15.9568 27.3206 11.2257
Si 16.7317 23.6638 13.5262
O 16.5421 22.4624 14.6784
C 15.2107 23.4315 12.4495
H 15.3275 22.5234 11.8465
H 14.3358 23.2877 13.1004
H 14.9824 24.2543 11.7625
C 18.344 23.365 12.6266
H 19.1888 23.6645 13.2604
H 18.4592 22.301 12.3776
H 18.4176 23.9382 11.6901
Si 15.697 21.0483 14.8466
C 14.8929 20.3431 13.297
H 15.6124 20.28 12.4628
H 14.5834 38.3991 13.559
H 14.0087 20.8904 12.9548
C 16.8616 38.8469 15.5323
H 17.0951 39.0158 16.5883
H 16.4029 37.8518 15.4225
H 17.8045 38.8706 14.9573
527
 Atoms. Timestep: 200
Si 1.30317 34.2585 2.62731
O 1.01135 33.2686 1.32762
C 2.0678 35.8894 2.07859
H 3.09217 35.788 1.70397
H 1.45465 36.3433 1.28296
H 2.08388 36.5838 2.93166
C 21.6656 34.56 3.49115
H 21.0489 35.2401 2.87891
H 21.1118 33.6279 3.65175
H 21.829 35.039 4.46418
Si 1.87259 32.4208 0.183847
O 1.93928 30.8246 0.619661
C 3.58074 33.1989 0.122955
H 3.99027 33.2794 1.13886
H 4.29886 32.6366 19.5084
H 3.52264 34.2158 19.7115
C 0.974193 32.4628 18.5514
H 1.25176 31.5776 17.9583
H -0.113426 32.4381 18.7043
H 1.22431 33.3582 17.9692
Si 3.10501 29.7205 1.01058
O 2.38687 28.3184 1.50391
C 4.03042 30.4699 2.4695
H 3.28738 30.9477 3.12339
H 4.56908 29.7216 3.06439
H 4.74988 31.2407 2.16288
C 4.09497 29.3512 19.4626
H 4.96391 28.7061 19.6499
H 3.44264 28.8337 18.746
H 4.45471 30.2677 18.9757
Si 2.5565 26.901 2.33273
O 2.06564 25.6441 1.36422
C 1.47328 26.9497 3.86121
H 0.41258 26.8943 3.5822
H 1.69221 26.1046 4.53083
H 1.62736 27.8757 4.43208
C 4.37177 26.6536 2.72676
H 4.72237 27.404 3.44566
H 4.55162 25.6643 3.16743
H 4.97156 26.7305 1.81125
Si 1.87871 24.0054 1.48396
O 2.54097 23.3474 0.109476
C 0.0583565 23.6041 1.56601
H 21.6233 23.5038 0.562047
H 21.8664 22.6704 2.11511
H 21.5194 24.4097 2.08525
C 2.7876 23.3397 2.98375
H 2.46086 22.3196 3.22686
H 3.8702 23.315 2.80318
H 2.60771 23.9576 3.87528
Si 3.06523 21.9711 19.3729
C 1.69076 21.2634 18.314
H 1.55064 21.8439 17.3995
H 1.95627 39.3127 18.0356
H 0.729701 21.2719 18.8494
C 3.7268 20.7379 0.6236
H 2.93217 20.4054 1.31352
H 4.09838 38.9282 0.0945011
H 4.54126 21.1619 1.22179
Si 10.2485 34.5398 1.38343
O 10.2551 33.3326 0.192476
C 11.9704 35.1419 1.7421
H 12.3492 34.8219 2.72172
H 12.6544 34.7686 0.969414
H 11.9781 36.2411 1.70949
C 9.01011 35.8739 0.989079
H 8.62398 35.7605 19.966
H 8.15861 35.879 1.67896
H 9.50363 36.8553 1.05694
Si 9.18721 32.3909 1.01505
O 9.65313 30.8248 1.15851
C 9.47553 33.2977 2.804
H 8.44918 33.4944 3.14514
H 9.8455 32.3146 3.16147
H 10.1013 33.885 3.51464
C 7.42348 32.6877 0.52525
H 7.33431 32.7702 19.4356
H 6.76649 31.8766 0.859195
H 7.06316 33.6227 0.970719
Si 8.66391 29.464 0.962141
O 9.65163 28.1574 0.888858
C 7.58638 29.3773 2.49606
H 7.21026 30.3683 2.79064
H 6.71639 28.7203 2.37624
H 8.19101 28.9925 3.32902
C 7.80326 29.6561 19.3032
H 8.4718 30.2065 18.6249
H 7.60392 28.6825 18.8395
H 6.85206 30.1969 19.354
Si 9.59452 26.525 0.572172
O 10.2789 25.7749 1.87736
C 7.84422 25.9225 0.281999
H 7.86505 24.8488 20.0451
H 7.17802 26.0692 1.1419
H 7.41006 26.431 19.4103
C 10.5926 26.1436 19.0534
H 11.6265 26.4988 19.1343
H 10.6096 25.0561 18.8876
H 10.1323 26.6026 18.1697
Si 10.2902 24.2898 2.59678
O 10.2411 23.1139 1.41385
C 8.76939 24.1181 3.65029
H 7.86113 24.2154 3.03842
H 8.74543 23.1334 4.13628
H 8.73898 24.8944 4.42903
C 11.8993 24.1262 3.53004
H 11.8725 23.2017 4.12755
H 12.7488 24.0535 2.83556
H 12.0913 24.961 4.21689
Si 11.4317 22.0517 0.944716
C 10.8297 21.1754 19.4076
H 10.2907 21.864 18.7455
H 11.6656 20.7295 18.8534
H 10.1527 20.3547 19.6964
C 11.9652 20.8742 2.31401
H 11.1331 20.5929 2.9755
H 12.3475 39.0396 1.84056
H 12.7601 21.2858 2.94455
Si 17.0874 33.5621 0.0264474
O 16.9027 32.3616 1.10559
C 18.8658 34.0241 -0.243757
H 19.3967 34.1557 0.70942
H 19.3706 33.2414 19.1829
H 18.9072 34.9571 19.1777
C 15.8896 34.9803 0.263632
H 16.3705 35.9082 -0.0845706
H 14.9451 34.8614 19.7195
H 15.6506 35.0842 1.33809
Si 15.84 31.4358 2.00645
O 15.8611 29.9167 1.35924
C 16.454 31.5209 3.76421
H 15.7186 31.1298 4.48261
H 17.3929 30.9684 3.89922
H 16.6373 32.5751 4.02134
C 14.1194 32.1572 1.8781
H 13.7494 32.1496 0.845456
H 13.4126 31.5764 2.48628
H 14.0828 33.1901 2.24742
Si 14.8236 28.6231 1.20973
O 15.3797 27.5904 0.0470102
C 14.7289 27.8017 2.88584
H 14.4802 28.5443 3.66273
H 13.9715 27.0059 2.92685
H 15.7019 27.364 3.14216
C 13.1777 29.2423 0.567917
H 13.3542 30.0069 19.7975
H 12.6146 28.4269 0.0927924
H 12.533 29.6792 1.34643
Si 15.7856 26.0363 19.6247
O 16.4007 25.337 0.981973
C 14.291 25.0715 19.0129
H 13.5951 24.8329 -0.168391
H 13.7367 25.6334 18.2442
H 14.6125 24.1209 18.5586
C 17.1078 26.0502 18.3137
H 18.0332 26.5122 18.6865
H 17.3357 25.0102 18.0264
H 16.7947 26.5718 17.3969
Si 16.9184 24.1281 1.96521
O 15.9895 22.7818 1.65001
C 16.6884 24.7634 3.70498
H 15.6259 24.8907 3.94929
H 17.1524 24.1221 4.46816
H 17.1628 25.7536 3.77803
C 18.7131 23.71 1.65861
H 19.3743 24.4849 2.06496
H 18.9708 22.7699 2.16591
H 18.9449 23.5901 0.592274
Si 16.2647 21.5574 0.532775
C 14.6426 20.6922 20.1999
H 13.9312 21.2888 19.6158
H 14.8535 38.844 19.6487
H 14.1762 20.4305 1.16044
C 17.4761 20.3286 1.31622
H 16.9093 38.6206 1.84105
H 18.11 38.9055 0.576114
H 18.1376 20.8181 2.04422
Si 4.65259 34.3703 9.92878
O 5.18805 33.5854 8.56978
C 6.11147 35.272 10.7069
H 6.87078 34.6163 11.1443
H 6.60297 35.8974 9.94268
H 5.72603 35.9433 11.4878
C 3.44482 35.7135 9.37981
H 3.98702 36.4394 8.74878
H 2.58899 35.3311 8.81102
H 3.0698 36.2496 10.2651
Si 5.54138 32.4549 7.41785
O 5.50654 30.9416 8.10247
C 7.24173 32.9003 6.76678
H 8.03696 32.6674 7.49008
H 7.45773 32.3673 5.82865
H 7.27717 33.9825 6.56533
C 4.27476 32.5121 6.05572
H 4.52685 33.2552 5.28333
H 4.18528 31.5302 5.56732
H 3.28721 32.7708 6.45632
Si 6.4684 29.6169 8.33306
O 5.53697 28.2766 8.60556
C 7.47298 29.8788 9.88127
H 6.83188 30.3196 10.6566
H 7.86878 28.9274 10.2625
H 8.31334 30.5666 9.70538
C 7.52232 29.3214 6.81286
H 7.99469 28.3349 6.87187
H 6.91459 29.3554 5.90122
H 8.31201 30.0763 6.72428
Si 4.55176 27.2022 7.81464
O 5.16013 25.6591 7.97928
C 2.85402 27.3123 8.58863
H 2.31543 26.3594 8.50529
H 2.92451 27.5794 9.65196
H 2.24914 28.0827 8.0916
C 4.4925 27.6993 6.01646
H 5.42762 27.4469 5.50351
H 3.66946 27.2032 5.49056
H 4.3351 28.7836 5.92996
Si 5.29253 24.1039 7.42419
O 6.70918 23.4416 8.01246
C 3.87923 23.0201 7.99802
H 3.85826 22.1032 7.39649
H 3.9875 22.7391 9.05057
H 2.91332 23.5259 7.87667
C 5.35828 24.0567 5.55979
H 6.2626 24.5238 5.15598
H 5.32864 23.0155 5.21238
H 4.48785 24.5734 5.13606
Si 7.30724 22.1104 8.79
C 6.31144 20.5439 8.47545
H 6.88705 38.7689 8.86556
H 5.34206 20.5579 8.9912
H 6.12611 20.3805 7.4007
C 9.11865 21.866 8.3426
H 9.45211 20.9063 8.76978
H 9.71435 22.6362 8.85269
Si 13.1065 33.8149 5.44786
O 13.5828 33.1745 6.90143
C 14.4756 34.9853 4.90932
H 15.4645 34.525 5.02407
H 14.3572 35.2993 3.86822
H 14.435 35.8911 5.53779
C 11.4913 34.7584 5.70864
H 10.6398 34.102 5.92403
H 11.6019 35.4525 6.55441
H 11.2494 35.359 4.81708
Si 13.1913 32.1144 8.11756
O 13.1478 30.6024 7.46114
C 14.5183 32.1932 9.4145
H 14.8688 33.2202 9.56395
H 14.1479 31.8162 10.3734
H 15.3821 31.5767 9.1205
C 11.5358 32.6303 8.83943
H 10.6915 32.3667 8.18148
H 11.3668 32.1591 9.82092
H 11.522 33.7174 8.98249
Si 12.4095 29.1251 7.36455
O 13.5779 27.9737 7.53409
C 11.2004 28.9528 8.78282
H 10.6589 27.998 8.73525
H 11.7444 28.9915 9.73134
H 10.4617 29.7668 8.7842
C 11.648 28.9549 5.66335
H 12.1694 29.6298 4.96824
H 11.7355 27.9322 5.28166
H 10.5889 29.2321 5.66829
Si 14.3873 26.6314 8.0464
O 13.5053 25.2843 7.64815
C 14.6278 26.7643 9.89513
H 13.6645 26.8707 10.415
H 15.146 25.8924 10.3185
H 15.2205 27.6571 10.1377
C 16.0044 26.6692 7.09014
H 15.7905 26.3268 6.0628
H 16.2434 27.7409 6.97742
Si 12.5337 24.1438 8.34844
O 11.9147 23.1619 7.15795
C 11.0994 25.0124 9.17464
H 10.3973 25.3899 8.41861
H 10.5461 24.352 9.85319
H 11.4458 25.8731 9.76595
C 13.5461 23.0586 9.48122
H 12.9269 22.256 9.90889
H 14.3578 22.5902 8.90551
H 13.9994 23.6221 10.3103
Si 11.1564 21.95 6.35415
C 9.32327 21.9127 6.81939
H 8.86876 21.0351 6.3239
H 8.82793 22.7957 6.38585
C 12.0012 20.3007 6.6135
H 12.0561 38.8015 5.67928
H 13.0226 20.4376 6.9983
H 11.4244 38.7695 7.33126
Si 21.3236 34.073 7.23403
O 21.1266 32.9587 8.43026
C 0.976936 33.7146 6.44766
H 1.61596 33.3509 7.26902
H 0.981123 32.9602 5.65453
H 1.40308 34.649 6.0561
C 21.4004 35.8096 7.9572
H 20.5904 36.0319 8.6625
H 0.366739 35.9336 8.47822
H 21.3819 36.5403 7.13526
Si 20.0602 32.0821 9.33367
O 19.8357 30.6157 8.5857
C 20.833 31.8231 11.0127
H 20.1799 31.215 11.6561
H 21.7989 31.3115 10.9214
H 20.9969 32.7884 11.5124
C 18.4723 33.0733 9.45731
H 18.1576 33.4317 8.46884
H 17.6425 32.5067 9.90164
H 18.6401 33.9501 10.0988
Si 18.5424 29.5672 8.56133
O 19.0563 28.0681 8.10099
C 17.8749 29.4998 10.3087
H 17.5372 30.491 10.6439
H 17.0213 28.8176 10.3995
H 18.6591 29.1585 10.9987
C 17.2946 30.2451 7.32913
H 17.4865 29.8761 6.31136
H 16.2558 30.0003 7.59114
H 17.3788 31.3419 7.29714
Si 18.9059 26.6441 7.28657
O 20.0118 25.5723 7.87741
C 17.211 25.894 7.65631
H 17.1902 24.8499 7.29709
H 17.1638 25.8155 8.75393
C 19.2176 26.9409 5.47017
H 20.0971 27.5904 5.34761
H 19.4097 25.9998 4.93039
H 18.3572 27.4347 4.99324
Si 20.6505 24.0694 7.59387
O 20.5131 23.1854 9.00534
C 19.71 23.1366 6.25897
H 20.0133 22.0794 6.26899
H 18.6259 23.1687 6.44858
H 19.9025 23.5353 5.25084
C 0.450293 24.3068 7.17747
H 0.949672 24.8071 8.02002
H 0.97032 23.3646 6.96479
H 0.538733 24.9617 6.29478
Si 19.3505 22.8537 10.1358
C 17.9423 21.8128 9.45717
H 18.2799 21.139 8.65337
H 17.5532 21.2051 10.2915
H 17.1021 22.4048 9.0726
C 20.1278 22.0859 11.6563
H 20.558 22.814 12.3515
H 19.3472 21.5242 12.1893
H 20.9294 21.3845 11.3748
Si 2.10403 33.3396 13.9553
O 3.46416 32.7751 14.7845
C 2.389 35.0257 13.2402
H 2.22845 35.7782 14.0231
H 3.4143 35.1271 12.8562
H 1.68604 35.2326 12.4215
C 0.556587 33.0355 14.9222
H 21.741 33.6872 14.5836
H 0.23518 31.9901 14.8401
H 0.736466 33.2411 15.9864
Si 3.76346 31.5813 13.678
O 3.46099 30.0929 14.2515
C 5.35955 31.782 12.7623
H 6.19428 31.8978 13.463
H 5.55582 30.901 12.138
H 5.30551 32.6637 12.1041
C 2.21021 31.93 12.4707
H 2.78753 31.2501 11.7933
H 1.30444 31.3475 12.68
H 2.04149 32.7148 11.7097
Si 4.19372 28.5925 14.1426
O 3.24128 27.551 14.9951
C 5.8638 28.7572 14.9269
H 5.75068 29.0265 15.9878
H 6.44787 27.8277 14.8724
H 6.47491 29.534 14.442
C 4.27502 28.0248 12.3581
H 4.69587 28.7873 11.6849
H 4.91357 27.1363 12.2512
H 3.27357 27.7569 11.9956
Si 2.84495 25.9536 14.8435
O 2.05414 25.7595 13.4038
C 1.71806 25.4531 16.2471
H 0.687201 25.775 16.0416
H 1.72029 24.3573 16.348
H 2.03884 25.8809 17.208
C 4.45032 24.9797 14.802
H 5.23162 25.5679 14.2966
H 4.82034 24.7268 15.8072
H 4.33245 24.0471 14.2378
Si 1.48771 24.5757 12.3977
O 1.33274 23.174 13.2873
C 21.8651 25.2065 11.7283
H 22.0157 26.233 11.3648
H 21.4918 24.6021 10.8943
H 21.0973 25.2467 12.5114
C 2.70036 24.2372 11.0303
H 3.74068 24.3653 11.3625
H 2.59637 23.2048 10.671
H 2.54046 24.9072 10.1744
Si 1.57172 21.7063 13.9904
C 1.6818 20.3327 12.7067
H 2.09969 20.6919 11.7535
H 2.3466 38.6305 13.1121
H 0.715141 38.9409 12.4959
C 3.06086 21.6411 15.1501
H 2.829 21.9218 16.1808
H 3.41089 20.5958 15.1723
H 3.88989 22.2869 14.8346
Si 7.93326 34.5296 14.6305
O 8.11822 33.2344 15.6868
C 9.02268 35.9795 15.0324
H 8.95481 36.1981 16.1092
H 10.0779 35.8362 14.7805
H 8.65478 36.8675 14.4961
C 6.17438 35.0092 14.3484
H 5.99938 35.3325 13.3138
H 5.45998 34.2096 14.5842
H 5.97062 35.8744 14.9966
Si 9.19329 32.418 14.7081
O 8.82359 30.8215 14.569
C 10.9421 32.842 15.1843
H 11.0036 33.0049 16.2689
H 11.6572 32.052 14.9229
H 11.2614 33.7684 14.6851
C 8.76357 33.3609 13.037
H 9.34853 34.2243 12.6754
H 9.27929 32.5509 12.4566
H 7.76439 33.2865 12.5795
Si 9.8918 29.5055 14.6942
O 9.05121 28.0744 14.6714
C 10.768 29.6732 16.3487
H 10.4679 30.5908 16.868
H 10.5217 28.8297 17.0095
H 11.8621 29.705 16.2412
C 10.993 29.5834 13.178
H 11.2859 28.5773 12.8466
H 10.4605 30.0649 12.3451
H 11.9134 30.1543 13.3604
Si 9.293 26.4668 15.0506
O 8.98733 25.5651 13.6992
C 8.06851 25.9605 16.3648
H 7.06756 25.8186 15.9398
H 8.3709 25.0147 16.8365
H 8.00281 26.7262 17.1497
C 11.0627 26.1397 15.5746
H 11.1133 25.2143 16.1671
H 11.7168 26.0136 14.7016
H 11.4676 26.9452 16.1986
Si 9.14362 24.113 12.9342
O 8.61507 22.8619 13.8928
C 8.04278 24.2139 11.4468
H 8.16568 23.3014 10.8346
H 6.98522 24.2592 11.751
H 8.25351 25.0803 10.8049
C 10.94 23.7569 12.5799
H 11.443 23.4391 13.5023
H 11.0427 22.9511 11.8441
H 11.4611 24.643 12.1969
Si 7.24286 22.0784 14.3949
C 6.67467 20.7219 13.2144
H 7.42128 20.4801 12.443
H 6.48119 38.9075 13.8323
H 5.73433 20.9654 12.7018
C 7.57844 21.3488 16.0864
H 8.12748 22.0377 16.7384
H 6.63563 21.0681 16.5773
H 8.17761 20.4285 15.9594
Si 17.2063 33.8042 13.2496
O 17.3252 33.0425 14.719
C 18.7925 34.79 13.1002
H 18.9164 35.3799 14.0246
H 19.6683 34.1395 12.9919
H 18.7496 35.4765 12.2432
C 15.6874 34.9189 13.254
H 14.7821 34.4072 12.9075
H 15.4995 35.2905 14.274
H 15.8677 35.7773 12.5887
Si 16.6169 32.1284 15.8911
O 16.6511 30.5466 15.4279
C 17.5909 32.3056 17.4667
H 17.3709 31.4841 18.169
H 18.6783 32.3718 17.3322
H 17.2533 33.2766 17.9106
C 14.9083 32.8046 16.2731
H 14.2514 32.8703 15.3953
H 14.4016 32.2132 17.0509
H 15.0232 33.824 16.6744
Si 15.6278 29.3128 15.0213
O 16.4949 27.9734 14.5849
C 14.6352 28.9244 16.5562
H 13.9706 28.0579 16.429
H 15.3241 28.7074 17.3846
H 14.0261 29.7913 16.8504
C 14.6153 29.9353 13.5685
H 15.2776 30.2574 12.7536
H 13.9225 29.1789 13.175
H 14.019 30.8086 13.8722
Si 16.4526 26.4602 13.9111
O 17.052 25.3643 15.007
C 14.6697 25.9879 13.5595
H 14.0921 26.8402 13.1762
H 14.6068 25.1846 12.8115
H 14.1939 25.6305 14.4826
C 17.5468 26.4502 12.3959
H 18.552 26.8201 12.6374
H 17.6501 25.4345 11.9917
H 17.131 27.0829 11.6024
Si 17.6187 23.8081 15.0665
O 16.8512 23.0434 16.3367
C 17.256 22.8995 13.4637
H 17.4452 21.8229 13.5809
H 16.2119 23.0183 13.1421
H 17.9023 23.2543 12.6504
C 19.4434 23.8596 15.4619
H 19.584 24.2342 16.4861
H 19.8975 22.8604 15.3972
H 19.993 24.5253 14.7815
Si 16.507 21.5717 17.0367
C 15.5994 20.5099 15.7546
H 16.3247 39.0673 15.1038
H 14.9885 38.8112 16.2304
H 14.9515 21.1191 15.1074
C 18.0832 20.7097 17.5981
H 18.8914 21.4311 17.7883
H 17.8896 39.2383 18.5266
H 18.4133 39.0486 16.8522
527
 Atoms. Timestep: 300
Si 0.698731 34.0306 2.28745
O 0.185028 33.1499 0.97166
C 1.30604 35.7201 1.74201
H 2.27153 35.6856 1.22467
H 0.569186 36.1828 1.06356
H 1.41071 36.3643 2.62873
C 21.2406 34.2001 3.44583
H 20.4107 34.709 2.92712
H 20.8882 33.2272 3.80567
H 21.525 34.8195 4.30793
Si 1.01971 32.1977 19.8937
O 1.45037 30.8012 0.661616
C 2.53167 33.1539 19.3349
H 3.20017 33.3753 0.179268
H 3.10741 32.6051 18.5749
H 2.22749 34.1145 18.8931
C 21.8972 31.7439 18.4805
H 0.389693 30.9989 17.8395
H 20.9719 31.2915 18.8591
H 21.6302 32.6054 17.8547
Si 2.73375 29.7999 0.926332
O 2.14057 28.3551 1.44265
C 3.78624 30.6055 2.25445
H 3.2112 30.6734 3.18881
H 4.71785 30.0543 2.4482
H 4.05323 31.6307 1.95856
C 3.62963 29.4976 19.3161
H 4.48813 28.8263 19.4595
H 2.94438 29.0223 18.6001
H 4.00307 30.4286 18.8672
Si 2.39871 26.9321 2.23121
O 1.98915 25.6984 1.20628
C 1.25239 26.9216 3.70623
H 0.213488 26.8842 3.34946
H 1.42051 26.0565 4.36232
H 1.37084 27.834 4.30513
C 4.22305 26.7884 2.62597
H 4.58797 27.6801 3.15199
H 4.43374 25.9125 3.25469
H 4.79888 26.6781 1.69689
Si 1.71602 24.0665 1.25378
O 2.4062 23.3974 19.9115
C 21.8711 23.7883 1.23395
H 21.42 24.3173 0.383466
H 21.6194 22.7216 1.15502
H 21.4082 24.178 2.15208
C 2.55642 23.2773 2.72283
H 2.48826 22.1816 2.66262
H 3.62355 23.5408 2.73662
H 2.1056 23.5943 3.67617
Si 2.38311 22.6077 18.4682
C 0.694211 21.8388 18.1877
H -0.103101 22.594 18.1705
H 0.674879 21.3116 17.2239
H 0.463097 21.1101 18.9827
C 3.75935 21.3426 18.4689
H 3.58302 20.6023 19.2684
H 3.78699 20.8162 17.5049
H 4.74055 21.8041 18.6362
Si 10.2883 34.6791 1.45315
O 10.389 33.5011 0.243762
C 11.9742 35.052 2.12742
H 12.4025 34.2051 2.68081
H 12.6379 35.2735 1.27861
H 11.9578 35.9393 2.77556
C 9.27471 36.1568 0.953974
H 9.07228 36.1596 19.8736
H 8.31389 36.1934 1.4824
H 9.82676 37.0735 1.19921
Si 9.11939 32.6292 0.845466
O 9.43337 31.0437 1.02849
C 9.14173 33.5264 2.67024
H 8.11172 33.8716 2.81915
H 9.2863 32.517 3.10767
H 9.71995 34.0383 3.47503
C 7.54484 33.0834 -0.0132195
H 7.61824 32.8294 18.9191
H 6.66201 32.5837 0.412329
H 7.39518 34.1682 0.0720526
Si 8.52084 29.6205 1.04579
O 9.58664 28.3804 0.845292
C 7.66702 29.53 2.70397
H 7.04642 30.4228 2.87476
H 7.01 28.6512 2.78116
H 8.4124 29.4666 3.50887
C 7.32771 29.6791 19.6084
H 7.8141 30.0855 18.7116
H 6.9547 28.6763 19.3573
H 6.45366 30.3059 19.8305
Si 9.68797 26.7241 0.719137
O 10.1674 26.1511 2.19182
C 8.02202 26.0031 0.265296
H 8.08022 24.9059 0.198996
H 7.24838 26.255 1.00664
H 7.69017 26.3686 19.2816
C 10.9741 26.3014 19.4382
H 11.8954 26.8823 19.589
H 11.2244 25.233 19.5083
H 10.6008 26.495 18.4221
Si 10.5154 24.6989 2.90819
O 10.7486 23.5757 1.7012
C 9.05038 24.1703 3.93576
H 8.10526 24.4887 3.47393
H 9.02976 23.078 4.04509
H 9.09807 24.6128 4.94077
C 12.0724 24.8856 3.91497
H 12.3995 23.9141 4.31224
H 12.8886 25.2901 3.30071
H 11.9344 25.5589 4.77233
Si 11.9553 22.5175 1.24703
C 11.6005 22.075 19.4641
H 11.8618 22.8748 18.76
H 12.1727 21.1735 19.194
H 10.5223 21.8679 19.3536
C 11.927 21.0014 2.36554
H 10.9256 20.5353 2.3316
H 12.6592 20.2612 2.0074
H 12.1536 21.2286 3.41589
Si 17.3343 33.5558 0.102764
O 17.2502 32.3307 1.19726
C 19.123 33.9404 19.7374
H 19.7368 33.8809 0.650571
H 19.5659 33.2471 19.0174
H 19.1976 34.9564 19.3231
C 16.3764 35.069 0.673704
H 16.6995 35.9389 20.0786
H 15.2935 34.9604 0.544085
H 16.572 35.2843 1.73764
Si 16.1704 31.3728 2.01682
O 15.8669 30.0206 1.11665
C 17.0789 30.92 3.57499
H 16.5452 30.1602 4.16266
H 18.0612 30.515 3.29685
H 17.2457 31.8007 4.20931
C 14.5905 32.3453 2.2669
H 14.0614 32.4651 1.31237
H 13.9047 31.8613 2.97457
H 14.8046 33.3476 2.65447
Si 14.6861 28.8445 1.04897
O 15.1171 27.7717 -0.123613
C 14.5276 27.9884 2.70183
H 14.1312 28.6642 3.47636
H 13.8403 27.1339 2.63023
H 15.4993 27.6046 3.04267
C 13.0884 29.6415 0.49697
H 13.2162 30.0676 19.4908
H 12.2531 28.9298 0.462095
H 12.8004 30.4508 1.18165
Si 15.9546 26.3882 19.5358
O 16.1986 25.5977 0.973615
C 14.9063 25.3315 18.3901
H 14.7977 24.315 18.7943
H 13.9023 25.7725 18.2835
H 15.3684 25.2502 17.3961
C 17.5952 26.8673 18.7747
H 18.2761 27.2539 19.5472
H 18.079 26.0174 18.2702
H 17.451 27.6572 18.0229
Si 16.7049 24.1544 1.59711
O 16.5494 23.0183 0.410945
C 15.6091 23.7466 3.058
H 14.5553 23.7948 2.75549
H 15.8002 22.7289 3.42466
H 15.7555 24.4489 3.89229
C 18.4996 24.3017 2.08338
H 18.6167 24.9202 2.98442
H 18.9471 23.3209 2.29389
H 19.092 24.7699 1.28669
Si 16.7416 21.4573 19.867
C 15.1317 20.5492 0.175927
H 14.3325 20.9527 19.5419
H 15.2542 38.5638 -0.0630472
H 14.8205 20.6341 1.22555
C 18.1184 20.6454 0.859763
H 17.8655 20.6237 1.92862
H 18.2838 38.6883 0.533394
H 19.0606 21.1959 0.739378
Si 4.66051 34.0728 9.76275
O 5.6017 33.4761 8.5459
C 5.79761 35.119 10.8402
H 6.64527 34.5408 11.2316
H 6.20471 35.9465 10.2322
H 5.25604 35.5602 11.6902
C 3.32947 35.1477 8.98062
H 3.8091 35.9825 8.44154
H 2.71154 34.593 8.26285
H 2.66721 35.5728 9.74982
Si 6.03267 32.5511 7.24848
O 5.883 30.9512 7.65783
C 7.81486 32.9805 6.89834
H 8.42463 32.8573 7.80377
H 8.23261 32.3436 6.10498
H 7.90925 34.0268 6.57689
C 4.93075 32.9163 5.79126
H 5.05431 33.9592 5.47159
H 5.17104 32.2634 4.93902
H 3.87391 32.762 6.04698
Si 6.75272 29.5866 8.01425
O 5.73301 28.3101 8.04977
C 7.49414 29.7214 9.72444
H 6.68837 29.7028 10.4691
H 8.1622 28.8753 9.92688
H 8.06235 30.6526 9.84826
C 8.01366 29.2933 6.66926
H 8.51176 28.3228 6.79489
H 7.52243 29.2965 5.6857
H 8.78334 30.0755 6.66836
Si 4.56546 27.18 7.84374
O 5.29548 25.6946 7.85981
C 3.39642 27.3119 9.29544
H 2.74737 26.4277 9.38238
H 3.97763 27.4041 10.2232
H 2.75553 28.2009 9.20455
C 3.71947 27.4932 6.21412
H 4.45326 27.4878 5.39775
H 2.9585 26.7306 5.99508
H 3.21896 28.4722 6.21204
Si 5.2352 24.1402 7.30438
O 6.64872 23.3868 7.75559
C 3.80827 23.236 8.11508
H 3.38457 22.4554 7.46884
H 4.15198 22.762 9.04358
H 3.00955 23.944 8.37115
C 5.17517 24.1419 5.43657
H 6.08003 24.6198 5.04007
H 5.12044 23.1242 5.02959
H 4.30538 24.7036 5.07021
Si 7.12966 22.0514 8.62827
C 6.21646 20.5111 8.03327
H 6.66448 38.6982 8.49642
H 5.14788 20.5204 8.28598
H 6.30644 20.4169 6.93711
C 8.98055 21.8197 8.33676
H 9.28544 20.8695 8.79698
H 9.52566 22.6015 8.88018
Si 12.6307 33.6324 5.54371
O 12.8456 32.9899 7.05501
C 14.2668 34.4392 5.1055
H 15.0838 33.7088 5.14698
H 14.2295 34.8732 4.0987
H 14.4871 35.2418 5.82452
C 11.254 34.9024 5.73338
H 10.305 34.4379 6.03188
H 11.5392 35.6217 6.51846
H 11.0919 35.4622 4.80308
Si 12.811 32.0698 8.41367
O 12.9644 30.4858 7.98229
C 14.274 32.4739 9.48402
H 14.3201 33.5425 9.72467
H 14.2139 31.9123 10.4249
H 15.2081 32.1864 8.98574
C 11.2019 32.3936 9.31507
H 10.3453 32.1321 8.68002
H 11.1377 31.8084 10.2425
H 11.1212 33.4592 9.57227
Si 12.2515 29.0235 7.72943
O 13.3942 27.8745 7.9967
C 10.8831 28.8233 8.97583
H 10.3681 27.8597 8.8865
H 11.2911 28.8979 9.99285
H 10.1395 29.6203 8.85408
C 11.714 28.9287 5.94507
H 12.5158 29.3302 5.30794
H 11.5079 27.8973 5.62769
H 10.8112 29.5283 5.77051
Si 14.327 26.5376 8.20477
O 13.441 25.2004 7.78608
C 14.7985 26.4619 10.0067
H 13.9128 26.2471 10.6214
H 15.5401 25.6804 10.2169
H 15.206 27.4179 10.359
C 15.7739 26.6837 7.00992
H 15.4351 26.288 6.03835
H 15.914 27.763 6.83711
Si 12.405 24.1434 8.52384
O 11.8067 23.1406 7.35427
C 10.9927 25.1073 9.26841
H 10.4028 25.5862 8.47671
H 10.3233 24.4611 9.84915
H 11.3599 25.8937 9.94287
C 13.3297 23.095 9.75674
H 12.658 22.3491 10.2007
H 14.1455 22.5645 9.24806
H 13.7624 23.6935 10.5693
Si 11.1279 21.948 6.45532
C 9.28051 21.8505 6.82499
H 8.88714 20.9476 6.32974
H 8.77952 22.7001 6.34275
C 11.9729 20.2985 6.74653
H 12.0585 38.7995 5.81743
H 12.9787 20.4358 7.16726
H 11.3707 38.7748 7.44478
Si 21.5493 33.4512 6.80214
O 21.2129 32.8283 8.28874
C 1.01568 32.5481 6.06598
H 1.78342 32.423 6.84839
H 0.771361 31.5533 5.67343
H 1.43996 33.1409 5.24299
C 21.9169 35.2779 7.0294
H 21.0149 35.8991 6.9942
H 0.387517 35.4298 8.01378
H 0.608057 35.6148 6.24207
Si 19.9789 32.1678 9.16777
O 19.5102 30.788 8.39803
C 20.7043 31.7363 10.8338
H 19.9237 31.4111 11.5365
H 21.4165 30.9105 10.7096
H 21.237 32.5858 11.2793
C 18.5637 33.3926 9.25128
H 18.1375 33.5466 8.24964
H 17.7583 33.0464 9.918
H 18.9121 34.365 9.62654
Si 18.2052 29.7717 8.33794
O 18.6798 28.41 7.56154
C 17.6794 29.361 10.0813
H 17.2568 30.2401 10.5891
H 16.9208 28.5664 10.0974
H 18.5476 29.0159 10.6593
C 16.8835 30.6067 7.31119
H 17.1722 30.603 6.25133
H 15.903 30.1191 7.40658
H 16.7705 31.6563 7.61568
Si 18.6849 26.9041 6.92457
O 19.9093 26.0572 7.62859
C 17.1011 26.0156 7.42467
H 17.1317 24.9743 7.0679
H 17.1745 25.9447 8.52154
C 18.9398 27.0506 5.08547
H 20.0099 27.1994 4.87699
H 18.6038 26.1469 4.55915
H 18.388 27.9109 4.68045
Si 20.6794 24.6037 7.49447
O 20.0664 23.5664 8.62465
C 20.3468 23.8433 5.81855
H 20.7708 22.8336 5.74447
H 19.2639 23.7699 5.63872
H 20.782 24.46 5.01678
C 0.485973 24.9096 7.80135
H 0.649562 25.2513 8.83281
H 1.07622 24.0006 7.63595
H 0.85766 25.6934 7.12322
Si 19.4403 23.3832 10.1454
C 17.5885 23.0932 10.0218
H 17.387 22.2769 9.30912
H 17.1944 22.8006 11.0069
H 17.0424 23.9803 9.68037
C 20.3246 21.9429 10.9461
H 21.3231 22.1901 11.3244
H 19.7194 21.5808 11.7915
H 20.4311 21.1259 10.2119
Si 1.87905 32.9457 13.4611
O 3.19058 32.4658 14.3901
C 2.13985 34.58 12.6268
H 1.88642 35.3937 13.3203
H 3.18229 34.7089 12.3001
H 1.49134 34.6876 11.7441
C 0.276321 32.6752 14.34
H 21.4337 33.0472 13.7411
H 0.106416 31.6112 14.5491
H 0.274726 33.2188 15.2964
Si 3.63469 31.2289 13.3682
O 3.44814 29.7687 14.0422
C 5.27641 31.5041 12.5434
H 6.10608 31.1991 13.1989
H 5.35736 30.9377 11.6038
H 5.38955 32.5731 12.3073
C 2.1549 31.4271 12.0574
H 2.6237 30.5601 11.5273
H 1.16332 30.9918 12.2553
H 2.15615 32.143 11.2173
Si 4.16224 28.3442 14.5345
O 2.93132 27.3838 15.055
C 5.36728 28.7691 15.8951
H 4.87521 29.3439 16.6922
H 5.81683 27.8742 16.349
H 6.19177 29.3775 15.4935
C 4.98866 27.5548 13.056
H 5.68695 28.2531 12.5715
H 5.55717 26.6537 13.3275
H 4.22056 27.2726 12.3225
Si 2.64372 25.8617 15.6568
O 2.25144 24.8578 14.4059
C 1.23754 25.9779 16.87
H 0.365777 26.4893 16.4415
H 0.923419 24.9753 17.1941
H 1.56457 26.5306 17.763
C 4.18607 25.2227 16.496
H 5.03059 25.1 15.805
H 4.48734 25.9098 17.3004
H 3.99141 24.2424 16.9584
Si 1.93162 24.3399 12.8755
O 1.3039 22.7937 12.9549
C 0.613587 25.3792 12.068
H 0.993169 26.3696 11.7815
H 22.2466 24.8685 11.1662
H 21.7576 25.5151 12.7436
C 3.49657 24.2213 11.8686
H 4.19997 23.5211 12.3396
H 3.27102 23.8493 10.8602
H 4.00364 25.189 11.7683
Si 1.0761 21.5248 13.9876
C 0.611623 39.098 12.9779
H 1.36199 38.9456 12.1844
H 0.60558 38.2114 13.6274
H 21.6297 20.1069 12.5025
C 2.64839 21.2282 14.9723
H 2.84802 22.0319 15.6891
H 2.58216 20.2732 15.5171
H 3.5123 21.168 14.2896
Si 7.69555 34.3182 15.2106
O 8.16108 33.0371 16.2085
C 8.62645 35.8722 15.6059
H 8.61336 36.0457 16.6927
H 9.6723 35.8401 15.2782
H 8.14218 36.7322 15.1231
C 5.87185 34.4748 14.9796
H 5.63273 34.6785 13.9247
H 5.34634 33.5546 15.2677
H 5.48882 35.318 15.5701
Si 9.24763 32.4779 15.0836
O 9.09837 30.8789 14.7817
C 10.97 33.0983 15.4018
H 11.1634 33.1368 16.4832
H 11.7327 32.4575 14.9376
H 11.094 34.1099 14.9942
C 8.47384 33.4183 13.5145
H 8.33452 34.4476 13.113
H 9.40936 33.2316 12.9402
H 7.68649 32.782 13.0945
Si 10.2272 29.6232 14.8265
O 9.40188 28.2034 14.7398
C 11.1114 29.7376 16.4726
H 11.7138 30.6493 16.5621
H 10.3764 29.7315 17.2894
H 11.7876 28.8858 16.6227
C 11.3171 29.7891 13.3197
H 12.1274 29.0451 13.327
H 10.7093 29.6218 12.4196
H 11.7801 30.7838 13.2429
Si 9.52851 26.5632 15.0173
O 9.15418 25.7854 13.6164
C 8.28713 26.1406 16.3441
H 7.2835 26.0428 15.9063
H 8.52598 25.1978 16.855
H 8.25177 26.9438 17.0943
C 11.2856 26.113 15.4878
H 11.3457 25.0484 15.7589
H 11.9736 26.2813 14.6465
H 11.6332 26.6932 16.3537
Si 8.80647 24.3409 12.886
O 7.93551 23.3935 13.9328
C 7.79396 24.7555 11.382
H 7.6515 23.8775 10.7317
H 6.79727 25.1212 11.6703
H 8.27794 25.5378 10.7807
C 10.3748 23.4086 12.4869
H 10.7766 22.9265 13.388
H 10.1644 22.6231 11.7465
H 11.1471 24.0685 12.0706
Si 6.45457 22.6312 14.0289
C 6.31929 21.3325 12.6701
H 7.06502 20.5345 12.8378
H 5.32583 20.8585 12.6665
H 6.4902 21.752 11.6692
C 6.37636 21.8564 15.7291
H 6.33783 22.6 16.5343
H 5.49161 21.2106 15.8169
H 7.27745 21.2385 15.8789
Si 17.332 32.9918 12.8938
O 16.9462 32.5911 14.4478
C 18.7815 34.1908 12.844
H 18.8332 34.7683 13.7806
H 19.747 33.6957 12.6968
H 18.6375 34.8791 11.9984
C 15.7672 33.738 12.2069
H 14.9337 33.0289 12.235
H 15.4864 34.6127 12.8155
H 15.9083 34.0584 11.1672
Si 17.1557 31.7587 15.8558
O 17.1297 30.1373 15.5412
C 18.8122 32.1657 16.5826
H 19.0471 31.5058 17.428
H 19.6075 32.0546 15.8333
H 18.8235 33.2029 16.9384
C 15.7505 32.1948 17.0061
H 14.7703 32.1023 16.5139
H 15.7615 31.5186 17.8759
H 15.8532 33.2248 17.374
Si 16.028 29.0333 15.0019
O 16.8209 27.5908 14.9217
C 14.6604 28.876 16.2677
H 13.9854 28.0434 16.0261
H 15.0911 28.6826 17.259
H 14.0557 29.7889 16.3338
C 15.4362 29.5446 13.2972
H 16.2777 29.5279 12.5899
H 14.6559 28.8705 12.9136
H 15.0251 30.5632 13.3001
Si 16.8567 26.0898 14.2429
O 17.417 25.0557 15.4116
C 15.1128 25.6032 13.7645
H 14.6657 26.3803 13.127
H 15.0926 24.6595 13.1997
H 14.4848 25.4867 14.6591
C 18.0035 26.1117 12.7652
H 19.0489 26.2589 13.0705
H 17.9424 25.1757 12.1905
H 17.7373 26.9326 12.0823
Si 18.1714 23.6071 15.6748
O 17.3038 22.8273 16.8498
C 18.208 22.5966 14.0968
H 18.803 21.681 14.2299
H 17.202 22.3007 13.767
H 18.6809 23.1756 13.2916
C 19.9157 23.9339 16.257
H 19.9467 24.6412 17.0952
H 20.3978 23.0035 16.5839
H 20.5269 24.3493 15.4428
Si 17.2581 21.3239 17.5848
C 15.931 20.2849 16.7402
H 16.2061 20.0009 15.713
H 15.7519 38.4368 17.3036
H 14.9854 20.8444 16.7017
C 18.9605 20.5274 17.415
H 19.7435 21.2048 17.7783
H 19.0045 38.6881 18.0161
H 19.1964 20.2616 16.3747
527
 Atoms. Timestep: 400
Si 0.137866 33.3271 1.74081
O 21.8071 32.3948 0.403
C 0.695618 35.0155 1.14753
H 1.66486 34.9758 0.636664
H 21.9532 35.4171 0.436629
H 0.767211 35.7085 2.00042
C 20.5839 33.4333 2.78314
H 19.7005 33.414 2.12834
H 20.4867 32.5934 3.4801
H 20.5943 34.3659 3.36616
Si 0.714267 31.4256 19.4014
O 1.35834 30.2228 0.328518
C 2.07422 32.439 18.6014
H 2.92314 32.5866 19.2852
H 2.4519 31.9518 17.6888
H 1.6958 33.432 18.3182
C 21.5707 30.6812 18.1433
H 0.112875 29.9597 17.5136
H 20.7448 30.1549 18.6376
H 21.1499 31.4529 17.4859
Si 2.73518 29.3882 0.68683
O 2.27094 27.8936 1.18501
C 3.62632 30.3068 2.05547
H 3.02481 30.3066 2.97582
H 4.60532 29.8582 2.27785
H 3.79367 31.3544 1.76875
C 3.76363 29.1961 19.1445
H 4.69946 28.6635 19.359
H 3.21549 28.6199 18.3875
H 4.0199 30.1735 18.7136
Si 2.37751 26.588 2.18029
O 2.13001 25.2423 1.25868
C 1.04478 26.7347 3.4818
H 0.0624672 26.8712 3.00868
H 1.00214 25.8379 4.11592
H 1.23212 27.5997 4.13286
C 4.10644 26.5269 2.88705
H 4.37848 27.5021 3.31585
H 4.19346 25.7742 3.68226
H 4.83619 26.2813 2.10349
Si 1.43661 23.7457 1.19021
O 2.44705 22.7498 0.338409
C 21.8058 23.8956 0.298198
H 21.9436 24.2326 19.2626
H 21.2669 22.9373 0.288728
H 21.1732 24.6303 0.811185
C 1.28546 23.0087 2.90036
H 0.940041 21.9674 2.83868
H 2.26436 23.0129 3.40255
H 0.574074 23.5665 3.52659
Si 2.45674 22.0205 18.8469
C 1.11661 20.6935 18.787
H 0.101573 21.1123 18.8229
H 1.19497 20.1118 17.856
H 1.24138 39.0794 19.6365
C 4.15949 21.2819 18.6505
H 4.30353 20.5222 19.4369
H 4.2654 20.7956 17.6718
H 4.94653 22.0396 18.7509
Si 10.9448 34.8362 1.13262
O 10.7474 33.5797 0.0413053
C 12.5783 34.854 1.99216
H 12.9271 33.8378 2.21924
H 13.3219 35.351 1.35348
H 12.5197 35.4212 2.93123
C 10.3236 36.462 0.491488
H 10.1364 36.4107 19.4081
H 9.39882 36.7915 0.981018
H 11.0901 37.2301 0.668668
Si 9.36046 33.0116 0.770342
O 9.46599 31.4172 1.08206
C 9.52085 34.0187 2.45932
H 8.96025 34.9501 2.62535
H 8.82661 33.2768 2.92735
H 10.3488 33.8838 3.17477
C 7.84294 33.5629 19.8636
H 7.78461 33.1057 18.8636
H 6.91597 33.3271 0.405129
H 7.89304 34.6537 19.733
Si 8.54871 30.018 1.2044
O 9.58296 28.7646 0.978232
C 7.82348 29.9729 2.91986
H 7.17466 30.8428 3.10247
H 7.22328 29.0656 3.08119
H 8.62981 29.9807 3.66477
C 7.24738 30.0357 19.8661
H 7.68265 30.3132 18.896
H 6.79124 29.0432 19.7482
H 6.44112 30.7499 0.0892951
Si 9.79808 27.1269 0.829334
O 10.3792 26.5679 2.27665
C 8.16901 26.2785 0.468421
H 8.32834 25.1929 0.382359
H 7.43082 26.451 1.26604
H 7.73746 26.6219 19.5167
C 11.0461 26.8366 19.4734
H 11.9649 27.4101 19.6574
H 11.3084 25.7699 19.4299
H 10.6403 27.1306 18.4951
Si 10.6679 25.0725 2.93916
O 11.0615 24.0389 1.69229
C 9.12282 24.4367 3.77371
H 8.24682 24.5394 3.11869
H 9.23655 23.3738 4.02727
H 8.9227 24.9881 4.70321
C 12.094 25.2464 4.12305
H 12.4678 24.2639 4.44318
H 12.9234 25.7885 3.6462
H 11.8125 25.8022 5.02897
Si 12.3022 22.9826 1.33161
C 12.1216 22.5191 19.5243
H 12.594 23.2389 18.8448
H 12.5971 21.5403 19.3583
H 11.0546 22.4516 19.256
C 12.211 21.4941 2.48087
H 11.1882 21.0773 2.47568
H 12.9037 20.7103 2.13933
H 12.457 21.7361 3.52222
Si 17.3147 33.7135 0.388005
O 17.6767 32.3129 1.21015
C 18.6739 33.9419 19.1233
H 19.6591 33.8374 19.6059
H 18.6054 33.1688 18.3506
H 18.6048 34.9289 18.6452
C 17.1868 35.1589 1.58763
H 17.1009 36.1008 1.02396
H 16.3156 35.0703 2.24838
H 18.0877 35.2192 2.21971
Si 16.8751 31.2964 2.25566
O 16.2169 30.056 1.38362
C 18.1908 30.6609 3.42072
H 17.7864 29.9741 4.17763
H 18.9713 30.1276 2.86282
H 18.6673 31.4985 3.94772
C 15.4975 32.2482 3.08409
H 14.8552 32.7049 2.31867
H 14.8656 31.5987 3.70735
H 15.876 33.0503 3.73144
Si 14.7852 29.2405 1.15157
O 14.9965 28.1255 19.9574
C 14.3167 28.3675 2.73751
H 14.2861 29.071 3.58389
H 13.3275 27.8988 2.65564
H 15.0499 27.5829 2.97195
C 13.4486 30.3872 0.515112
H 13.7039 30.7508 19.5086
H 12.4906 29.8516 0.44066
H 13.2902 31.2602 1.16523
Si 15.9454 26.8767 19.4384
O 16.422 26.0299 0.770689
C 14.9308 25.762 18.3252
H 14.5664 24.8961 18.897
H 14.0602 26.2993 17.9188
H 15.538 25.3844 17.4894
C 17.4508 27.5803 18.582
H 18.1724 27.9484 19.3269
H 17.9473 26.8228 17.9577
H 17.1779 28.4187 17.9236
Si 16.8249 24.6293 1.5337
O 16.4292 23.3547 0.561908
C 15.8687 24.5436 3.13157
H 14.7858 24.5716 2.95738
H 16.0956 23.6153 3.67245
H 16.1328 25.3929 3.7774
C 18.6685 24.6923 1.81425
H 18.9475 25.6373 2.29838
H 19.0401 23.8604 2.42734
H 19.1819 24.6588 0.845958
Si 16.8698 21.8126 0.107057
C 15.441 20.6715 0.522491
H 14.5339 20.9557 19.978
H 15.6925 38.7184 0.241884
H 15.2064 20.678 1.5963
C 18.382 21.2415 1.07976
H 18.2115 21.2935 2.16589
H 18.6067 20.1934 0.832295
H 19.2727 21.8413 0.847668
Si 4.50662 33.9054 9.77404
O 5.32212 33.3817 8.42748
C 5.73987 34.8477 10.8325
H 6.5404 34.2112 11.2281
H 6.20421 35.6435 10.2279
H 5.22247 35.3224 11.6791
C 3.12735 35.0574 9.22012
H 3.53808 35.8348 8.55271
H 2.32721 34.5365 8.67717
H 2.67746 35.5518 10.0945
Si 5.36442 32.3913 7.10364
O 5.42559 30.8159 7.60859
C 6.90737 32.8638 6.16011
H 7.73965 33.0396 6.85677
H 7.20383 32.0644 5.466
H 6.75514 33.7836 5.57987
C 3.80209 32.5639 6.09433
H 3.73841 33.5496 5.61368
H 3.75918 31.7966 5.30712
H 2.91731 32.4378 6.73219
Si 6.42178 29.5201 7.86761
O 5.55763 28.1445 7.63865
C 7.03087 29.5619 9.63233
H 6.17267 29.5617 10.3181
H 7.64725 28.6801 9.8584
H 7.6311 30.4616 9.82921
C 7.78478 29.4905 6.60008
H 8.36819 28.5634 6.67155
H 7.35401 29.532 5.59057
H 8.47398 30.3378 6.70945
Si 4.35284 27.0346 7.75082
O 4.99121 25.5684 7.34205
C 3.75962 26.9692 9.52178
H 2.82849 26.3938 9.62279
H 4.52528 26.4921 10.1492
H 3.57552 27.9781 9.91781
C 3.01267 27.5149 6.53801
H 3.46641 27.8871 5.60789
H 2.37492 26.6558 6.27982
H 2.36824 28.3098 6.93993
Si 4.93112 23.949 7.05586
O 6.32936 23.2688 7.63826
C 3.45558 23.2018 7.93666
H 3.49778 22.1044 7.92523
H 3.43027 23.5378 8.98379
H 2.51505 23.5111 7.45692
C 4.90458 23.6332 5.22394
H 5.72478 24.1785 4.74013
H 5.02397 22.5632 5.01038
H 3.95454 23.9696 4.78614
Si 7.04513 22.2829 8.75859
C 6.21449 20.5979 8.74875
H 6.79907 38.9752 9.36311
H 5.19638 20.6332 9.15636
H 6.15787 20.2018 7.72109
C 8.88793 22.1054 8.34013
H 9.22203 21.1675 8.81541
H 9.45476 22.8993 8.84091
Si 12.1726 33.64 5.42842
O 12.0187 32.6734 6.76216
C 13.8724 34.4351 5.44101
H 14.6532 33.7231 5.73648
H 14.1303 34.8405 4.45382
H 13.875 35.2722 6.15891
C 10.8531 34.9707 5.61016
H 9.84062 34.5524 5.65295
H 11.0388 35.5164 6.5493
H 10.9025 35.6949 4.78362
Si 12.3158 31.9546 8.22233
O 12.6249 30.3495 7.97145
C 13.8534 32.6314 9.01945
H 13.758 33.6922 9.28033
H 14.0735 32.068 9.93405
H 14.7121 32.5132 8.34584
C 10.789 32.1592 9.27845
H 9.8931 31.8579 8.71834
H 10.8515 31.5408 10.186
H 10.6567 33.2079 9.57948
Si 11.9171 28.9404 7.48449
O 13.0567 27.7638 7.57642
C 10.5204 28.5341 8.6599
H 9.91434 27.6914 8.30006
H 10.9141 28.2673 9.64945
H 9.85063 29.3951 8.78693
C 11.3685 29.0942 5.70497
H 12.2469 29.1592 5.04795
H 10.7671 28.2329 5.38148
H 10.7707 30.0072 5.56542
Si 14.1862 26.6341 7.94382
O 13.5433 25.1355 7.65356
C 14.6943 26.798 9.73969
H 13.9957 26.2613 10.399
H 15.6958 26.3782 9.91316
H 14.71 27.8491 10.0619
C 15.6307 26.9079 6.77885
H 15.2676 26.717 5.75603
H 15.8367 27.9892 6.80758
Si 12.5263 24.1012 8.44813
O 11.806 23.1281 7.32127
C 11.2011 25.0663 9.33641
H 10.4742 25.498 8.63706
H 10.653 24.4168 10.0305
H 11.6297 25.8847 9.93159
C 13.5094 23.0331 9.61311
H 12.847 22.3378 10.1487
H 14.2496 22.4465 9.05216
H 14.0435 23.6406 10.3602
Si 10.9822 22.0586 6.39281
C 9.14555 22.1088 6.82155
H 8.66653 21.2473 6.33286
H 8.69215 22.9985 6.36109
C 11.7166 20.3448 6.56361
H 10.9812 38.679 6.23134
H 12.6181 20.2161 5.95155
H 11.9903 20.1401 7.61109
Si 21.5792 32.5559 6.14369
O 21.3802 32.5838 7.78392
C 0.344334 30.939 5.59149
H 0.92028 30.4911 6.4152
H 21.5978 30.2057 5.26549
H 1.00908 31.1426 4.74007
C 0.591272 34.0578 5.66357
H 21.9879 34.9227 5.36809
H 1.20644 34.3598 6.52459
H 1.24241 33.7906 4.82
Si 20.1664 32.0961 8.81711
O 19.5835 30.6689 8.22367
C 20.9583 31.8262 10.4827
H 20.2164 31.4738 11.2109
H 21.7492 31.0709 10.4049
H 21.3979 32.7547 10.8671
C 18.8487 33.4174 8.83543
H 18.4178 33.5483 7.83331
H 18.0393 33.1666 9.53531
H 19.2764 34.3786 9.1493
Si 18.2359 29.7036 8.17475
O 18.5837 28.4535 7.16446
C 17.8791 29.0756 9.89304
H 17.6414 29.91 10.5698
H 17.0293 28.3783 9.90828
H 18.7598 28.5542 10.2931
C 16.8348 30.6985 7.42791
H 17.014 30.8518 6.35363
H 15.8593 30.2049 7.54796
H 16.768 31.6877 7.90389
Si 18.5228 26.9282 6.55769
O 19.7516 26.0471 7.18369
C 16.9118 26.0874 7.05326
H 16.85 25.112 6.54597
H 17.013 25.8488 8.12349
C 18.6905 27.0313 4.70939
H 19.6199 27.5476 4.42783
H 18.7089 26.0202 4.2804
H 17.8406 27.5778 4.27518
Si 20.674 24.7996 7.72557
O 19.7852 23.9045 8.79531
C 21.0878 23.6724 6.30202
H 21.6464 22.7932 6.65012
H 20.1677 23.3252 5.81236
H 21.6957 24.1963 5.55023
C 0.176856 25.5301 8.55732
H 21.9543 26.5362 8.93501
H 0.501673 24.9089 9.40312
H 1.01697 25.6152 7.85437
Si 19.5094 23.6005 10.4054
C 17.6813 23.233 10.5917
H 17.3791 22.4995 9.82924
H 17.4889 22.8039 11.5852
H 17.0511 24.1222 10.4809
C 20.5507 22.1399 10.9602
H 21.5312 22.4014 11.374
H 19.9895 21.6287 11.757
H 20.7034 21.4408 10.1231
Si 1.8041 32.3012 13.4938
O 3.17675 32.0618 14.4284
C 1.71857 33.9907 12.7446
H 1.58334 34.7502 13.5261
H 2.6284 34.2203 12.1689
H 0.856558 34.0597 12.0623
C 0.280192 31.6153 14.2852
H 21.4287 31.6778 13.5915
H 0.417695 30.5638 14.5716
H 0.0215309 32.1854 15.1885
Si 3.86972 30.9841 13.358
O 3.88919 29.4719 13.933
C 5.48467 31.6019 12.6966
H 6.26727 31.4374 13.4518
H 5.78751 31.0969 11.7702
H 5.40626 32.681 12.5074
C 2.39304 30.9434 12.0306
H 3.0935 30.3844 11.3634
H 1.61125 30.1944 12.2149
H 2.09469 31.6936 11.2753
Si 4.78207 28.1626 14.4614
O 3.68401 27.0595 14.9675
C 5.85728 28.7357 15.8665
H 5.23566 29.2049 16.6442
H 6.39609 27.8943 16.3275
H 6.60774 29.4628 15.5249
C 5.69902 27.4519 13.0028
H 6.5103 28.1121 12.6626
H 6.14154 26.477 13.244
H 4.99411 27.3123 12.169
Si 2.92834 25.8592 15.8015
O 2.50165 24.6797 14.7219
C 1.39636 26.5667 16.5989
H 0.66691 26.875 15.8356
H 0.90885 25.8338 17.2575
H 1.64572 27.4513 17.203
C 4.08624 25.0987 17.0536
H 5.12421 25.0987 16.6915
H 4.04892 25.6496 18.0039
H 3.80409 24.0553 17.2602
Si 1.87263 24.3037 13.244
O 1.36953 22.7121 13.3092
C 0.367984 25.3465 12.8666
H 0.606796 26.4158 12.7877
H 21.9154 25.0327 11.9167
H 21.6068 25.2292 13.6509
C 3.1799 24.3864 11.9199
H 3.82131 23.4975 11.9569
H 2.71228 24.428 10.9269
H 3.81666 25.2729 12.033
Si 0.990491 21.6637 14.5338
C 21.9848 20.2552 13.8237
H 0.585215 38.8281 13.0488
H 21.7443 38.6036 14.6062
H 21.05 20.5993 13.3658
C 2.57546 21.0979 15.3489
H 3.15299 21.951 15.7275
H 2.37771 20.4093 16.1813
H 3.1906 20.5573 14.61
Si 7.38531 34.2919 15.7036
O 7.55307 32.8141 16.4858
C 8.13771 35.6762 16.6923
H 8.50127 35.3033 17.6613
H 8.9716 36.1742 16.1819
H 7.36453 36.4328 16.8807
C 5.75999 34.6318 14.8943
H 5.91882 34.9898 13.8654
H 5.11589 33.7427 14.8547
H 5.24221 35.4335 15.4393
Si 8.97251 32.4432 15.6783
O 8.96121 30.8818 15.1799
C 10.4831 33.0202 16.5921
H 10.5588 32.5915 17.5996
H 11.4098 32.7832 16.0501
H 10.4342 34.1098 16.7084
C 8.68013 33.6261 14.1422
H 8.9961 34.6807 14.0441
H 9.54224 33.1885 13.5828
H 7.83851 33.3791 13.4791
Si 10.1445 29.6795 15.1296
O 9.3665 28.234 15.0166
C 11.11 29.754 16.7302
H 11.8258 30.5844 16.7382
H 10.435 29.879 17.5875
H 11.6811 28.8316 16.8958
C 11.161 30.0024 13.5951
H 11.9813 29.2797 13.4789
H 10.5183 29.9375 12.7057
H 11.6057 31.0087 13.6203
Si 9.57184 26.5841 15.107
O 9.07507 25.962 13.6613
C 8.4927 25.9142 16.4828
H 7.53965 25.5406 16.0836
H 8.98913 25.0825 17.0012
H 8.27779 26.6982 17.2215
C 11.3768 26.1524 15.3731
H 11.4809 25.078 15.5856
H 11.9807 26.3773 14.4823
H 11.8034 26.6912 16.2307
Si 8.91035 24.5138 12.8703
O 7.97609 23.5031 13.7912
C 8.0611 24.9159 11.267
H 7.9086 24.0169 10.6491
H 7.0753 25.3577 11.4657
H 8.64247 25.6386 10.6792
C 10.5762 23.691 12.6771
H 10.933 23.3062 13.6423
H 10.5143 22.8449 11.9796
H 11.3288 24.3938 12.2951
Si 6.39592 23.0053 13.975
C 5.97745 21.7917 12.5972
H 6.64284 20.9133 12.6594
H 4.93861 21.4391 12.688
H 6.09963 22.2341 11.5991
C 6.30786 22.2031 15.6626
H 6.43699 22.9206 16.4815
H 5.33841 21.7055 15.802
H 7.10691 21.4487 15.7401
Si 17.444 32.8529 12.6026
O 16.826 32.579 14.1249
C 18.9505 33.979 12.6767
H 18.781 34.8063 13.3853
H 19.8648 33.4512 12.9754
H 19.1251 34.3999 11.6757
C 16.0208 33.6292 11.6781
H 15.1363 32.9816 11.6991
H 15.7553 34.5815 12.1664
H 16.2709 33.8348 10.6284
Si 17.1474 31.7592 15.5268
O 16.8464 30.1543 15.3016
C 18.9382 31.9584 15.9736
H 19.1549 31.4286 16.9087
H 19.601 31.5537 15.1999
H 19.1792 33.021 16.1126
C 16.0317 32.3808 16.8861
H 14.9752 32.3578 16.5809
H 16.1401 31.7338 17.7693
H 16.2829 33.4057 17.1892
Si 15.843 29.0303 14.6312
O 16.6698 27.6125 14.6181
C 14.3562 28.7874 15.7307
H 13.6701 28.0418 15.304
H 14.6794 28.4278 16.7168
H 13.7956 29.7207 15.8711
C 15.362 29.5872 12.9073
H 16.2028 29.507 12.2033
H 14.5293 28.9886 12.5078
H 15.0413 30.6382 12.9278
Si 17.1687 26.1242 14.1471
O 17.6475 25.2951 15.505
C 15.731 25.2303 13.3482
H 15.3457 25.8044 12.4913
H 16.0254 24.24 12.9755
H 14.9114 25.1026 14.0686
C 18.6116 26.327 12.9776
H 19.4567 26.808 13.4883
H 18.9499 25.3517 12.5972
H 18.347 26.9447 12.1066
Si 18.5003 23.9434 15.955
O 17.542 23.1125 17.0217
C 18.8908 22.8999 14.4423
H 19.2873 21.9155 14.7273
H 17.9962 22.7282 13.8272
H 19.651 23.3738 13.8052
C 20.0675 24.4817 16.8144
H 19.8472 25.1013 17.6932
H 20.643 23.6075 17.1505
H 20.7175 25.0649 16.1461
Si 17.3304 21.6484 17.8056
C 15.8631 20.7905 17.0017
H 15.973 20.7266 15.9096
H 15.7537 38.8524 17.4024
H 14.9359 21.3407 17.2161
C 18.911 20.6357 17.6247
H 19.7853 21.2111 17.9626
H 18.8502 38.8103 18.2468
H 19.0932 20.3144 16.5893
527
 Atoms. Timestep: 500
Si 0.114545 33.4411 0.844489
O 21.7921 32.4225 19.5782
C 0.091118 35.2075 0.223155
H 0.830057 35.3568 19.4258
H 21.0981 35.4636 19.8175
H 0.299865 35.9027 1.04935
C 20.9186 33.1002 2.24183
H 19.943 32.8006 1.83027
H 21.2636 32.2818 2.88265
H 20.801 34.0019 2.85983
Si 0.649713 31.1608 18.8966
O 1.17987 30.2118 0.14137
C 2.07829 31.8659 17.9179
H 2.83382 32.3302 18.5693
H 2.57225 31.0916 17.3134
H 1.72278 32.6311 17.2144
C 21.4914 30.1736 17.8332
H 21.9878 29.2535 17.4892
H 20.5939 29.8875 18.3957
H 21.1827 30.7437 16.9491
Si 2.47099 29.4035 0.775484
O 1.88209 28.0366 1.47917
C 3.25559 30.5153 2.06002
H 2.50341 30.8855 2.77183
H 4.0332 29.9883 2.63277
H 3.72493 31.3902 1.58795
C 3.66415 28.9504 19.4088
H 4.59131 28.5248 19.8185
H 3.21541 28.2092 18.7336
H 3.93288 29.8376 18.8197
Si 2.25524 26.6753 2.34138
O 1.95087 25.3683 1.38547
C 1.1619 26.6663 3.85112
H 0.103472 26.6384 3.55858
H 1.36722 25.7989 4.49415
H 1.32537 27.5785 4.44039
C 4.07655 26.6841 2.75991
H 4.37199 27.6541 3.18574
H 4.32604 25.9093 3.49702
H 4.6836 26.5032 1.86214
Si 1.13455 23.9668 1.10117
O 2.24166 22.8179 0.642241
C -0.086548 24.2313 19.7115
H 0.303475 24.9316 18.9619
H 21.7027 23.2779 19.2056
H 20.9626 24.6338 0.0854192
C 0.33164 23.3624 2.67604
H -0.213404 22.4272 2.49182
H 1.09246 23.1701 3.44476
H 21.6242 24.1023 3.07549
Si 2.52991 21.9346 19.2611
C 1.45416 20.3908 19.313
H 0.39141 20.6251 19.4636
H 1.53753 38.8991 18.3773
H 1.78506 38.8215 0.140663
C 4.34731 21.5064 19.2057
H 4.54637 20.6617 -0.114711
H 4.64682 21.2016 18.1944
H 4.96906 22.3601 19.5066
Si 10.9431 34.8889 1.11167
O 10.5372 33.7622 19.9361
C 12.6789 34.6928 1.72712
H 13.108 33.75 1.35707
H 13.2987 35.5274 1.37368
H 12.7293 34.6766 2.82446
C 10.3558 36.6029 0.704093
H 10.2145 36.7196 19.619
H 9.40741 36.8522 1.19835
H 11.1083 37.3346 1.03162
Si 9.21081 33.2175 0.782898
O 9.26033 31.6167 1.0534
C 9.66198 34.0397 2.52823
H 9.55455 35.0599 2.94116
H 8.66478 33.687 2.88831
H 10.3774 33.4516 3.11376
C 7.64736 33.8907 0.0540956
H 7.50269 33.4657 19.0493
H 6.76035 33.6668 0.662483
H 7.74071 34.9818 -0.0433106
Si 8.3666 30.2011 1.07147
O 9.47017 28.9822 1.02362
C 7.38882 30.1387 2.65857
H 6.68876 30.9842 2.7306
H 6.80159 29.2114 2.72336
H 8.06764 30.1752 3.51964
C 7.25163 30.2151 19.5752
H 7.78406 30.546 18.6742
H 6.81958 29.2251 19.369
H 6.41558 30.9129 19.7355
Si 9.76833 27.356 0.886771
O 10.424 26.8406 2.31679
C 8.15783 26.4597 0.556872
H 8.31867 25.3725 0.515007
H 7.40039 26.6628 1.32915
H 7.74369 26.7618 19.5827
C 10.9979 27.0892 19.5099
H 11.9872 27.479 19.7871
H 11.0999 26.0172 19.29
H 10.6668 27.5936 18.5911
Si 10.7013 25.373 3.04944
O 11.1919 24.2949 1.87865
C 9.11356 24.7478 3.80627
H 8.27616 24.84 3.10165
H 9.21058 23.6905 4.0866
H 8.85927 25.3178 4.71123
C 12.0575 25.5932 4.3091
H 12.531 24.6266 4.53117
H 12.8354 26.2724 3.92969
H 11.6955 26.0018 5.26252
Si 12.5596 23.4032 1.53343
C 12.4225 22.8684 19.7455
H 12.4784 23.7132 19.0485
H 13.2376 22.1695 19.5056
H 11.4614 22.3528 19.5887
C 12.6843 21.9283 2.69838
H 11.7277 21.377 2.7171
H 13.4665 21.2415 2.34125
H 12.9223 22.2027 3.73363
Si 17.3776 33.6725 0.359081
O 17.8337 32.2484 1.10346
C 18.5344 33.9388 18.9203
H 19.5803 33.886 19.2547
H 18.4023 33.1564 18.1697
H 18.3545 34.9162 18.4495
C 17.4245 35.0651 1.61787
H 17.3851 36.0376 1.10163
H 16.5807 35.0105 2.31577
H 18.3566 35.0135 2.20413
Si 16.9484 31.224 2.07881
O 16.086 30.2286 1.08389
C 18.158 30.2173 3.08089
H 17.6442 29.7 3.90495
H 18.6393 29.4591 2.44986
H 18.9387 30.8555 3.51698
C 15.8209 32.2503 3.16373
H 15.1299 32.8735 2.57936
H 15.2155 31.6228 3.83405
H 16.4101 32.921 3.80515
Si 14.6154 29.4599 0.961168
O 14.77 28.2054 19.9058
C 14.1323 28.7773 2.63148
H 13.9855 29.5754 3.37455
H 13.1993 28.2011 2.57296
H 14.9255 28.1088 2.99874
C 13.3779 30.6502 0.219669
H 13.6012 30.8104 19.1541
H 12.3498 30.2695 0.297944
H 13.4171 31.6286 0.721123
Si 15.8464 27.0267 19.4712
O 16.3865 26.3166 0.860237
C 14.95 25.766 18.4204
H 14.5706 24.9525 19.0554
H 14.0923 26.2305 17.9099
H 15.6165 25.328 17.6653
C 17.278 27.8454 18.5787
H 17.9682 28.3101 19.2995
H 17.8421 27.1232 17.9699
H 16.9191 28.6313 17.8974
Si 17.18 25.1067 1.64779
O 17.0355 23.7137 0.785471
C 16.347 24.8812 3.30154
H 15.318 24.5262 3.15466
H 16.8742 24.1463 3.9248
H 16.2994 25.8279 3.85498
C 18.976 25.6163 1.7528
H 19.1269 26.3998 2.50597
H 19.6265 24.7714 2.01294
H 19.302 26.0218 0.785557
Si 17.4036 22.153 0.3569
C 16.0458 21.0328 1.01558
H 15.0725 21.3134 0.595303
H 16.2467 39.0675 0.73868
H 15.9695 21.086 2.11026
C 19.0671 21.6621 1.10927
H 19.0018 21.556 2.20225
H 19.3974 20.6946 0.701678
H 19.8422 22.4075 0.88346
Si 3.76602 33.3723 9.37763
O 4.49222 33.1005 7.91273
C 4.84983 34.5788 10.3306
H 5.84685 34.1658 10.5337
H 4.97199 35.5049 9.74485
H 4.38163 34.8396 11.2926
C 2.06949 34.0874 9.00494
H 2.17434 34.9544 8.33189
H 1.40217 33.3702 8.5096
H 1.58695 34.4257 9.93411
Si 5.15229 32.1355 6.74871
O 5.29734 30.6044 7.36101
C 6.82226 32.8435 6.28164
H 7.49088 32.8863 7.15306
H 7.29852 32.221 5.51018
H 6.72672 33.8619 5.88161
C 4.02236 32.016 5.27197
H 3.82287 32.991 4.80998
H 4.48183 31.3677 4.51118
H 3.06505 31.5623 5.55808
Si 6.42529 29.4514 7.72902
O 5.66291 28.0009 7.80911
C 7.13613 29.8252 9.41239
H 6.30748 30.0156 10.1089
H 7.71776 28.9779 9.80036
H 7.77958 30.7166 9.39694
C 7.69399 29.3653 6.365
H 8.28514 28.4437 6.41798
H 7.1906 29.3855 5.38817
H 8.38296 30.219 6.40505
Si 4.43054 26.93 7.96406
O 4.96334 25.4911 7.35732
C 4.03522 26.7101 9.77668
H 3.17175 26.0445 9.91854
H 4.89825 26.2699 10.2952
H 3.8071 27.673 10.2566
C 2.96715 27.5343 6.97483
H 3.2225 27.5517 5.90632
H 2.09442 26.8768 7.10458
H 2.67678 28.5512 7.27619
Si 4.71406 23.9038 7.0009
O 6.09678 23.065 7.37334
C 3.29028 23.2269 8.00747
H 3.04003 22.2045 7.69352
H 3.54925 23.2048 9.07494
H 2.39218 23.8488 7.88912
C 4.47474 23.7109 5.16645
H 5.34106 24.135 4.64156
H 4.38686 22.6512 4.89423
H 3.57015 24.2359 4.82529
Si 6.85721 22.2604 8.60619
C 6.14932 20.5238 8.71542
H 6.7153 39.0122 9.45107
H 5.09584 20.5286 9.02448
H 6.21235 20.019 7.73687
C 8.7179 22.1943 8.23703
H 9.07004 21.2222 8.62113
H 9.24678 22.9449 8.83795
Si 12.3374 33.5906 5.45785
O 12.0111 32.7886 6.86345
C 14.1231 34.1709 5.4849
H 14.8111 33.3456 5.70429
H 14.4059 34.6035 4.51533
H 14.2511 34.9449 6.25853
C 11.1607 35.0589 5.39996
H 10.1134 34.7414 5.47201
H 11.3816 35.7292 6.2471
H 11.2938 35.6341 4.47334
Si 12.1076 32.019 8.32054
O 12.4235 30.4196 8.07151
C 13.5268 32.6564 9.33998
H 13.4508 33.7348 9.5289
H 13.5482 32.1343 10.3071
H 14.4848 32.458 8.83866
C 10.4664 32.2296 9.18199
H 9.66851 31.727 8.61739
H 10.4928 31.7974 10.1931
H 10.2022 33.2921 9.26525
Si 11.9493 29.0293 7.32458
O 13.223 27.9923 7.37342
C 10.5031 28.3124 8.261
H 10.062 27.4586 7.72804
H 10.8074 27.9742 9.25961
H 9.71443 29.0662 8.39027
C 11.5321 29.3765 5.53744
H 12.3802 29.8537 5.02897
H 11.281 28.458 4.98827
H 10.6735 30.0605 5.47386
Si 14.2394 26.7865 7.83903
O 13.4394 25.3422 7.75312
C 14.8585 27.1096 9.57304
H 14.0707 26.9522 10.3247
H 15.7002 26.4497 9.82548
H 15.2032 28.1482 9.66845
C 15.6488 26.8069 6.5981
H 15.2222 26.5547 5.61334
H 15.9456 27.8635 6.50684
Si 12.5145 24.1851 8.47114
O 11.6837 23.3811 7.28403
C 11.2503 24.9617 9.59503
H 10.5623 25.5997 9.02938
H 10.6533 24.1888 10.0948
H 11.7242 25.5717 10.3777
C 13.613 22.9724 9.36082
H 13.0083 22.2026 9.86111
H 14.2838 22.4747 8.64706
H 14.2319 23.4735 10.1204
Si 10.8652 22.2982 6.36319
C 9.02099 22.3729 6.73724
H 8.52255 21.5938 6.14138
H 8.60966 23.3263 6.37558
C 11.5542 20.5756 6.58416
H 10.9703 38.9389 5.99017
H 12.6033 20.5149 6.26642
H 11.5025 20.2738 7.6435
Si 21.4562 32.2651 5.70491
O 21.4151 32.3669 7.35725
C 21.7701 30.4971 5.19099
H 0.673345 30.1075 5.68876
H 20.9271 29.8469 5.45685
H 21.9265 30.4446 4.10349
C 0.751496 33.4701 5.08067
H 0.359579 34.4699 4.86819
H 1.54735 33.5718 5.83426
H 1.18513 33.0727 4.15265
Si 20.3703 31.9302 8.57685
O 19.6108 30.5445 8.08542
C 21.4186 31.6032 10.0853
H 20.7985 31.5358 10.992
H 21.9682 30.6593 9.97178
H 0.150388 32.4094 10.2257
C 19.1372 33.3047 8.83701
H 18.589 33.5098 7.90665
H 18.4064 33.0414 9.61559
H 19.6437 34.2278 9.15108
Si 18.2578 29.6301 8.38315
O 18.427 28.231 7.54352
C 18.1525 29.2485 10.2051
H 17.8429 30.1359 10.7778
H 17.426 28.4474 10.4034
H 19.1311 28.9249 10.5866
C 16.7785 30.5568 7.71401
H 16.8961 30.7273 6.63375
H 15.838 30.0102 7.87302
H 16.6888 31.5396 8.20176
Si 18.5509 26.7287 6.89873
O 19.5405 25.8236 7.8528
C 16.8604 25.8956 6.90778
H 16.8837 25.0554 6.19489
H 16.7519 25.4075 7.89007
C 19.2554 26.8838 5.18022
H 20.1003 27.5877 5.18465
H 19.6129 25.9136 4.80344
H 18.4979 27.2686 4.48399
Si 20.8317 24.9122 8.31935
O 20.2657 23.6321 9.21157
C 21.7195 24.1908 6.8474
H 0.27698 23.292 7.14112
H 21.0118 23.91 6.05552
H 0.429911 24.9168 6.42514
C 21.9617 25.9438 9.38686
H 21.3924 26.4686 10.1657
H 0.70993 25.3103 9.88436
H 0.499095 26.6945 8.79165
Si 19.6265 23.3647 10.7125
C 17.7696 23.147 10.5742
H 17.5492 22.3681 9.82769
H 17.3493 22.8363 11.5416
H 17.2645 24.0706 10.2647
C 20.4849 21.881 11.4754
H 21.4586 22.1148 11.9212
H 19.8443 21.4778 12.2747
H 20.6403 21.1108 10.7029
Si 1.66991 32.0609 13.4956
O 2.99727 31.8811 14.5063
C 1.58447 33.7359 12.7181
H 1.41143 34.5052 13.4815
H 2.50778 33.9795 12.1751
H 0.747012 33.7797 12.0063
C 0.111858 31.3668 14.2068
H 21.3558 31.2317 13.4183
H 0.293344 30.3941 14.6846
H 21.6886 32.0464 14.9577
Si 3.78379 30.8438 13.4632
O 3.95089 29.3708 14.1075
C 5.30598 31.6001 12.7268
H 6.14686 31.5259 13.4302
H 5.60453 31.1089 11.7907
H 5.11888 32.6621 12.5139
C 2.32407 30.6438 12.1259
H 3.06659 30.1427 11.4621
H 1.60595 29.8451 12.3513
H 1.94702 31.3291 11.3407
Si 4.9528 28.1083 14.5574
O 3.97712 26.856 14.9581
C 5.9263 28.6849 16.0323
H 5.24356 28.9751 16.8467
H 6.58912 27.8915 16.4066
H 6.5542 29.5478 15.7692
C 5.95477 27.6036 13.0696
H 6.60006 28.4275 12.7324
H 6.60175 26.7444 13.2857
H 5.27504 27.3356 12.2471
Si 3.1857 25.665 15.7698
O 2.87536 24.4376 14.7099
C 1.59576 26.3583 16.4548
H 1.01195 26.8556 15.6682
H 0.970861 25.5655 16.8898
H 1.80228 27.0958 17.2433
C 4.27551 24.964 17.1134
H 5.27473 24.722 16.7239
H 4.39242 25.6845 17.9364
H 3.83933 24.0422 17.5278
Si 2.02949 23.874 13.4134
O 1.43186 22.3697 13.8232
C 0.574723 24.9752 13.0233
H 0.893146 25.9785 12.7053
H 21.97 24.5452 12.2131
H 21.9262 25.0834 13.9037
C 3.17535 23.6651 11.9601
H 3.80881 22.7764 12.0796
H 2.6012 23.5523 11.0296
H 3.83212 24.5408 11.8527
Si 1.28791 21.5803 15.2776
C 0.0452739 20.1944 15.0608
H 0.514787 38.461 14.4824
H 21.7333 38.8634 16.0308
H 21.1542 20.54 14.5203
C 2.98124 20.9822 15.8064
H 3.64193 21.8098 16.0843
H 2.90915 20.2903 16.6587
H 3.44269 20.4423 14.9631
Si 7.1779 34.2107 15.8415
O 7.51349 32.784 16.6729
C 7.92707 35.7217 16.6308
H 8.14072 35.5528 17.6964
H 8.86108 36.0271 16.1404
H 7.21766 36.5571 16.5534
C 5.4354 34.3407 15.2459
H 5.40045 34.5912 14.1751
H 4.88304 33.402 15.394
H 4.92217 35.1478 15.7871
Si 8.8538 32.4592 15.7263
O 8.84351 30.9274 15.1439
C 10.3927 33.0752 16.5587
H 10.5774 32.5463 17.5031
H 11.2929 32.9985 15.9305
H 10.2412 34.1303 16.8252
C 8.36205 33.6196 14.2101
H 8.45894 34.7116 14.0356
H 9.31887 33.3644 13.6941
H 7.58719 33.1886 13.5632
Si 10.0133 29.7175 14.9896
O 9.23185 28.2726 14.7944
C 10.9911 29.7149 16.5805
H 11.6633 30.5789 16.6383
H 10.3229 29.7493 17.451
H 11.6129 28.8167 16.6739
C 11.0254 30.0928 13.4656
H 11.7251 29.275 13.2365
H 10.3676 30.2235 12.5941
H 11.6201 31.01 13.5879
Si 9.56531 26.6455 14.9571
O 8.98351 25.8718 13.6148
C 8.66958 25.9869 16.4609
H 7.62964 25.7438 16.2016
H 9.14332 25.0707 16.8388
H 8.66259 26.7277 17.2725
C 11.4226 26.3901 15.0313
H 11.6835 25.3361 14.8642
H 11.9333 26.9777 14.2546
H 11.8391 26.6697 16.0095
Si 8.88147 24.3475 12.9682
O 8.0442 23.3798 14.0234
C 7.931 24.5106 11.3786
H 7.78839 23.5306 10.8988
H 6.9364 24.9369 11.5684
H 8.44492 25.165 10.6626
C 10.5796 23.5904 12.7721
H 10.9062 23.123 13.7114
H 10.5617 22.8093 11.9996
H 11.3272 24.3399 12.4796
Si 6.57022 22.6224 14.1712
C 6.34236 21.3547 12.7967
H 7.23732 20.7138 12.7217
H 5.47969 20.7118 13.0332
H 6.16858 21.8049 11.811
C 6.56483 21.8223 15.8627
H 6.35211 22.5283 16.6743
H 5.79748 21.0352 15.8896
H 7.5505 21.3697 16.057
Si 17.6406 32.8843 12.5595
O 16.9077 32.6224 14.0324
C 19.1855 33.9395 12.7734
H 18.9406 34.8732 13.3057
H 19.9798 33.4253 13.3294
H 19.5871 34.1993 11.7827
C 16.3581 33.7461 11.509
H 15.5316 33.0903 11.2146
H 15.9367 34.582 12.0914
H 16.8186 34.1482 10.5956
Si 17.1567 31.7574 15.4232
O 16.7988 30.1723 15.1446
C 18.9443 31.8219 15.9151
H 19.0798 31.4009 16.9187
H 19.5608 31.2302 15.2292
H 19.32 32.8539 15.9187
C 16.0444 32.4173 16.7682
H 14.9845 32.3481 16.4838
H 16.1866 31.827 17.6859
H 16.2674 33.4654 17.0062
Si 15.69 29.115 14.5382
O 16.4029 27.6382 14.4945
C 14.2545 28.9928 15.7213
H 13.4767 28.3249 15.3271
H 14.5968 28.5867 16.683
H 13.7966 29.9743 15.9045
C 15.175 29.6883 12.8267
H 15.9363 29.43 12.0758
H 14.2237 29.2311 12.517
H 15.0521 30.7805 12.8163
Si 16.8629 26.1358 14.0258
O 17.2349 25.2591 15.3882
C 15.4389 25.3118 13.1383
H 15.0938 25.9436 12.3064
H 15.7296 24.3383 12.7202
H 14.5909 25.1571 13.8197
C 18.3688 26.3004 12.9319
H 19.2385 26.6639 13.4963
H 18.6365 25.3383 12.4687
H 18.1803 27.0104 12.1144
Si 18.3207 24.1303 15.9369
O 17.625 23.3947 17.2466
C 18.6806 22.8496 14.6133
H 19.5879 22.2833 14.8719
H 17.8545 22.1331 14.5031
H 18.859 23.3081 13.6319
C 19.8884 24.9874 16.4801
H 19.7022 25.6393 17.3428
H 20.6523 24.2539 16.7737
H 20.309 25.6063 15.6752
Si 17.4971 21.9219 18.0236
C 15.9162 21.0984 17.435
H 15.9024 20.9682 16.3449
H 15.8041 39.1912 17.9035
H 15.0473 21.7098 17.712
C 19.0075 20.8518 17.6266
H 19.9433 21.3735 17.8775
H 18.9782 39.0066 18.2222
H 19.0501 20.5615 16.5678
527
 Atoms. Timestep: 546
Si 0.0829721 33.5167 0.657472
O 21.7911 32.3975 19.4852
C -0.155065 35.2323 -0.046438
H 0.387328 35.331 19.0027
H 20.7763 35.4235 19.763
H 0.196225 35.9981 0.656826
C 21.1273 33.0982 2.20636
H 20.0985 32.8031 1.94655
H 21.5876 32.256 2.73598
H 21.1045 33.9639 2.88203
Si 0.650242 31.1016 18.864
O 1.27114 30.2662 0.146012
C 2.01754 31.7555 17.7738
H 2.80296 32.2454 18.3693
H 2.48824 30.9567 17.1827
H 1.63101 32.4903 17.0543
C 21.4085 30.0553 17.9599
H 21.8289 29.0697 17.7099
H 20.5206 29.9025 18.5872
H 21.0884 30.5419 17.0293
Si 2.53193 29.4312 0.810133
O 1.89331 28.1274 1.58655
C 3.35862 30.5663 2.04615
H 2.62521 30.9507 2.76963
H 4.1477 30.046 2.60891
H 3.81699 31.429 1.54332
C 3.7041 28.8559 19.4727
H 4.60929 28.4127 19.9133
H 3.22982 28.0986 18.8339
H 4.01826 29.6965 18.8392
Si 2.24019 26.7288 2.3978
O 1.844 25.4689 1.41708
C 1.20421 26.7374 3.9458
H 0.136111 26.7497 3.69083
H 1.40394 25.8561 4.57101
H 1.42209 27.6366 4.53801
C 4.07051 26.6219 2.75128
H 4.41597 27.4921 3.32844
H 4.30758 25.7191 3.33072
H 4.64181 26.5783 1.81375
Si 1.04867 24.0591 1.12812
O 2.17013 22.9151 0.694582
C 21.8834 24.3344 19.6963
H 0.409434 24.8281 18.8687
H 21.4952 23.3751 19.3253
H 21.0318 24.9643 -0.0154971
C 0.227747 23.4572 2.69295
H 21.6763 22.5261 2.50882
H 0.987661 23.2583 3.46147
H 21.5285 24.203 3.09534
Si 2.48838 22.0799 19.2907
C 1.37132 20.5649 19.2523
H 0.309642 20.8274 19.1429
H 1.63537 38.9866 18.4108
H 1.48442 39.0782 0.190898
C 4.30586 21.646 19.3029
H 4.4993 20.8753 20.0665
H 4.62125 21.2545 18.3269
H 4.91877 22.528 19.5327
Si 11.0684 34.7899 1.01261
O 10.6497 33.6168 19.8861
C 12.8091 34.628 1.63247
H 13.2475 33.683 1.2781
H 13.4278 35.4602 1.27273
H 12.8473 34.6248 2.73215
C 10.4527 36.4719 0.52891
H 10.3832 36.5533 19.4331
H 9.46126 36.6921 0.948476
H 11.1492 37.2455 0.885634
Si 9.31326 33.1447 0.759375
O 9.29934 31.556 1.07739
C 9.84085 33.986 2.48197
H 9.86313 35.0072 2.91325
H 8.8172 33.7536 2.86058
H 10.5166 33.3332 3.04461
C 7.75327 33.8673 0.070694
H 7.51235 33.3914 19.109
H 6.89642 33.7423 0.747934
H 7.90273 34.9409 19.8926
Si 8.36508 30.1675 1.0894
O 9.4268 28.9245 0.939622
C 7.46705 30.0945 2.72251
H 6.74484 30.9208 2.80919
H 6.91348 29.1503 2.83182
H 8.18535 30.1701 3.54982
C 7.19662 30.2403 19.6348
H 7.7088 30.5727 18.7217
H 6.74531 29.2594 19.4249
H 6.3739 30.9458 19.8277
Si 9.67203 27.2882 0.85184
O 10.2216 26.7935 2.33337
C 8.04726 26.4435 0.459038
H 8.19219 25.371 0.264385
H 7.32871 26.5452 1.28618
H 7.5929 26.8781 19.5562
C 10.9792 26.9613 19.5615
H 11.8962 27.5209 19.7904
H 11.2303 25.8926 19.5445
H 10.6337 27.2487 18.5591
Si 10.5829 25.3377 3.04986
O 11.1737 24.3238 1.8728
C 9.02483 24.5742 3.73213
H 8.22548 24.5778 2.97906
H 9.20519 23.5338 4.03509
H 8.66475 25.1281 4.6108
C 11.8827 25.651 4.34792
H 12.4607 24.7384 4.54913
H 12.587 26.4256 4.00837
H 11.4569 25.9843 5.30441
Si 12.5878 23.5202 1.5057
C 12.4201 22.9569 19.7278
H 12.3361 23.8009 19.0314
H 13.291 22.3568 19.4279
H 11.5168 22.3339 19.6266
C 12.8194 22.1 2.71399
H 11.8839 21.5184 2.79136
H 13.6161 21.4275 2.36458
H 13.0787 22.4341 3.72638
Si 17.4322 33.7751 0.489831
O 17.8238 32.3009 1.17391
C 18.3553 33.9536 18.8741
H 19.2013 33.2517 18.8373
H 17.7147 33.7425 18.0112
H 18.7174 34.9876 18.7637
C 17.8469 35.1121 1.74643
H 17.8793 36.0994 1.25786
H 17.1124 35.1517 2.55971
H 18.8338 34.9079 2.19374
Si 16.8752 31.3001 2.11509
O 16.0128 30.3345 1.09406
C 18.0546 30.2858 3.14466
H 17.5123 29.6888 3.89274
H 18.6414 29.6017 2.51777
H 18.753 30.9445 3.67991
C 15.7451 32.3376 3.18973
H 14.9391 32.8159 2.61722
H 15.2764 31.7349 3.98205
H 16.316 33.131 3.69122
Si 14.5761 29.515 0.921333
O 14.7803 28.3386 19.7852
C 14.1178 28.7282 2.55296
H 14.0249 29.479 3.35257
H 13.1585 28.1976 2.48503
H 14.8911 28.0043 2.84673
C 13.2812 30.6796 0.2451
H 13.6271 31.1243 19.3011
H 12.339 30.15 0.0450227
H 13.0557 31.4988 0.943256
Si 15.8062 27.1041 19.3859
O 16.3579 26.4688 0.809078
C 14.8655 25.7932 18.4344
H 14.5362 24.9941 19.1146
H 13.9721 26.2217 17.9535
H 15.4987 25.3403 17.659
C 17.2234 27.8235 18.3863
H 18.0088 28.2243 19.0452
H 17.6711 27.0673 17.7247
H 16.869 28.6449 17.7459
Si 17.1799 25.242 1.54436
O 17.0518 23.8891 0.614607
C 16.3853 24.9386 3.2051
H 15.3336 24.6505 3.07151
H 16.8938 24.132 3.75165
H 16.4157 25.8423 3.82844
C 18.9573 25.8022 1.66153
H 19.0441 26.6798 2.31592
H 19.6187 25.017 2.05033
H 19.3174 26.0945 0.665921
Si 17.3692 22.3098 0.207238
C 16.0034 21.2265 0.908712
H 15.0151 21.5595 0.568734
H 16.1455 20.1895 0.571227
H 16.0016 21.2269 2.00797
C 19.0302 21.7946 0.942249
H 18.981 21.7357 2.03929
H 19.3125 20.8002 0.566724
H 19.8285 22.5006 0.677811
Si 3.51591 33.3813 9.38147
O 4.13897 32.8514 7.94325
C 4.82576 34.3873 10.2856
H 5.73809 33.8058 10.471
H 5.09147 35.2701 9.68038
H 4.43976 34.7429 11.2524
C 2.01303 34.4111 8.94035
H 2.33382 35.3087 8.3829
H 1.30396 33.8513 8.31635
H 1.49061 34.7444 9.84974
Si 5.18091 31.9967 6.98797
O 5.29256 30.4543 7.58206
C 6.86689 32.8149 7.01378
H 7.30814 32.7647 8.01976
H 7.55162 32.3141 6.3117
H 6.8053 33.874 6.72878
C 4.45373 31.9413 5.27193
H 3.97828 32.8955 5.01253
H 5.22786 31.7347 4.51739
H 3.69756 31.148 5.20203
Si 6.43138 29.2887 7.89142
O 5.65017 27.8632 8.09346
C 7.30815 29.6945 9.49019
H 6.57417 29.9941 10.2515
H 7.85252 28.8208 9.87394
H 8.02219 30.5208 9.35942
C 7.59896 29.1234 6.44125
H 8.07225 28.1328 6.43091
H 7.05925 29.2483 5.49229
H 8.39579 29.8783 6.48021
Si 4.43878 26.7596 8.07884
O 5.01079 25.4102 7.31548
C 4.03517 26.3563 9.85675
H 3.16023 25.6982 9.93741
H 4.89247 25.8525 10.3254
H 3.82728 27.2703 10.4305
C 2.98191 27.4347 7.12508
H 3.28871 27.6786 6.09806
H 2.17023 26.6935 7.06598
H 2.57902 28.3459 7.58875
Si 4.75135 23.807 7.01719
O 6.17243 22.9898 7.2979
C 3.41746 23.1501 8.15214
H 3.21588 22.0886 7.95718
H 3.71736 23.2522 9.20376
H 2.47787 23.7033 8.01348
C 4.35048 23.5838 5.21318
H 5.20373 23.9118 4.60602
H 4.13709 22.5336 4.97993
H 3.47534 24.1886 4.93311
Si 6.95968 22.343 8.60963
C 6.30179 20.6092 8.91547
H 6.96062 39.1665 9.62532
H 5.28975 20.618 9.34052
H 6.26582 39.1151 7.97447
C 8.82696 22.295 8.28275
H 9.16948 21.317 8.65693
H 9.34055 23.0309 8.91694
Si 12.5973 33.6811 5.51538
O 12.1978 32.8852 6.90806
C 14.3458 34.3498 5.68395
H 15.0649 33.5711 5.96747
H 14.6738 34.7931 4.73296
H 14.3618 35.1383 6.45424
C 11.3785 35.1089 5.36416
H 10.338 34.7619 5.36682
H 11.5175 35.7909 6.21965
H 11.5582 35.6857 4.44543
Si 12.0173 32.0807 8.33293
O 12.2437 30.4716 8.0828
C 13.3255 32.5938 9.55082
H 13.3321 33.6796 9.71349
H 13.1595 32.0955 10.517
H 14.3181 32.2932 9.18416
C 10.2922 32.3894 8.97593
H 9.54231 32.054 8.24529
H 10.123 31.8471 9.91841
H 10.1279 33.4602 9.15581
Si 11.9672 29.0927 7.22975
O 13.3663 28.222 7.24128
C 10.6043 28.1541 8.08974
H 10.3156 27.2513 7.53353
H 10.9169 27.8563 9.09841
H 9.71162 28.7847 8.19261
C 11.5345 29.4937 5.45674
H 12.3454 30.0428 4.96038
H 11.3345 28.5807 4.87751
H 10.6332 30.1229 5.41814
Si 14.2774 26.9706 7.81165
O 13.3657 25.5907 7.80207
C 14.8656 27.3371 9.5495
H 14.029 27.3019 10.265
H 15.6221 26.6079 9.87609
H 15.3097 28.3399 9.60942
C 15.6999 26.8464 6.59347
H 15.2783 26.5407 5.62192
H 16.0357 27.8822 6.42959
Si 12.6589 24.3528 8.62942
O 11.7847 23.4664 7.5432
C 11.4657 24.9924 9.90619
H 10.7071 25.6421 9.45493
H 10.9453 24.1542 10.3866
H 11.984 25.5591 10.6947
C 13.95 23.2541 9.40628
H 13.4681 22.4535 9.98419
H 14.5802 22.792 8.63471
H 14.603 23.8201 10.0892
Si 11.0349 22.4602 6.48923
C 9.17648 22.5077 6.79842
H 8.70402 21.7358 6.16936
H 8.76601 23.4621 6.44506
C 11.7371 20.733 6.64555
H 11.1732 39.1127 6.01126
H 12.7917 20.7003 6.3427
H 11.6755 20.3901 7.69187
Si 21.5781 32.2565 5.68041
O 21.4722 32.3575 7.32685
C 21.7527 30.4736 5.15626
H 0.697664 30.0568 5.54071
H 20.9258 29.8643 5.54148
H 21.7717 30.3963 4.06038
C 0.986677 33.3563 5.10871
H 0.686012 34.3897 4.90898
H 1.77442 33.3738 5.87792
H 1.39926 32.9383 4.17937
Si 20.3894 31.9526 8.52887
O 19.6597 30.5366 8.07235
C 21.4088 31.6957 10.0698
H 20.8274 31.8935 10.9823
H 21.7688 30.6592 10.1076
H 0.279585 32.3639 10.0653
C 19.1286 33.3209 8.6756
H 18.5577 33.4103 7.73999
H 18.416 33.1321 9.49226
H 19.6202 34.283 8.87279
Si 18.3172 29.633 8.45353
O 18.4902 28.1829 7.7064
C 18.2315 29.3635 10.2946
H 18.0428 30.3135 10.8213
H 17.4177 28.6729 10.556
H 19.1703 28.9434 10.6792
C 16.8109 30.5253 7.79229
H 16.9455 30.7947 6.73476
H 15.9017 29.9133 7.87529
H 16.6492 31.4543 8.36138
Si 18.575 26.7375 6.94027
O 19.5893 25.7489 7.77249
C 16.8801 25.9246 6.97733
H 16.8985 25.0358 6.32572
H 16.7577 25.5122 7.99185
C 19.2058 26.9937 5.2102
H 20.2506 27.3334 5.24226
H 19.1599 26.0653 4.6267
H 18.6153 27.7576 4.68592
Si 20.8675 24.8395 8.26165
O 20.294 23.576 9.16714
C 21.7416 24.0605 6.81205
H 0.348459 23.2107 7.15153
H 21.0161 23.69 6.0746
H 0.401744 24.7814 6.30751
C 22.0054 25.8913 9.30082
H 21.4666 26.3192 10.1571
H 0.841492 25.2931 9.69167
H 0.426572 26.7179 8.71164
Si 19.6516 23.2245 10.6478
C 17.798 22.9945 10.4996
H 17.5925 22.2362 9.72826
H 17.3862 22.6425 11.4562
H 17.2726 23.9163 10.2212
C 20.4972 21.6845 11.3027
H 21.5089 21.8627 11.6857
H 19.8964 21.2744 12.1283
H 20.5623 20.9395 10.4924
Si 1.46619 31.9489 13.4893
O 2.81833 31.8929 14.4798
C 1.30103 33.5691 12.6104
H 1.33073 34.3991 13.3278
H 2.10393 33.7207 11.8754
H 0.337988 33.6122 12.081
C -0.0457686 31.2337 14.2759
H 21.17 31.0683 13.5211
H 0.177816 30.2703 14.7545
H 21.5438 31.9098 15.0368
Si 3.6415 30.8517 13.4692
O 3.97872 29.4635 14.2189
C 5.03687 31.6771 12.576
H 5.94359 31.6792 13.1968
H 5.2738 31.1827 11.6238
H 4.75699 32.7176 12.3639
C 2.13439 30.4461 12.2323
H 2.87208 30.0509 11.4967
H 1.561 29.5753 12.5742
H 1.56038 31.0075 11.4629
Si 4.9704 28.1796 14.6191
O 3.98573 26.895 14.8803
C 5.88567 28.6578 16.1651
H 5.18387 28.85 16.9914
H 6.57084 27.8549 16.4742
H 6.48364 29.5625 15.9893
C 6.07207 27.7952 13.1636
H 6.71839 28.6555 12.9346
H 6.72766 26.9392 13.3714
H 5.46551 27.5707 12.2734
Si 3.21025 25.6752 15.6716
O 2.92811 24.4692 14.5862
C 1.59483 26.3233 16.3461
H 0.960423 26.7104 15.5366
H 1.03487 25.5301 16.8618
H 1.76827 27.1386 17.0636
C 4.30998 24.99 17.0167
H 5.34667 24.8976 16.6628
H 4.30669 25.6526 17.895
H 3.96984 23.9959 17.3411
Si 2.06122 23.7705 13.3731
O 1.45102 22.3243 13.9387
C 0.613697 24.8367 12.8769
H 0.933685 25.835 12.5468
H 22.0541 24.3761 12.0514
H 21.9209 24.9586 13.7209
C 3.19941 23.381 11.9579
H 3.92261 22.6052 12.2365
H 2.62822 23.0194 11.0935
H 3.76266 24.2742 11.6558
Si 1.3752 21.5969 15.4285
C 0.0950803 20.2339 15.3285
H 0.409093 38.5809 14.5668
H 22.0058 38.7996 16.2957
H 21.1076 20.6206 15.0454
C 3.07767 20.9763 15.8875
H 3.78728 21.7989 16.0323
H 3.04206 20.3822 16.8103
H 3.45657 20.3308 15.0783
Si 7.06763 34.1525 15.7887
O 7.39826 32.7351 16.6371
C 7.77484 35.6612 16.6225
H 8.02362 35.447 17.6724
H 8.67874 36.0374 16.1256
H 7.02381 36.4627 16.6073
C 5.34967 34.2887 15.1233
H 5.36098 34.404 14.0291
H 4.74209 33.4054 15.3664
H 4.86569 35.1823 15.5423
Si 8.76923 32.4227 15.7308
O 8.81248 30.8758 15.1938
C 10.2848 33.0913 16.5657
H 10.4874 32.5819 17.5157
H 11.1839 33.0266 15.9353
H 10.1108 34.1473 16.8098
C 8.28966 33.5502 14.1887
H 8.33138 34.642 13.988
H 9.2747 33.3435 13.7057
H 7.5508 33.0721 13.5331
Si 10.0294 29.7064 15.0875
O 9.31161 28.2253 14.9471
C 11.0026 29.7931 16.68
H 11.6936 30.6444 16.683
H 10.3332 29.8969 17.5438
H 11.6024 28.8886 16.8386
C 11.0173 30.0675 13.5448
H 11.7676 29.2863 13.355
H 10.3479 30.1129 12.6736
H 11.5506 31.0266 13.6208
Si 9.63136 26.5998 15.124
O 9.07736 25.8426 13.7612
C 8.70085 25.954 16.6141
H 7.75448 25.4907 16.3037
H 9.28854 25.1937 17.1466
H 8.47799 26.7665 17.3183
C 11.4732 26.2732 15.2572
H 11.6586 25.1957 15.3763
H 12.0095 26.6006 14.3551
H 11.9211 26.7691 16.1301
Si 8.94966 24.3289 13.0961
O 8.02688 23.3977 14.1062
C 8.09946 24.5746 11.4605
H 7.75488 23.6231 11.0303
H 7.22603 25.2295 11.585
H 8.7697 25.0527 10.7339
C 10.6132 23.4806 12.9927
H 10.8922 23.0655 13.9712
H 10.5718 22.646 12.2792
H 11.4073 24.1666 12.6699
Si 6.5489 22.6596 14.2761
C 6.31932 21.3955 12.9002
H 7.17065 20.6936 12.8935
H 5.3996 20.8152 13.0708
H 6.25102 21.8531 11.9047
C 6.58593 21.8643 15.9711
H 6.40823 22.5776 16.7854
H 5.81769 21.0805 16.0337
H 7.57614 21.4076 16.1299
Si 17.575 32.8834 12.4241
O 16.8643 32.5907 13.8978
C 19.1566 33.8748 12.6718
H 18.9275 34.8291 13.1729
H 19.8974 33.3397 13.2788
H 19.6138 34.0982 11.6971
C 16.3209 33.8384 11.412
H 15.5284 33.2094 10.9922
H 15.8426 34.5974 12.0521
H 16.8296 34.3429 10.5778
Si 17.0141 31.7789 15.3332
O 16.7274 30.1731 15.0813
C 18.7435 31.911 15.995
H 18.8144 31.447 16.9871
H 19.4483 31.3883 15.3385
H 19.0569 32.9593 16.0785
C 15.7484 32.4786 16.5145
H 14.7262 32.3243 16.1387
H 15.8276 31.9888 17.4963
H 15.8931 33.5583 16.658
Si 15.6296 29.112 14.4537
O 16.3641 27.6483 14.3403
C 14.2124 28.9415 15.6523
H 13.4741 28.2149 15.2889
H 14.5782 28.5951 16.6282
H 13.6985 29.9001 15.8018
C 15.0894 29.7223 12.7629
H 15.893 29.5823 12.026
H 14.2022 29.1811 12.4031
H 14.8506 30.7941 12.7945
Si 16.8094 26.1552 13.8266
O 17.2041 25.2563 15.1663
C 15.3786 25.3341 12.9432
H 15.0436 25.9484 12.0941
H 15.6734 24.352 12.5454
H 14.5221 25.1915 13.6163
C 18.2881 26.3249 12.6958
H 19.1788 26.6829 13.2317
H 18.5384 25.363 12.2215
H 18.073 27.038 11.8872
Si 18.2607 24.0919 15.6946
O 17.567 23.3863 17.0204
C 18.5672 22.8254 14.346
H 19.3724 22.136 14.6398
H 17.6758 22.2265 14.1125
H 18.8951 23.318 13.4203
C 19.8717 24.8904 16.2025
H 19.7145 25.6324 16.9955
H 20.5738 24.1325 16.5787
H 20.3456 25.4013 15.3524
Si 17.4203 21.9667 17.884
C 15.8275 21.1294 17.3499
H 15.8395 20.8749 16.2815
H 15.6836 20.2017 17.9202
H 14.9651 21.7839 17.5333
C 18.8907 20.8255 17.5396
H 19.8381 21.2668 17.8825
H 18.7534 38.9587 18.085
H 18.9927 20.5779 16.474
