LAMMPS (10 Dec 2025)
KOKKOS mode with Kokkos version 4.7.1 is enabled
  using double precision
  using view layout = legacy
  will use up to 1 GPU(s) per node
WARNING: When using a single thread, the Kokkos Serial backend (i.e. Makefile.kokkos_mpi_only) gives better performance than the OpenMP backend (src/KOKKOS/kokkos.cpp:266)
  using 1 OpenMP thread(s) per MPI task
package kokkos
package kokkos neigh half newton on
# =============================================================================
# LAMMPS input script for PDMS melt-quench densification
# =============================================================================
# OPTIMIZED VERSION v2 - Target: <5% density error (~1.05-1.15 g/cm³)
#
# Key improvements:
# 1. Increased pdamp (10 ps) for smoother barostat control
# 2. Lower temperature (350K) during high-pressure hold to lock structure
# 3. Three-stage gradual pressure release (5→3→1→0 GPa) with cooling
# 4. Extended final equilibration with NVT relaxation
#
# Strategy: 5 GPa compression + gradual release with simultaneous cooling
# Expected runtime: ~60 minutes
# =============================================================================

log             melt_quench_log.lammps
