
units           metal
neighbor        1.0 bin
dimension       3
boundary        p p p
atom_style      atomic
atom_modify     map yes
newton          on

read_data       silicone_slab.lmpdat
Reading data file ...
  orthogonal box = (0 0 0) to (22 19.079963 20)
  1 by 1 by 1 MPI processor grid
  reading atoms ...
  523 atoms
  read_data CPU = 0.053 seconds

pair_style      mliap unified mace_pretained_models/mace-mpa-0-medium.model-mliap_lammps.pt 0
pair_coeff      * * C H O Si

thermo          100
thermo_style    custom step cpu spcpu temp press pe ke etotal vol density fmax fnorm
thermo_modify   flush yes

# Optimized damping parameters - increased pdamp for stability
variable        tdamp equal 0.5
variable        pdamp equal 10.0

# -----------------------------------------------------------------------------
# Master trajectory dump - captures entire simulation (minimization + MD)
# -----------------------------------------------------------------------------
dump            full_traj all xyz 500 full_trajectory.xyz
dump_modify     full_traj element C H O Si

dump            full_lmp all custom 500 full_trajectory.lammpstrj id type x y z
dump_modify     full_lmp sort id

# -----------------------------------------------------------------------------
# Step 1: Quick Minimization
# -----------------------------------------------------------------------------
print "Step 1: Quick Minimization"
Step 1: Quick Minimization
dump            min_xyz all xyz 100 minimize_traj.xyz
dump_modify     min_xyz element C H O Si

dump            min_lmp all custom 100 minimize_traj.lammpstrj id type x y z
dump_modify     min_lmp sort id

minimize        0.0 1.0e-8 5000 50000

CITE-CITE-CITE-CITE-CITE-CITE-CITE-CITE-CITE-CITE-CITE-CITE-CITE

Your simulation uses code contributions which should be cited:

- KOKKOS package: https://doi.org/10.1145/3731599.3767498

@inproceedings{Johansson25,
 author = {A. Johansson and E. Weinberg and C. Trott and M. McCarthy and S. Moore},
 title = {{LAMMPS-KOKKOS}: {P}erformance Portable Molecular Dynamics Across Exascale Architectures},
 year = 2025,
 booktitle = {Proceedings of the SC '25 Workshops of the International Conference for High Performance Computing,
  Networking, Storage and Analysis},
 pages = {1217–1232},
}

CITE-CITE-CITE-CITE-CITE-CITE-CITE-CITE-CITE-CITE-CITE-CITE-CITE

Neighbor list info ...
  update: every = 1 steps, delay = 0 steps, check = yes
  max neighbors/atom: 2000, page size: 100000
  master list distance cutoff = 7
  ghost atom cutoff = 7
  binsize = 7, bins = 4 3 3
  1 neighbor lists, perpetual/occasional/extra = 1 0 0
  (1) pair mliap/kk, perpetual
      attributes: full, newton on, kokkos_device
      pair build: full/bin/kk/device
      stencil: full/bin/3d
      bin: kk/device
WARNING: Fix MINIMIZE/kk not compatible with sending data in Kokkos communication (src/KOKKOS/comm_kokkos.cpp:744)
WARNING: Fix with atom-based arrays not compatible with sending data in Kokkos communication, switching to legacy exchange/border communication (src/KOKKOS/comm_kokkos.cpp:751)
WARNING: Fix MINIMIZE/kk not compatible with Kokkos sorting on device (src/KOKKOS/atom_kokkos.cpp:217)
WARNING: Fix with atom-based arrays not compatible with Kokkos sorting on device, switching to legacy host sorting (src/KOKKOS/atom_kokkos.cpp:223)
Per MPI rank memory allocation (min/avg/max) = 118.4 | 118.4 | 118.4 Mbytes
   Step          CPU           S/CPU           Temp          Press          PotEng         KinEng         TotEng         Volume        Density          Fmax          Fnorm     
         0   0              0              0              148690.06     -2363.9501      0             -2363.9501      8395.1837      0.76196043     11.783353      75.822692    
        72   19.686838      3.6572646      0              5395.3862     -2806.8154      0             -2806.8154      8395.1837      0.76196043     4.3836432      8.2178081    
Loop time of 19.6967 on 1 procs for 72 steps with 523 atoms

94.9% CPU use with 1 MPI tasks x 1 OpenMP threads

Minimization stats:
  Stopping criterion = linesearch alpha is zero
  Energy initial, next-to-last, final = 
     -2363.95013833793  -2807.63449121958    -2806.815355792
  Force two-norm initial, final = 75.822692 8.2178081
  Force max component initial, final = 11.783353 4.3836432
  Final line search alpha, max atom move = 1.7161553e-10 7.5230127e-10
  Iterations, force evaluations = 72 173

MPI task timing breakdown:
Section |  min time  |  avg time  |  max time  |%varavg| %total
---------------------------------------------------------------
Pair    | 19.492     | 19.492     | 19.492     |   0.0 | 98.96
Neigh   | 0.015685   | 0.015685   | 0.015685   |   0.0 |  0.08
Comm    | 0.043752   | 0.043752   | 0.043752   |   0.0 |  0.22
Output  | 0          | 0          | 0          |   0.0 |  0.00
Modify  | 0          | 0          | 0          |   0.0 |  0.00
Other   |            | 0.1453     |            |       |  0.74

Nlocal:            523 ave         523 max         523 min
Histogram: 1 0 0 0 0 0 0 0 0 0
Nghost:           1659 ave        1659 max        1659 min
Histogram: 1 0 0 0 0 0 0 0 0 0
Neighs:              0 ave           0 max           0 min
Histogram: 1 0 0 0 0 0 0 0 0 0
FullNghs:        53710 ave       53710 max       53710 min
Histogram: 1 0 0 0 0 0 0 0 0 0

Total # of neighbors = 53710
Ave neighs/atom = 102.69598
Neighbor list builds = 10
Dangerous builds = 0

undump          min_xyz
undump          min_lmp

variable        init_density equal density
print "Initial density: ${init_density} g/cm^3"
Initial density: 0.761960427262085 g/cm^3

# -----------------------------------------------------------------------------
# Enable trajectory dumps for MD runs
# -----------------------------------------------------------------------------
dump            xyz_traj all xyz 100 trajectory.xyz
dump_modify     xyz_traj element C H O Si

dump            lmp_traj all custom 100 trajectory.lammpstrj id type x y z
dump_modify     lmp_traj sort id

dump            dcd_traj all dcd 100 trajectory.dcd

velocity        all create 300.0 12345 rot yes dist gaussian
timestep        0.001

# -----------------------------------------------------------------------------
# Step 2: Heating 300K -> 500K
# -----------------------------------------------------------------------------
print "Step 2: Heating 300K -> 500K (600 steps)"
Step 2: Heating 300K -> 500K (600 steps)

fix             heat all npt temp 300.0 500.0 ${tdamp} iso 0.0 0.0 ${pdamp}
fix             heat all npt temp 300.0 500.0 0.5 iso 0.0 0.0 ${pdamp}
fix             heat all npt temp 300.0 500.0 0.5 iso 0.0 0.0 10
run             600
Per MPI rank memory allocation (min/avg/max) = 126.2 | 126.2 | 126.2 Mbytes
   Step          CPU           S/CPU           Temp          Press          PotEng         KinEng         TotEng         Volume        Density          Fmax          Fnorm     
        72   0              0              300            7906.0168     -2806.9989      20.242139     -2786.7567      8395.1837      0.76196043     4.8539433      8.6848388    
       100   2.7620123      10.137519      211.3916       2146.9515     -2799.1919      14.263394     -2784.9285      8395.4381      0.76193734     2.5106093      18.853045    
       200   12.488464      10.281237      359.06146      2981.2554     -2807.093       24.227239     -2782.8657      8400.0606      0.76151805     3.6690486      23.049269    
       300   22.053153      10.455126      460.35535      5543.9921     -2810.0471      31.061923     -2778.9851      8410.3967      0.76058217     3.2480553      24.286973    
       400   31.510971      10.573262      535.45229      486.33765     -2806.4994      36.128999     -2770.3704      8426.1961      0.75915605     5.6327345      28.47418     
       500   40.983594      10.556739      557.89974      5217.1308     -2799.3077      37.643613     -2761.6641      8445.4495      0.75742538     5.2948282      30.933151    
       600   50.512732      10.494129      586.83579      4096.9069     -2796.6669      39.596038     -2757.0709      8470.2044      0.75521174     4.4199001      31.767036    
       672   57.295753      10.61474       583.73316      6290.6361     -2793.4322      39.386692     -2754.0455      8491.4883      0.7533188      5.2919174      33.380251    
Loop time of 57.2971 on 1 procs for 600 steps with 523 atoms

Performance: 0.905 ns/day, 26.526 hours/ns, 10.472 timesteps/s, 5.477 katom-step/s
95.7% CPU use with 1 MPI tasks x 1 OpenMP threads

MPI task timing breakdown:
Section |  min time  |  avg time  |  max time  |%varavg| %total
---------------------------------------------------------------
Pair    | 55.157     | 55.157     | 55.157     |   0.0 | 96.26
Neigh   | 0.13721    | 0.13721    | 0.13721    |   0.0 |  0.24
Comm    | 0.24995    | 0.24995    | 0.24995    |   0.0 |  0.44
Output  | 0.095109   | 0.095109   | 0.095109   |   0.0 |  0.17
Modify  | 1.4006     | 1.4006     | 1.4006     |   0.0 |  2.44
Other   |            | 0.2573     |            |       |  0.45

Nlocal:            523 ave         523 max         523 min
Histogram: 1 0 0 0 0 0 0 0 0 0
Nghost:           1869 ave        1869 max        1869 min
Histogram: 1 0 0 0 0 0 0 0 0 0
Neighs:              0 ave           0 max           0 min
Histogram: 1 0 0 0 0 0 0 0 0 0
FullNghs:        49674 ave       49674 max       49674 min
Histogram: 1 0 0 0 0 0 0 0 0 0

Total # of neighbors = 49674
Ave neighs/atom = 94.978967
Neighbor list builds = 85
Dangerous builds = 0
unfix           heat

# -----------------------------------------------------------------------------
# Step 3: Compression 0 -> 5 GPa
# -----------------------------------------------------------------------------
print "Step 3: Compression 0 -> 5 GPa (2000 steps)"
Step 3: Compression 0 -> 5 GPa (2000 steps)

fix             compress all npt temp 500.0 500.0 ${tdamp} iso 0.0 50000.0 ${pdamp}
fix             compress all npt temp 500.0 500.0 0.5 iso 0.0 50000.0 ${pdamp}
fix             compress all npt temp 500.0 500.0 0.5 iso 0.0 50000.0 10
run             2000
Per MPI rank memory allocation (min/avg/max) = 128 | 128 | 128 Mbytes
   Step          CPU           S/CPU           Temp          Press          PotEng         KinEng         TotEng         Volume        Density          Fmax          Fnorm     
       672   0              0              583.73316      6118.9415     -2791.7101      39.386692     -2752.3235      8491.4883      0.7533188      5.012027       33.11051     
       700   2.663484       10.512526      628.23624      3145.3684     -2791.885       42.389484     -2749.4955      8491.5681      0.75331172     7.8087159      35.518915    
       800   12.155334      10.535354      659.35531      4844.075      -2791.9529      44.489206     -2747.4637      8493.1252      0.75317361     7.6496861      40.590163    
       900   21.539158      10.656636      681.87958      413.81206     -2790.7837      46.009003     -2744.7747      8495.372       0.75297442     6.8705233      38.440796    
      1000   30.937892      10.63973       704.39276     -229.70369     -2784.8392      47.528053     -2737.3112      8495.6276      0.75295177     8.222879       40.054291    
      1100   40.415053      10.551677      753.85975      5227.2975     -2780.7315      50.865779     -2729.8658      8492.1514      0.75325998     10.09336       44.549922    
      1200   49.826487      10.625361      799.7307      -3130.6428     -2779.8252      53.960866     -2725.8643      8484.1638      0.75396915     10.250316      46.92437     
      1300   59.034469      10.860151      763.00283     -5021.6898     -2771.464       51.482697     -2719.9813      8468.7345      0.75534281     13.133789      47.336799    
      1400   68.387606      10.691612      890.913        1666.5292     -2773.7892      60.113282     -2713.6759      8444.4965      0.75751086     8.8687129      47.620724    
      1500   77.829196      10.591434      964.19814      3882.4176     -2774.0056      65.058109     -2708.9475      8410.9599      0.76053124     9.1676381      48.173482    
      1600   87.289744      10.570214      943.35494      1766.8094     -2760.7633      63.651739     -2697.1116      8366.9805      0.76452882     12.30938       53.742508    
      1700   96.590837      10.751424      1026.0608      5296.8105     -2750.8138      69.232219     -2681.5816      8311.5836      0.76962443     9.5576006      48.044877    
      1800   105.94923      10.685595      1068.6221      925.41183     -2749.0752      72.103988     -2676.9712      8244.8949      0.77584952     12.530715      55.570704    
      1900   115.3939       10.587981      1112.9649      2823.1546     -2747.664       75.095969     -2672.568       8166.9333      0.78325579     11.912116      56.066447    
      2000   124.9106       10.507842      1151.7424      2509.5864     -2742.1989      77.712431     -2664.4865      8078.2496      0.79185444     9.8884894      55.566119    
      2100   134.56462      10.358386      1217.0468      7678.5438     -2737.5141      82.118764     -2655.3953      7981.1586      0.80148736     9.8207774      52.319352    
      2200   144.14309      10.440081      1221.6676      2428.8976     -2734.5276      82.43055      -2652.0971      7877.6283      0.81202076     13.528697      52.936674    
      2300   153.6889       10.475794      1196.5955      8968.7623     -2728.2605      80.738842     -2647.5217      7770.3624      0.8232303      21.622505      65.425373    
      2400   163.2968       10.408098      1370.3283      8225.8241     -2725.0744      92.461249     -2632.6132      7662.2302      0.83484803     7.749477       51.102761    
      2500   173.0783       10.223391      1317.2662      2852.9111     -2714.6962      88.880951     -2625.8153      7556.48        0.84653142     14.850903      61.485174    
      2600   182.78433      10.302867      1359.6966      8105.1072     -2709.5598      91.74389      -2617.8159      7453.405       0.85823831     15.218161      65.663258    
      2672   189.88883      10.134434      1307.3686      1923.8074     -2700.6044      88.213123     -2612.3913      7380.9151      0.8666673      16.031853      68.740339    
Loop time of 189.89 on 1 procs for 2000 steps with 523 atoms

Performance: 0.910 ns/day, 26.374 hours/ns, 10.532 timesteps/s, 5.508 katom-step/s
95.8% CPU use with 1 MPI tasks x 1 OpenMP threads

MPI task timing breakdown:
Section |  min time  |  avg time  |  max time  |%varavg| %total
---------------------------------------------------------------
Pair    | 182.23     | 182.23     | 182.23     |   0.0 | 95.97
Neigh   | 0.90014    | 0.90014    | 0.90014    |   0.0 |  0.47
Comm    | 1.2349     | 1.2349     | 1.2349     |   0.0 |  0.65
Output  | 0.25375    | 0.25375    | 0.25375    |   0.0 |  0.13
Modify  | 4.3537     | 4.3537     | 4.3537     |   0.0 |  2.29
Other   |            | 0.9191     |            |       |  0.48

Nlocal:            523 ave         523 max         523 min
Histogram: 1 0 0 0 0 0 0 0 0 0
Nghost:           2033 ave        2033 max        2033 min
Histogram: 1 0 0 0 0 0 0 0 0 0
Neighs:              0 ave           0 max           0 min
Histogram: 1 0 0 0 0 0 0 0 0 0
FullNghs:        53886 ave       53886 max       53886 min
Histogram: 1 0 0 0 0 0 0 0 0 0

Total # of neighbors = 53886
Ave neighs/atom = 103.0325
Neighbor list builds = 584
Dangerous builds = 0
unfix           compress

# -----------------------------------------------------------------------------
# Step 4: Extended hold at 5 GPa with LOW temperature to lock structure
# -----------------------------------------------------------------------------
print "Step 4a: Hold at 5 GPa - high temp (2000 steps)"
Step 4a: Hold at 5 GPa - high temp (2000 steps)
fix             hold1 all npt temp 500.0 500.0 ${tdamp} iso 50000.0 50000.0 ${pdamp}
fix             hold1 all npt temp 500.0 500.0 0.5 iso 50000.0 50000.0 ${pdamp}
fix             hold1 all npt temp 500.0 500.0 0.5 iso 50000.0 50000.0 10
run             2000
Per MPI rank memory allocation (min/avg/max) = 128.2 | 128.2 | 128.2 Mbytes
   Step          CPU           S/CPU           Temp          Press          PotEng         KinEng         TotEng         Volume        Density          Fmax          Fnorm     
      2672   0              0              1307.3686      1792.2259     -2705.4411      88.213123     -2617.228       7380.9151      0.8666673      15.940418      69.821609    
      2700   2.7242553      10.278016      1286.9985      13598.901     -2698.1504      86.838676     -2611.3117      7380.0865      0.86676461     17.677447      70.725294    
      2800   12.584817      10.14141       1405.635       6218.0584     -2705.6061      94.843531     -2610.7625      7365.1975      0.8685168      11.701977      66.129078    
      2900   22.389862      10.198831      1447.3931      2424.0891     -2699.7696      97.661107     -2602.1085      7330.9548      0.87257362     12.730589      70.21888     
      3000   32.546598      9.845683       1481.624       5866.6018     -2695.5049      99.970798     -2595.5341      7277.8134      0.87894502     9.4951763      61.951956    
      3100   42.494654      10.052215      1566.3748      8303.6316     -2698.714       105.68925     -2593.0248      7207.6079      0.88750635     9.8030083      62.841899    
      3200   52.408976      10.086419      1638.6388      12364.113     -2696.8866      110.56518     -2586.3214      7123.3839      0.89799987     11.561616      64.004768    
      3300   62.497605      9.9121502      1644.2417      11026.838     -2684.5767      110.94323     -2573.6335      7028.2085      0.91016051     12.468156      67.422578    
      3400   72.576823      9.9214043      1610.1042      9572.9531     -2680.2323      108.63984     -2571.5924      6926.6133      0.92351016     12.541577      64.808857    
      3500   82.816578      9.7658585      1590.4524      8081.288      -2680.0469      107.31386     -2572.7331      6824.0369      0.93739202     11.504146      68.457351    
      3600   93.083487      9.7400283      1718.264       12323.812     -2692.0701      115.9378      -2576.1323      6724.3947      0.95128232     8.9900962      60.658377    
      3700   103.38216      9.7099793      1558.7728      11333.996     -2683.2104      105.17632     -2578.0341      6630.4714      0.96475761     9.9633632      61.778583    
      3800   113.81474      9.5853711      1711.6625      18582.057     -2682.1164      115.49237     -2566.6241      6543.1573      0.97763166     9.3214875      63.680138    
      3900   124.32396      9.5154539      1633.8563      13595.025     -2669.8394      110.24249     -2559.5969      6462.221       0.98987604     12.049759      67.665796    
      4000   134.85903      9.4921054      1606.3381      22539.907     -2672.2775      108.38573     -2563.8918      6386.841       1.001559       13.337828      64.956456    
      4100   145.53819      9.3640295      1665.4668      23089.916     -2666.3315      112.37537     -2553.9561      6315.3619      1.0128949      9.0958109      64.084997    
      4200   156.26121      9.3257272      1674.3199      16725.771     -2669.4278      112.97272     -2556.455       6246.8865      1.0239978      10.733164      62.030928    
      4300   167.17024      9.1667201      1584.437       19341.962     -2667.3893      106.90798     -2560.4813      6180.5996      1.0349801      6.6859895      61.394934    
      4400   186.84572      5.0824676      1591.809       16452.772     -2662.3525      107.40539     -2554.9471      6116.0029      1.0459115      9.5252155      61.507431    
      4500   217.61981      3.2494868      1522.8959      18435.422     -2653.4096      102.75556     -2550.6541      6052.8702      1.0568206      14.988295      69.056964    
      4600   250.99611      2.9961385      1557.5706      30715.311     -2662.1884      105.0952      -2557.0932      5991.3034      1.0676805      12.823223      68.42743     
      4672   275.38098      2.9526499      1442.5367      23412.235     -2659.0028      97.333424     -2561.6694      5948.1441      1.0754275      10.782695      69.398641    
Loop time of 275.382 on 1 procs for 2000 steps with 523 atoms

Performance: 0.627 ns/day, 38.248 hours/ns, 7.263 timesteps/s, 3.798 katom-step/s
96.9% CPU use with 1 MPI tasks x 1 OpenMP threads

MPI task timing breakdown:
Section |  min time  |  avg time  |  max time  |%varavg| %total
---------------------------------------------------------------
Pair    | 266.63     | 266.63     | 266.63     |   0.0 | 96.82
Neigh   | 1.1565     | 1.1565     | 1.1565     |   0.0 |  0.42
Comm    | 1.6194     | 1.6194     | 1.6194     |   0.0 |  0.59
Output  | 0.24183    | 0.24183    | 0.24183    |   0.0 |  0.09
Modify  | 4.7023     | 4.7023     | 4.7023     |   0.0 |  1.71
Other   |            | 1.035      |            |       |  0.38

Nlocal:            523 ave         523 max         523 min
Histogram: 1 0 0 0 0 0 0 0 0 0
Nghost:           2356 ave        2356 max        2356 min
Histogram: 1 0 0 0 0 0 0 0 0 0
Neighs:              0 ave           0 max           0 min
Histogram: 1 0 0 0 0 0 0 0 0 0
FullNghs:        65684 ave       65684 max       65684 min
Histogram: 1 0 0 0 0 0 0 0 0 0

Total # of neighbors = 65684
Ave neighs/atom = 125.59082
Neighbor list builds = 682
Dangerous builds = 0
unfix           hold1

print "Step 4b: Cool to 350K under pressure (1500 steps)"
Step 4b: Cool to 350K under pressure (1500 steps)
fix             anneal1 all npt temp 500.0 350.0 ${tdamp} iso 50000.0 50000.0 ${pdamp}
fix             anneal1 all npt temp 500.0 350.0 0.5 iso 50000.0 50000.0 ${pdamp}
fix             anneal1 all npt temp 500.0 350.0 0.5 iso 50000.0 50000.0 10
run             1500
Per MPI rank memory allocation (min/avg/max) = 132.4 | 132.4 | 132.4 Mbytes
   Step          CPU           S/CPU           Temp          Press          PotEng         KinEng         TotEng         Volume        Density          Fmax          Fnorm     
      4672   0              0              1442.5367      23817.938     -2663.99        97.333424     -2566.6565      5948.1441      1.0754275      10.895054      68.758604    
      4700   14.284095      1.9602214      1586.1356      25177.226     -2665.324       107.02259     -2558.3014      5947.88        1.0754753      12.585997      70.217926    
      4800   25.315331      9.0651678      1559.3868      25815.105     -2655.7196      105.21775     -2550.5019      5941.7628      1.0765825      11.36733       68.668253    
      4900   36.307013      9.097788       1624.5973      24969.147     -2652.4021      109.61775     -2542.7843      5928.3942      1.0790102      18.215437      71.046444    
      5000   49.269444      7.7146022      1633.1485      30088.11      -2647.1678      110.19473     -2536.973       5907.9201      1.0827495      9.0837425      67.700494    
      5100   73.220365      4.1752047      1692.1467      30618.721     -2644.4135      114.17556     -2530.238       5880.8524      1.0877331      14.568913      72.686979    
      5200   101.76133      3.5037364      1709.4639      36587.741     -2645.751       115.34401     -2530.407       5847.7988      1.0938813      19.880246      77.516823    
      5300   140.32373      2.5931983      1738.9949      33553.069     -2639.6961      117.33659     -2522.3595      5809.9807      1.1010015      11.234489      67.084083    
      5400   175.46593      2.8455812      1762.2043      30509.42      -2640.7707      118.90261     -2521.868       5768.2314      1.1089704      9.8349792      65.724647    
      5500   206.1074       3.2635491      1702.379       28806.172     -2629.8102      114.86597     -2514.9442      5723.6574      1.1176067      12.96882       69.774298    
      5600   219.98618      7.2052619      1725.5552      42913.529     -2629.3302      116.42976     -2512.9004      5676.6706      1.1268573      10.116749      65.530742    
      5700   244.56098      4.0692101      1573.1758      37800.142     -2616.2765      106.14814     -2510.1283      5628.5497      1.1364913      12.857617      71.536223    
      5800   272.24586      3.6120798      1673.8222      42131.805     -2626.658       112.93914     -2513.7189      5579.7301      1.146435       17.366817      74.973921    
      5900   304.63064      3.0878664      1767.2703      32042.074     -2642.3492      119.24444     -2523.1047      5531.7379      1.1563812      8.869883       64.401704    
      6000   316.33282      8.5454478      1740.0821      43911.341     -2650.7056      117.40994     -2533.2956      5484.8541      1.1662658      11.690848      71.23552     
      6100   342.50017      3.8215555      1671.4659      36090.251     -2647.18        112.78015     -2534.3999      5440.5345      1.1757664      13.050492      65.159486    
      6172   363.74618      3.38887        1632.6378      41880.853     -2656.0863      110.16027     -2545.926       5410.3138      1.182334       8.8680522      62.241125    
Loop time of 363.747 on 1 procs for 1500 steps with 523 atoms

Performance: 0.356 ns/day, 67.361 hours/ns, 4.124 timesteps/s, 2.157 katom-step/s
92.4% CPU use with 1 MPI tasks x 1 OpenMP threads

MPI task timing breakdown:
Section |  min time  |  avg time  |  max time  |%varavg| %total
---------------------------------------------------------------
Pair    | 357.08     | 357.08     | 357.08     |   0.0 | 98.17
Neigh   | 0.86736    | 0.86736    | 0.86736    |   0.0 |  0.24
Comm    | 1.1993     | 1.1993     | 1.1993     |   0.0 |  0.33
Output  | 0.19705    | 0.19705    | 0.19705    |   0.0 |  0.05
Modify  | 3.6201     | 3.6201     | 3.6201     |   0.0 |  1.00
Other   |            | 0.7872     |            |       |  0.22

Nlocal:            523 ave         523 max         523 min
Histogram: 1 0 0 0 0 0 0 0 0 0
Nghost:           2543 ave        2543 max        2543 min
Histogram: 1 0 0 0 0 0 0 0 0 0
Neighs:              0 ave           0 max           0 min
Histogram: 1 0 0 0 0 0 0 0 0 0
FullNghs:        72128 ave       72128 max       72128 min
Histogram: 1 0 0 0 0 0 0 0 0 0

Total # of neighbors = 72128
Ave neighs/atom = 137.91205
Neighbor list builds = 485
Dangerous builds = 0
unfix           anneal1

print "Step 4c: Hold at 350K under 5 GPa - LOCK STRUCTURE (1500 steps)"
Step 4c: Hold at 350K under 5 GPa - LOCK STRUCTURE (1500 steps)
fix             anneal1b all npt temp 350.0 350.0 ${tdamp} iso 50000.0 50000.0 ${pdamp}
fix             anneal1b all npt temp 350.0 350.0 0.5 iso 50000.0 50000.0 ${pdamp}
fix             anneal1b all npt temp 350.0 350.0 0.5 iso 50000.0 50000.0 10
run             1500
Per MPI rank memory allocation (min/avg/max) = 142 | 142 | 142 Mbytes
   Step          CPU           S/CPU           Temp          Press          PotEng         KinEng         TotEng         Volume        Density          Fmax          Fnorm     
      6172   0              0              1632.6378      40675.96      -2653.7831      110.16027     -2543.6229      5410.3138      1.182334       8.1676517      61.967872    
      6200   8.0676121      3.4706592      1696.7881      30857.26      -2650.0796      114.48873     -2535.5908      5410.1856      1.182362       9.9787569      58.600455    
      6300   37.86894       3.3555567      1620.4304      49172.646     -2622.8567      109.33659     -2513.5201      5407.6364      1.1829193      11.521909      71.318032    
      6400   67.177735      3.411945       1751.6158      45201.373     -2632.4264      118.18817     -2514.2382      5403.0235      1.1839293      22.812283      77.405066    
      6500   99.011949      3.1412705      1702.8199      46111.752     -2623.9319      114.89572     -2509.0361      5397.0281      1.1852445      14.642277      65.680297    
      6600   110.5807       8.6439799      1770.926       45363.818     -2630.9878      119.4911      -2511.4967      5390.3159      1.1867204      10.981821      68.356361    
      6700   122.14442      8.6477638      1702.5583      37738.706     -2626.6874      114.87807     -2511.8093      5382.1429      1.1885225      11.389522      67.248219    
      6800   133.7271       8.6335775      1771.866       45819.965     -2624.5312      119.55452     -2504.9767      5371.4732      1.1908833      21.780216      76.253611    
      6900   145.4717       8.514553       1944.8297      51061.118     -2636.2122      131.22504     -2504.9872      5359.9929      1.193434       12.423791      69.621413    
      7000   157.28642      8.4640179      1766.8677      49187.127     -2636.138       119.21727     -2516.9207      5346.6413      1.1964142      18.083814      71.630514    
      7100   168.95615      8.5691793      1708.7028      43101.596     -2633.0901      115.29266     -2517.7974      5332.1314      1.19967        13.813363      75.492476    
      7200   180.64801      8.5529581      1748.6132      51608.668     -2634.9119      117.98557     -2516.9264      5316.2915      1.2032444      7.5280551      63.665665    
      7300   195.56143      6.7053697      1578.5801      41515.684     -2632.3895      106.51279     -2525.8767      5299.4433      1.2070698      10.859142      62.078922    
      7400   222.19034      3.7553176      1610.3301      48291.214     -2648.1506      108.65508     -2539.4955      5281.597       1.2111484      10.970353      63.892277    
      7500   253.78999      3.164592       1538.31        42139.964     -2641.0919      103.79561     -2537.2963      5263.1231      1.2153996      12.200372      63.404635    
      7600   278.71352      4.012272       1436.5959      38441.879     -2640.777       96.93258      -2543.8444      5243.7179      1.2198974      15.515385      66.46422     
      7672   293.49294      4.8716387      1456.8891      36254.171     -2638.302       98.301837     -2540.0002      5229.5377      1.2232052      11.078832      62.777677    
Loop time of 293.494 on 1 procs for 1500 steps with 523 atoms

Performance: 0.442 ns/day, 54.351 hours/ns, 5.111 timesteps/s, 2.673 katom-step/s
95.2% CPU use with 1 MPI tasks x 1 OpenMP threads

MPI task timing breakdown:
Section |  min time  |  avg time  |  max time  |%varavg| %total
---------------------------------------------------------------
Pair    | 286.67     | 286.67     | 286.67     |   0.0 | 97.67
Neigh   | 0.89036    | 0.89036    | 0.89036    |   0.0 |  0.30
Comm    | 1.2462     | 1.2462     | 1.2462     |   0.0 |  0.42
Output  | 0.15128    | 0.15128    | 0.15128    |   0.0 |  0.05
Modify  | 3.7453     | 3.7453     | 3.7453     |   0.0 |  1.28
Other   |            | 0.7935     |            |       |  0.27

Nlocal:            523 ave         523 max         523 min
Histogram: 1 0 0 0 0 0 0 0 0 0
Nghost:           2599 ave        2599 max        2599 min
Histogram: 1 0 0 0 0 0 0 0 0 0
Neighs:              0 ave           0 max           0 min
Histogram: 1 0 0 0 0 0 0 0 0 0
FullNghs:        74752 ave       74752 max       74752 min
Histogram: 1 0 0 0 0 0 0 0 0 0

Total # of neighbors = 74752
Ave neighs/atom = 142.92925
Neighbor list builds = 488
Dangerous builds = 0
unfix           anneal1b

print "Step 4d: Reheat to 400K for annealing (1000 steps)"
Step 4d: Reheat to 400K for annealing (1000 steps)
fix             anneal2 all npt temp 350.0 400.0 ${tdamp} iso 50000.0 50000.0 ${pdamp}
fix             anneal2 all npt temp 350.0 400.0 0.5 iso 50000.0 50000.0 ${pdamp}
fix             anneal2 all npt temp 350.0 400.0 0.5 iso 50000.0 50000.0 10
run             1000
Per MPI rank memory allocation (min/avg/max) = 144.7 | 144.7 | 144.7 Mbytes
   Step          CPU           S/CPU           Temp          Press          PotEng         KinEng         TotEng         Volume        Density          Fmax          Fnorm     
      7672   0              0              1456.8891      34845.853     -2633.7976      98.301837     -2535.4958      5229.5377      1.2232052      11.0949        62.544121    
      7700   5.4864802      5.1034496      1703.9031      49238.13      -2646.5973      114.96881     -2531.6285      5229.4424      1.2232275      8.3602421      60.15704     
      7800   31.074005      3.9081543      1675.4651      44950.703     -2631.7707      113.04999     -2518.7207      5228.4296      1.2234645      9.4961148      63.258302    
      7900   55.925795      4.0238551      1737.8501      48446.002     -2625.9872      117.25934     -2508.7278      5226.5743      1.2238988      8.3782834      59.090046    
      8000   84.159786      3.5418299      1812.4889      54456.615     -2630.9852      122.2955      -2508.6897      5224.4598      1.2243941      10.519286      66.720029    
      8100   111.02317      3.7225388      1713.4425      47748.54      -2630.7303      115.61247     -2515.1179      5222.1225      1.2249421      12.310991      67.5391      
      8200   150.32923      2.544132       1744.1171      46246.153     -2632.4746      117.6822      -2514.7924      5220.4471      1.2253352      11.520316      68.439699    
      8300   179.4915       3.4290944      1784.5794      48343.376     -2642.9547      120.41234     -2522.5423      5219.2325      1.2256204      10.510601      65.125179    
      8400   214.59233      2.8489359      1659.4638      45156.753     -2637.88        111.97032     -2525.9097      5218.3472      1.2258283      13.615411      70.304923    
      8500   252.7468       2.6209255      1714.2169      37584.727     -2639.3679      115.66472     -2523.7032      5217.1991      1.2260981      10.737009      63.334317    
      8600   293.24303      2.4693654      1547.7873      48444.771     -2638.7835      104.43508     -2534.3484      5215.5389      1.2264884      10.010259      65.232606    
      8672   319.0196       2.793237       1681.3445      51583.089     -2654.5165      113.4467      -2541.0698      5214.7039      1.2266848      14.114234      64.792547    
Loop time of 319.021 on 1 procs for 1000 steps with 523 atoms

Performance: 0.271 ns/day, 88.617 hours/ns, 3.135 timesteps/s, 1.639 katom-step/s
98.3% CPU use with 1 MPI tasks x 1 OpenMP threads

MPI task timing breakdown:
Section |  min time  |  avg time  |  max time  |%varavg| %total
---------------------------------------------------------------
Pair    | 314.2      | 314.2      | 314.2      |   0.0 | 98.49
Neigh   | 0.60402    | 0.60402    | 0.60402    |   0.0 |  0.19
Comm    | 0.80458    | 0.80458    | 0.80458    |   0.0 |  0.25
Output  | 0.16309    | 0.16309    | 0.16309    |   0.0 |  0.05
Modify  | 2.687      | 2.687      | 2.687      |   0.0 |  0.84
Other   |            | 0.5667     |            |       |  0.18

Nlocal:            523 ave         523 max         523 min
Histogram: 1 0 0 0 0 0 0 0 0 0
Nghost:           2557 ave        2557 max        2557 min
Histogram: 1 0 0 0 0 0 0 0 0 0
Neighs:              0 ave           0 max           0 min
Histogram: 1 0 0 0 0 0 0 0 0 0
FullNghs:        74966 ave       74966 max       74966 min
Histogram: 1 0 0 0 0 0 0 0 0 0

Total # of neighbors = 74966
Ave neighs/atom = 143.33843
Neighbor list builds = 319
Dangerous builds = 0
unfix           anneal2

print "Step 4e: Final hold at 5 GPa, 400K (2000 steps)"
Step 4e: Final hold at 5 GPa, 400K (2000 steps)
fix             hold2 all npt temp 400.0 400.0 ${tdamp} iso 50000.0 50000.0 ${pdamp}
fix             hold2 all npt temp 400.0 400.0 0.5 iso 50000.0 50000.0 ${pdamp}
fix             hold2 all npt temp 400.0 400.0 0.5 iso 50000.0 50000.0 10
run             2000
Per MPI rank memory allocation (min/avg/max) = 145.8 | 145.8 | 145.8 Mbytes
   Step          CPU           S/CPU           Temp          Press          PotEng         KinEng         TotEng         Volume        Density          Fmax          Fnorm     
      8672   0              0              1681.3445      50880.887     -2658.4943      113.4467      -2545.0476      5214.7039      1.2266848      14.024229      64.92524     
      8700   11.228943      2.4935545      1699.2388      44618.359     -2654.0603      114.65409     -2539.4062      5214.6591      1.2266953      8.0673578      59.88028     
      8800   51.119459      2.5068615      1753.7395      56065.632     -2650.913       118.33146     -2532.5815      5214.3252      1.2267738      9.6802486      65.558274    
      8900   89.426623      2.6104778      1634.2135      46965.868     -2640.1758      110.26659     -2529.9092      5214.4761      1.2267383      11.330256      68.222652    
      9000   116.52784      3.6898706      1729.7675      54194.176     -2645.176       116.71398     -2528.462       5214.6392      1.2267         13.143769      70.013056    
      9100   148.79708      3.0989269      1740.25        56047.13      -2637.1861      117.42127     -2519.7648      5214.2612      1.2267889      9.6822354      69.272476    
      9200   180.55424      3.1488958      1680.6469      61736.291     -2634.614       113.39962     -2521.2144      5213.7569      1.2269076      18.590506      71.652546    
      9300   220.20876      2.5217804      1788.4748      50547.433     -2639.1836      120.67519     -2518.5084      5213.3616      1.2270006      9.6594173      65.831664    
      9400   259.78844      2.5265497      1615.3947      44799.513     -2631.1213      108.99681     -2522.1244      5213.3123      1.2270122      9.4954764      64.130048    
      9500   299.82287      2.4978499      1585.6189      49668.001     -2630.7753      106.98773     -2523.7875      5213.5145      1.2269646      8.4463923      65.610021    
      9600   336.65689      2.7148811      1613.4323      52321.511     -2639.3915      108.8644      -2530.5271      5213.6637      1.2269295      9.2471467      61.129194    
      9700   376.66114      2.4997348      1567.8229      60710.796     -2644.0682      105.78696     -2538.2812      5213.94        1.2268645      9.9701813      66.804299    
      9800   416.56859      2.5057968      1608.6722      55011.781     -2644.3002      108.54322     -2535.757       5214.6315      1.2267018      9.826554       62.330846    
      9900   447.5901       3.2235706      1677.1049      53609.148     -2643.0907      113.16063     -2529.9301      5215.1603      1.2265774      8.9446218      66.264413    
     10000   480.80748      3.0104725      1659.1534      56391.717     -2635.5263      111.94938     -2523.5769      5215.4766      1.226503       8.0724317      60.461611    
     10100   517.54411      2.7220786      1600.7357      51607.363     -2636.523       108.00771     -2528.5152      5216.1525      1.2263441      8.3386837      62.193234    
     10200   554.76598      2.6865923      1500.3484      49649.617     -2632.0323      101.2342      -2530.7981      5216.8235      1.2261864      9.5420426      63.451185    
     10300   593.36523      2.5907245      1472.238       44119.371     -2642.0247      99.337484     -2542.6872      5217.3603      1.2260602      10.194461      62.720722    
     10400   631.92752      2.5932066      1576.1453      53253.129     -2639.1625      106.3485      -2532.814       5216.9395      1.2261591      8.5612771      61.694545    
     10500   673.38105      2.4123402      1543.7308      45120.57      -2635.3876      104.16138     -2531.2262      5215.7311      1.2264432      15.360234      68.876638    
     10600   712.49305      2.5567595      1559.8572      42893.165     -2632.2498      105.24949     -2527.0003      5213.6026      1.2269439      10.068978      60.275856    
     10672   741.09877      2.5169797      1526.9624      40249.921     -2637.672       103.02995     -2534.6421      5211.7579      1.2273781      16.586865      68.218861    
Loop time of 741.1 on 1 procs for 2000 steps with 523 atoms

Performance: 0.233 ns/day, 102.931 hours/ns, 2.699 timesteps/s, 1.411 katom-step/s
98.7% CPU use with 1 MPI tasks x 1 OpenMP threads

MPI task timing breakdown:
Section |  min time  |  avg time  |  max time  |%varavg| %total
---------------------------------------------------------------
Pair    | 731.4      | 731.4      | 731.4      |   0.0 | 98.69
Neigh   | 1.209      | 1.209      | 1.209      |   0.0 |  0.16
Comm    | 1.6252     | 1.6252     | 1.6252     |   0.0 |  0.22
Output  | 0.24971    | 0.24971    | 0.24971    |   0.0 |  0.03
Modify  | 5.4727     | 5.4727     | 5.4727     |   0.0 |  0.74
Other   |            | 1.142      |            |       |  0.15

Nlocal:            523 ave         523 max         523 min
Histogram: 1 0 0 0 0 0 0 0 0 0
Nghost:           2557 ave        2557 max        2557 min
Histogram: 1 0 0 0 0 0 0 0 0 0
Neighs:              0 ave           0 max           0 min
Histogram: 1 0 0 0 0 0 0 0 0 0
FullNghs:        74668 ave       74668 max       74668 min
Histogram: 1 0 0 0 0 0 0 0 0 0

Total # of neighbors = 74668
Ave neighs/atom = 142.76864
Neighbor list builds = 638
Dangerous builds = 0
unfix           hold2

variable        compressed_density equal density
print "==========================================="
===========================================
print "Density after compression: ${compressed_density} g/cm^3"
Density after compression: 1.22737814194878 g/cm^3
print "==========================================="
===========================================

# -----------------------------------------------------------------------------
# Step 5: THREE-STAGE Gradual pressure release with COOLING
# Key: Release pressure slowly while cooling to prevent density collapse
# -----------------------------------------------------------------------------
print "Step 5a: Pressure release 5 GPa -> 3 GPa (2000 steps)"
Step 5a: Pressure release 5 GPa -> 3 GPa (2000 steps)
fix             release1 all npt temp 400.0 380.0 ${tdamp} iso 50000.0 30000.0 ${pdamp}
fix             release1 all npt temp 400.0 380.0 0.5 iso 50000.0 30000.0 ${pdamp}
fix             release1 all npt temp 400.0 380.0 0.5 iso 50000.0 30000.0 10
run             2000
Per MPI rank memory allocation (min/avg/max) = 145.7 | 145.7 | 145.7 Mbytes
   Step          CPU           S/CPU           Temp          Press          PotEng         KinEng         TotEng         Volume        Density          Fmax          Fnorm     
     10672   0              0              1526.9624      40602.868     -2636.7488      103.02995     -2533.7189      5211.7579      1.2273781      13.085403      65.757404    
     10700   10.610972      2.6387763      1592.6654      46093.809     -2640.5735      107.46318     -2533.1103      5211.6515      1.2274032      9.6353364      60.773981    
     10800   46.54892       2.782574       1604.8773      46530.43      -2629.4442      108.28716     -2521.157       5210.6716      1.227634       15.745073      67.363866    
     10900   84.58109       2.6293524      1678.6969      56189.223     -2629.7372      113.26805     -2516.4691      5209.0954      1.2280055      7.971869       65.609371    
     11000   122.26662      2.6535387      1705.72        57484.824     -2630.9767      115.0914      -2515.8853      5207.6812      1.228339       9.3732937      66.202534    
     11100   161.65991      2.5385028      1586.3977      54804.243     -2622.9871      107.04027     -2515.9468      5207.2999      1.2284289      10.950194      69.869972    
     11200   199.88274      2.6162378      1720.5301      52506.745     -2620.5898      116.0907      -2504.4991      5208.507       1.2281442      12.788492      72.108834    
     11300   211.59276      8.5396894      1838.8715      54383.191     -2632.885       124.07564     -2508.8093      5210.891       1.2275823      10.504256      66.647179    
     11400   223.16404      8.6420931      1670.8456      49106.819     -2621.8277      112.7383      -2509.0894      5214.4699      1.2267398      12.972725      71.384082    
     11500   234.73141      8.6450157      1590.163       47676.617     -2613.2657      107.29434     -2505.9714      5219.316       1.2256008      8.6190231      64.019443    
     11600   246.45264      8.5315271      1612.1297      42385.974     -2618.4278      108.77651     -2509.6513      5225.5237      1.2241448      7.8990532      68.348055    
     11700   258.23161      8.4897027      1640.1609      50507.42      -2617.8524      110.66788     -2507.1846      5232.7515      1.222454       9.6679771      65.490879    
     11800   270.02151      8.481834       1666.936       40267.75      -2627.0791      112.4745      -2514.6046      5242.0883      1.2202766      10.32228       64.904046    
     11900   281.58836      8.6454034      1554.0235      41716.904     -2626.8633      104.85586     -2522.0074      5253.6931      1.2175812      9.595403       63.781484    
     12000   293.31003      8.5312066      1580.9103      39744.208     -2637.7619      106.67002     -2531.0919      5267.9057      1.2142962      8.4577674      62.604939    
     12100   304.89532      8.6316296      1569.4205      40648.955     -2635.4993      105.89476     -2529.6045      5284.6746      1.2104431      8.3400731      56.776246    
     12200   316.51811      8.6037899      1443.8645      41585.839     -2638.175       97.423019     -2540.752       5304.5919      1.2058982      13.273486      68.901325    
     12300   327.9832       8.7221303      1428.1024      35352.617     -2648.1203      96.359489     -2551.7608      5326.904       1.2008472      9.9029374      62.762878    
     12400   339.43136      8.7350244      1464.3441      36925.825     -2647.964       98.804855     -2549.1592      5351.2524      1.1953833      12.214084      62.044534    
     12500   350.84168      8.7640016      1376.9072      34469.536     -2651.0727      92.905154     -2558.1676      5377.2631      1.189601       11.701483      59.402443    
     12600   362.18582      8.8151201      1516.5983      43832.212     -2657.4288      102.33064     -2555.0981      5405.3333      1.1834234      11.557847      60.698027    
     12672   370.35075      8.818205       1497.7078      37816.988     -2659.4161      101.05603     -2558.3601      5427.0842      1.1786804      11.181732      59.138565    
Loop time of 370.353 on 1 procs for 2000 steps with 523 atoms

Performance: 0.467 ns/day, 51.438 hours/ns, 5.400 timesteps/s, 2.824 katom-step/s
95.9% CPU use with 1 MPI tasks x 1 OpenMP threads

MPI task timing breakdown:
Section |  min time  |  avg time  |  max time  |%varavg| %total
---------------------------------------------------------------
Pair    | 361.56     | 361.56     | 361.56     |   0.0 | 97.63
Neigh   | 1.1056     | 1.1056     | 1.1056     |   0.0 |  0.30
Comm    | 1.5146     | 1.5146     | 1.5146     |   0.0 |  0.41
Output  | 0.22165    | 0.22165    | 0.22165    |   0.0 |  0.06
Modify  | 4.9212     | 4.9212     | 4.9212     |   0.0 |  1.33
Other   |            | 1.03       |            |       |  0.28

Nlocal:            523 ave         523 max         523 min
Histogram: 1 0 0 0 0 0 0 0 0 0
Nghost:           2515 ave        2515 max        2515 min
Histogram: 1 0 0 0 0 0 0 0 0 0
Neighs:              0 ave           0 max           0 min
Histogram: 1 0 0 0 0 0 0 0 0 0
FullNghs:        71784 ave       71784 max       71784 min
Histogram: 1 0 0 0 0 0 0 0 0 0

Total # of neighbors = 71784
Ave neighs/atom = 137.2543
Neighbor list builds = 616
Dangerous builds = 0
unfix           release1

variable        density_3gpa equal density
print "Density at 3 GPa: ${density_3gpa} g/cm^3"
Density at 3 GPa: 1.17868040056328 g/cm^3

print "Step 5b: Pressure release 3 GPa -> 1 GPa (2000 steps)"
Step 5b: Pressure release 3 GPa -> 1 GPa (2000 steps)
fix             release2 all npt temp 380.0 350.0 ${tdamp} iso 30000.0 10000.0 ${pdamp}
fix             release2 all npt temp 380.0 350.0 0.5 iso 30000.0 10000.0 ${pdamp}
fix             release2 all npt temp 380.0 350.0 0.5 iso 30000.0 10000.0 10
run             2000
Per MPI rank memory allocation (min/avg/max) = 145.9 | 145.9 | 145.9 Mbytes
   Step          CPU           S/CPU           Temp          Press          PotEng         KinEng         TotEng         Volume        Density          Fmax          Fnorm     
     12672   0              0              1497.7078      37224.725     -2659.6591      101.05603     -2558.6031      5427.0842      1.1786804      11.260773      60.380944    
     12700   3.1542209      8.876977       1514.1652      41456.885     -2660.9336      102.16647     -2558.7671      5427.13        1.1786704      8.0970282      57.362175    
     12800   14.497514      8.8157812      1475.4319      45080.206     -2656.1177      99.552991     -2556.5647      5429.5731      1.1781401      7.633447       59.140633    
     12900   25.746518      8.8896605      1558.661       43890.29      -2657.8442      105.16877     -2552.6754      5435.6734      1.1768179      8.1758734      58.372195    
     13000   37.084564      8.8198769      1517.6914      45877.001     -2649.0918      102.4044      -2546.6874      5445.6174      1.174669       10.341063      62.740251    
     13100   48.264434      8.944649       1521.8405      44525.113     -2643.7437      102.68435     -2541.0593      5459.7692      1.1716242      9.4571058      62.450491    
     13200   59.488863      8.9091387      1453.9243      39318.455     -2640.9014      98.101789     -2542.7996      5478.6732      1.1675815      9.2689423      64.142202    
     13300   70.69011       8.9275777      1498.3515      45374.158     -2631.9624      101.09946     -2530.8629      5502.0423      1.1626224      13.731851      67.936569    
     13400   82.135174      8.737391       1475.9407      33566.109     -2641.2831      99.587319     -2541.6957      5528.8113      1.1569933      13.17259       72.874634    
     13500   93.690644      8.6539102      1722.1829      33237.803     -2641.1375      116.20222     -2524.9353      5559.1686      1.1506753      7.776088       60.519233    
     13600   105.02099      8.8258567      1546.445       40105.293     -2634.7957      104.34451     -2530.4512      5594.1297      1.143484       14.455831      69.004921    
     13700   116.31612      8.8533692      1440.7695      30852.814     -2634.3729      97.214184     -2537.1587      5633.0046      1.1355925      10.828667      63.94009     
     13800   127.61753      8.8484544      1556.0483      36260.645     -2644.77        104.99249     -2539.7775      5675.3954      1.1271105      9.1071686      57.949825    
     13900   138.63068      9.0800591      1485.1258      31229.41      -2646.1287      100.20707     -2545.9217      5720.6004      1.1182039      17.208205      68.346553    
     14000   149.7185       9.0189057      1432.1457      26085.13      -2650.0674      96.632304     -2553.4351      5767.6827      1.1090759      12.118204      64.847026    
     14100   160.78841      9.0334953      1343.7854      27336.561     -2653.2143      90.670301     -2562.544       5816.1477      1.0998341      11.406101      66.791585    
     14200   171.81803      9.0664984      1284.7672      21702.185     -2653.2227      86.688117     -2566.5346      5865.6449      1.0905532      12.535462      58.27278     
     14300   182.77335      9.1279764      1248.9497      14841.943     -2653.2706      84.271379     -2568.9992      5914.9953      1.0814544      8.2099026      55.171118    
     14400   193.61124      9.2268879      1279.017       21008.282     -2651.9141      86.300132     -2565.6139      5963.6751      1.0726268      6.3679765      51.920166    
     14500   204.51461      9.1714778      1271.1322      24680.604     -2659.1258      85.768112     -2573.3577      6011.5942      1.0640768      8.7412884      55.360413    
     14600   215.44597      9.1479972      1308.3074      24030.451     -2664.9624      88.276463     -2576.686       6058.4545      1.0558465      13.133977      58.170809    
     14672   223.25543      9.2195828      1324.6188      22710.259     -2670.8501      89.37706      -2581.4731      6091.4215      1.0501322      6.5473636      50.781226    
Loop time of 223.257 on 1 procs for 2000 steps with 523 atoms

Performance: 0.774 ns/day, 31.008 hours/ns, 8.958 timesteps/s, 4.685 katom-step/s
96.6% CPU use with 1 MPI tasks x 1 OpenMP threads

MPI task timing breakdown:
Section |  min time  |  avg time  |  max time  |%varavg| %total
---------------------------------------------------------------
Pair    | 214.92     | 214.92     | 214.92     |   0.0 | 96.27
Neigh   | 1.0511     | 1.0511     | 1.0511     |   0.0 |  0.47
Comm    | 1.4337     | 1.4337     | 1.4337     |   0.0 |  0.64
Output  | 0.26461    | 0.26461    | 0.26461    |   0.0 |  0.12
Modify  | 4.6108     | 4.6108     | 4.6108     |   0.0 |  2.07
Other   |            | 0.973      |            |       |  0.44

Nlocal:            523 ave         523 max         523 min
Histogram: 1 0 0 0 0 0 0 0 0 0
Nghost:           2334 ave        2334 max        2334 min
Histogram: 1 0 0 0 0 0 0 0 0 0
Neighs:              0 ave           0 max           0 min
Histogram: 1 0 0 0 0 0 0 0 0 0
FullNghs:        64128 ave       64128 max       64128 min
Histogram: 1 0 0 0 0 0 0 0 0 0

Total # of neighbors = 64128
Ave neighs/atom = 122.61568
Neighbor list builds = 604
Dangerous builds = 14
unfix           release2

variable        density_1gpa equal density
print "Density at 1 GPa: ${density_1gpa} g/cm^3"
Density at 1 GPa: 1.05013218164037 g/cm^3

print "Step 5c: Pressure release 1 GPa -> 0 with deep cooling (3000 steps)"
Step 5c: Pressure release 1 GPa -> 0 with deep cooling (3000 steps)
fix             release3 all npt temp 350.0 300.0 ${tdamp} iso 10000.0 0.0 ${pdamp}
fix             release3 all npt temp 350.0 300.0 0.5 iso 10000.0 0.0 ${pdamp}
fix             release3 all npt temp 350.0 300.0 0.5 iso 10000.0 0.0 10
run             3000
Per MPI rank memory allocation (min/avg/max) = 145.6 | 145.6 | 145.6 Mbytes
   Step          CPU           S/CPU           Temp          Press          PotEng         KinEng         TotEng         Volume        Density          Fmax          Fnorm     
     14672   0              0              1324.6188      23691.834     -2670.1735      89.37706      -2580.7964      6091.4215      1.0501322      6.4433466      50.238833    
     14700   3.0000796      9.3330715      1315.3692      18188.447     -2660.706       88.752952     -2571.9531      6091.6902      1.0500859      7.5763613      55.690495    
     14800   13.675273      9.3675107      1382.6313      23406.807     -2664.4275      93.29138      -2571.1361      6095.6746      1.0493995      8.9129845      59.780519    
     14900   24.453329      9.2781105      1394.8547      25997.057     -2650.8273      94.116138     -2556.7111      6104.3192      1.0479134      17.238268      64.828388    
     15000   35.076324      9.4135417      1415.7843      16198.337     -2643.6895      95.528342     -2548.1611      6117.7074      1.0456201      10.787266      60.209702    
     15100   45.86683       9.2674061      1494.8974      29205.919     -2645.2488      100.8664      -2544.3824      6135.8741      1.0425243      12.412286      64.891594    
     15200   56.603871      9.3135516      1440.0531      19167.556     -2638.3644      97.16585      -2541.1985      6160.3613      1.0383803      9.0650655      61.566       
     15300   67.341291      9.3132249      1505.1969      11543.224     -2648.3742      101.56135     -2546.8128      6191.0449      1.0332339      11.505462      60.369197    
     15400   78.047631      9.3402583      1505.5763      11899.432     -2644.4368      101.58694     -2542.8498      6227.2429      1.0272279      17.066794      67.251587    
     15500   88.778752      9.3186931      1393.4276      26266.913     -2640.3951      94.01985      -2546.3753      6268.7831      1.020421       18.703693      73.714665    
     15600   99.504884      9.323023       1366.9612      16799.721     -2647.6207      92.234064     -2555.3867      6315.1379      1.0129308      14.215999      66.979692    
     15700   110.29334      9.269166       1333.4578      10472.64      -2646.9402      89.973457     -2556.9668      6365.7657      1.0048748      10.269711      63.122625    
     15800   120.89119      9.43588        1415.8678      12047.189     -2647.5635      95.533974     -2552.0295      6418.9668      0.99654633     17.726455      64.478964    
     15900   131.58385      9.3522069      1428.9955      9031.2155     -2637.5854      96.419751     -2541.1657      6474.7345      0.98796295     11.339328      60.845367    
     16000   142.16008      9.4551667      1446.5451      16294.015     -2648.3855      97.603887     -2550.7816      6532.2387      0.97926577     10.611915      61.247443    
     16100   152.66085      9.5231106      1307.4891      8179.5803     -2642.0927      88.221255     -2553.8715      6590.2461      0.97064626     14.859103      64.621728    
     16200   163.08369      9.5943148      1345.6348      18251.196     -2648.452       90.795086     -2557.6569      6647.5564      0.96227808     10.818231      62.825529    
     16300   173.43153      9.6638541      1315.3786      9724.1384     -2658.1064      88.753589     -2569.3528      6703.2224      0.95428697     8.7984212      58.671943    
     16400   183.76097      9.6810686      1240.1347      7188.124      -2647.2015      83.676596     -2563.5249      6757.6932      0.94659488     11.43824       60.688424    
     16500   194.08024      9.6906096      1280.2901      9600.4816     -2661.6878      86.386035     -2575.3017      6810.1958      0.9392972      11.593272      61.239894    
     16600   204.35085      9.7365151      1214.0429      12291.443     -2664.9982      81.916082     -2583.0821      6859.6755      0.93252192     11.852228      62.76052     
     16700   214.69234      9.6697907      1153.3655      9722.5095     -2669.4279      77.821946     -2591.606       6906.7182      0.92617038     12.369774      61.038968    
     16800   224.98143      9.7190318      1096.171       10118.193     -2667.7436      73.962821     -2593.7808      6951.8604      0.92015625     8.2652309      59.995926    
     16900   235.26317      9.7259795      1080.9831      10926.991     -2662.2372      72.93803      -2589.2992      6995.2428      0.91444972     11.266646      61.238835    
     17000   245.55383      9.7175439      1071.1654      8588.9869     -2666.1932      72.275595     -2593.9176      7037.2306      0.90899363     12.62871       62.046432    
     17100   255.48184      10.072515      1082.8249      8830.3774     -2668.3765      73.062308     -2595.3142      7077.7541      0.9037892      22.84188       70.273705    
     17200   265.65036      9.834277       977.56093      10851.468     -2664.3479      65.959747     -2598.3882      7117.3396      0.89876248     13.344714      60.783264    
     17300   275.5729       10.078057      1050.0009     -1158.7035     -2675.1033      70.847548     -2604.2558      7156.4169      0.89385483     9.4932674      52.977096    
     17400   285.47418      10.099703      1026.9977      8244.3847     -2667.6995      69.295432     -2598.4041      7194.2992      0.88914814     11.659497      60.15208     
     17500   295.39148      10.083391      987.99045      4981.8968     -2665.0053      66.663466     -2598.3419      7231.6096      0.88456071     11.046512      54.712448    
     17600   305.26332      10.129823      985.33948      4341.5933     -2664.2434      66.484595     -2597.7588      7268.9724      0.88001404     7.2171615      53.578018    
     17672   312.37339      10.12649       1027.1267      4361.3866     -2670.6706      69.304136     -2601.3665      7296.0401      0.87674926     9.1038202      53.152963    
Loop time of 312.375 on 1 procs for 3000 steps with 523 atoms

Performance: 0.830 ns/day, 28.924 hours/ns, 9.604 timesteps/s, 5.023 katom-step/s
96.3% CPU use with 1 MPI tasks x 1 OpenMP threads

MPI task timing breakdown:
Section |  min time  |  avg time  |  max time  |%varavg| %total
---------------------------------------------------------------
Pair    | 299.59     | 299.59     | 299.59     |   0.0 | 95.91
Neigh   | 1.6456     | 1.6456     | 1.6456     |   0.0 |  0.53
Comm    | 2.1987     | 2.1987     | 2.1987     |   0.0 |  0.70
Output  | 0.42326    | 0.42326    | 0.42326    |   0.0 |  0.14
Modify  | 6.9952     | 6.9952     | 6.9952     |   0.0 |  2.24
Other   |            | 1.518      |            |       |  0.49

Nlocal:            523 ave         523 max         523 min
Histogram: 1 0 0 0 0 0 0 0 0 0
Nghost:           2138 ave        2138 max        2138 min
Histogram: 1 0 0 0 0 0 0 0 0 0
Neighs:              0 ave           0 max           0 min
Histogram: 1 0 0 0 0 0 0 0 0 0
FullNghs:        53422 ave       53422 max       53422 min
Histogram: 1 0 0 0 0 0 0 0 0 0

Total # of neighbors = 53422
Ave neighs/atom = 102.14532
Neighbor list builds = 963
Dangerous builds = 0
unfix           release3

variable        density_0gpa equal density
print "Density at 0 GPa: ${density_0gpa} g/cm^3"
Density at 0 GPa: 0.876749262778982 g/cm^3

# -----------------------------------------------------------------------------
# Step 6: Extended equilibration at ambient (300K, 0 GPa)
# -----------------------------------------------------------------------------
print "Step 6: Final NPT equilibration at 300K (1500 steps)"
Step 6: Final NPT equilibration at 300K (1500 steps)

fix             equil1 all npt temp 300.0 300.0 ${tdamp} iso 0.0 0.0 ${pdamp}
fix             equil1 all npt temp 300.0 300.0 0.5 iso 0.0 0.0 ${pdamp}
fix             equil1 all npt temp 300.0 300.0 0.5 iso 0.0 0.0 10
run             1500
Per MPI rank memory allocation (min/avg/max) = 144.5 | 144.5 | 144.5 Mbytes
   Step          CPU           S/CPU           Temp          Press          PotEng         KinEng         TotEng         Volume        Density          Fmax          Fnorm     
     17672   0              0              1027.1267      3892.7824     -2669.469       69.304136     -2600.1649      7296.0401      0.87674926     9.0654957      52.652373    
     17700   2.7496196      10.183206      1023.0808      5119.598      -2659.2128      69.031143     -2590.1817      7296.2576      0.87672312     17.553719      62.369972    
     17800   12.688691      10.061301      1076.3892     -1743.5008     -2663.1863      72.628063     -2590.5582      7298.8732      0.87640895     7.3459694      53.954337    
     17900   22.5068        10.185261      1183.3756      3608.8896     -2655.9343      79.846843     -2576.0874      7303.84        0.87581297     10.295601      58.472158    
     18000   32.695062      9.8152168      306974.65      3018128.8     -2593.7674      20712.745      18118.977      7316.4459      0.87430398     18.831255      68.705154    
     18100   42.562804      10.134031      224033.83      1937778.7     -2418.49        15116.413      12697.923      8287.2553      0.77188376     11.805312      68.76459     
ERROR: Lost atoms: original 523 current 522
For more information see https://docs.lammps.org/err0008 (src/thermo.cpp:527)
