     673
 i =      280, E =     -2595.4361420116
 Si         1.5987575722       11.5497486508       18.5414004649
  O        20.6424891890        9.9945761688        1.3491440118
  C         0.8131849980       13.2231069121       18.1159239150
  H         1.4649126798       13.9884434144       18.5693528607
  H         0.7669448496       13.4482023056       17.0413141919
  H        21.8227051768       13.3580457777       18.5597638648
  C         2.6431554194       13.2923680868        1.8777502100
  H         1.5780074848       13.5116660950        1.7852427706
  H         2.7946884598       12.5185078362        2.6325875623
  H         3.1768276812       14.2007754568        2.1654692431
 Si        21.1527894316        9.1540040120        2.6747519838
  O         0.6714670455        8.6156802526        2.7075251256
  C        19.9538419068        8.6186711704        1.4363113783
  H        18.8731116806        8.7223099245        1.5468990486
  H        18.7824932649        5.9412194204       17.1067699244
  H        20.2395496747        7.9980538849        0.5852180946
  C        20.6601635040        9.8804011534        4.3060279280
  H        19.5768190595        9.8157513431        4.4442222623
  H        21.1627247820        9.3840386052        5.1438080354
  H        20.9305700482       10.9441473041        4.3200724922
 Si         1.5208924212        7.1777095520        2.6864083155
  O         0.3646750993        5.9663574449        2.5786042828
  C         2.2042080209        6.9586746875        4.4070632348
  H         2.8322072647        6.0613183863        4.4548130841
  H         2.8206263490        7.8213092088        4.6818102014
  H         1.4001931131        6.8531751802        5.1480171752
  C         2.7046251689        7.1900978618        1.3526616577
  H         6.2644507048        9.2865918554       18.4254468497
  H         2.9333651969        8.0838451128        0.7812414096
  H         3.2683596796        6.3034859415        1.0671406884
 Si        21.6292160433        5.2880313616        1.2513393856
  O         0.2471512580        3.1838178249       16.9320689050
  C        19.5134674511        5.3824737976       17.6973918399
  H        20.4704450070        5.3436103904       17.1755546862
  H        19.1581328663        4.3611724858       17.8435736282
  H        19.6418892434        5.8559434020       18.6725615321
  C        20.1950148867        4.4538790207        2.1819869960
  H        19.4426420796        4.0063932861        1.5243200998
  H        20.6110728687        3.6570741812        2.8172361816
  H        19.7151993550        5.1786628888        2.8544828639
 Si         0.2076675482        1.6617323594       16.9320776019
  O         1.4744705133        0.7270543305       16.6089941366
  C        20.7187387805        0.6501671726       17.2532182493
  H        21.0154771456       18.7143519018       17.5488091183
  H        19.1370049903       16.9595024196        2.9862140647
  H        20.1836734595        1.1182476603       18.0892531442
  C         3.1180765766        1.4177657451        2.3013333329
  H         3.1710859772       19.4208947839        2.3906337927
  H         3.8477280871        1.9437870301        1.7001372653
  H         2.2599801138        1.9486005473        2.6910887027
 Si         3.1532036509        1.0254224508       16.5964764253
  C         3.5215089149        2.2677384480       17.9298357040
  H         4.5872292825        2.5181720176       17.9439264106
  H         2.9454551869        3.1867665662       17.7777937907
  H         3.2605384302        1.8581532126       18.9143481017
  C         3.9195714931       18.4494701629       16.9894534648
  H         3.6159811607       18.1016370237       17.9844888221
  H         3.6134603002       17.6922735141       16.2582029891
  H         5.0160942023       18.5074801694       16.9736314567
 Si         9.9066809210       17.4029600236        2.2454172558
  O         9.1607466864       16.6898037631        3.5446299730
  C         9.1358953907       16.4887896499        1.0311094603
  H         9.1240851034       16.4070266487       -0.0448820557
  H        11.7186850134       16.1053718131       18.3985019966
  H        12.3966084101       15.8548929727       18.2239592796
  C        10.9767412081       -0.2150192087        2.5963136968
  H        10.4405738930        0.7094717335        2.3508638673
  H        11.2344127226       -0.2001551605        3.6596189451
  H        11.8956467400       -0.2444402966        2.0003346594
 Si         8.2420731041       15.7294497828        2.4394028633
  O         8.4946798565       14.1269497072        2.7730840621
  C         7.4116064679       15.0411800507       18.7061117223
  H         6.7876724063       15.5941202482       17.9968836980
  H         7.2179275118       15.4498555095       19.7015491432
  H         8.4587762896       15.2438625053       18.4607195844
  C         6.4420804442       16.1021691010        2.6827349959
  H         5.8258001671       15.5731267910        1.9454060759
  H         6.1169519505       15.7924405423        3.6840273884
  H         6.2513071524       17.1741066093        2.5725050310
 Si         7.6847073192       12.8170052067        2.1530408130
  O         8.6829356958       11.5351154037        2.2602491058
  C         7.1059381854       13.5428950309       18.6531989073
  H         7.3220753988       13.1225121811       17.6633709660
  H         7.7053659858       12.9885227153       19.3843178223
  H         6.0501031746       13.3495050585       18.8761065607
  C         6.2032594841       12.4275188755        3.2503205270
  H         6.5784168015       12.2011740976        4.2598498072
  H         5.5063437518       13.2666626842        3.3008604787
  H         5.6710952425       11.5556481574        2.8599743028
 Si         9.8685853887       10.5603027469        2.8493356285
  O         9.3587777360        9.0033843607        2.5725999142
  C         9.9820386355       10.7183365938        4.6974537854
  H        10.8590552349       10.1775927970        5.0761831143
  H        10.0603063681       11.7617101664        5.0236279824
  H         9.0886051401       10.2793030756        5.1575045471
  C        11.4656714322       10.8673291613        1.9564152418
  H        11.2409375710       10.8940861697        0.8771439343
  H        11.8188035133       11.8790029298        2.2103014271
 Si         9.0634398467        8.1128954766        1.2003519777
  O        10.4569365925        6.8234466843       20.0239352206
  C         7.2505336144        8.8574881481       18.6144953376
  H         7.1926545358        7.7685447364       18.6008655579
  H         7.6158626495        9.1759840948       19.5930866989
  H         7.9504737305        9.1916815634       17.8470855171
  C         8.2915131943        6.6013343755        2.0440345704
  H         7.3336015669        6.9081458914        2.4932337841
  H         8.0958643601        5.7678063902        1.3597547572
  H         8.9351672551        6.2564877137        2.8671416530
 Si        11.1243374254        5.6134363128       19.3577092098
  C        10.4010415800        3.9119565557       19.4011139823
  H        10.5395472371        3.3914495505       18.4464011879
  H        10.9076350817        3.3102764485       20.1673755023
  H         9.3365707913        3.9499190999       19.6457593129
  C        12.6962085160        5.6888801036       18.4162292200
  H        13.9550227496        4.8233010940        0.9584212217
  H        12.6708196630        5.1083329657       17.4816620473
  H        12.9628125845        6.7333589378       18.2162061675
 Si        18.0657956948       16.1077593582        5.9631021707
  O        17.1690913166       15.2980146978        4.8335354184
  C        19.8394658729       15.6055512233        5.7360724445
  H        20.1743671690       15.9461202135        4.7468657940
  H        20.4914499416       16.0461126374        6.5024053084
  H        19.9421106947       14.5127556350        5.7759057332
  C        17.8448562761       17.9503045845        5.7844151727
  H        18.4370136816       -0.5912898588        6.5326440051
  H        18.1899359081       -0.8287691439        4.7857661788
  H        16.7921792402       -0.8341399555        5.9003065239
 Si        15.7944669222       15.3318246183        3.9446846022
  O        15.5161594318       13.7884078776        3.4099262609
  C        17.4793645657       15.5716399001        7.6609536532
  H        18.0019573663       16.1258497618        8.4514054670
  H        16.4024762396       15.7367102637        7.7950069868
  H        17.6716332055       14.5041213350        7.8231253289
  C        15.9711097146       16.4746327750        2.4935788431
  H        16.0103535535       17.5225411189        2.8176972225
  H        16.9162427121       16.2751982960        1.9719289310
  H        15.1378536676       16.3571371209        1.7874478047
 Si        16.0438199103       12.6445893725        2.3433736324
  O        14.9686653338       11.3983944803        2.5719684222
  C        15.0741328953       14.2711995131       18.2474962098
  H        14.1098668226       13.9598739751       18.6274715059
  H        15.8027358539       14.6943161777       18.9261441874
  H        15.3349903401       14.0862233183       17.2128906719
  C        17.7489670149       12.0586527504        2.8666435370
  H        17.6660801985       11.6537016700        3.8853621778
  H        18.1490239253       11.2972489562        2.1909439414
  H        18.4320099673       12.9156857533        2.8765989816
 Si        14.1631278312       10.0216150171        2.5638563541
  O        15.1616558843        8.8110386147        2.9655117841
  C        12.5034999459        9.8150553271        2.2957657407
  H        13.7689021146        9.6414295065       19.1313960156
  H        12.1870921870        8.7692694817        2.2654801107
  C        13.9671499220        9.6901728817       18.0596443690
  H        13.0373829143        9.5033464647       17.5176774366
  H        14.3491940797       10.6790870861       17.7966944881
  H        14.7064450324        8.9317056472       17.7917816128
 Si        15.1179661628        7.2192926793        3.3629797833
  O        14.4211058855        6.4845648957        2.0646850198
  C        14.0854563754        6.9844131667        4.8974118199
  H        13.0847582059        7.4158298384        4.7644831610
  H        13.9616171150        5.9176170316        5.1304944013
  H        14.5473563412        7.4785195042        5.7630900203
  C        16.8658661869        6.6631612354        3.6272734933
  H        16.9335934268        5.6158772252        3.9494155129
  H        17.4495151056        6.7613805311        2.7035614481
  H        17.3543405955        7.2792431036        4.3920813209
 Si        13.9804278980        4.9412015408       19.6295311411
  C        15.7149649395        5.3325523366       19.0015115548
  H        15.8107798943        4.9745419310       17.9660270546
  H        15.9229337157        6.4065658771       19.0103718429
  H        16.4812901876        4.8340235025       19.6031300438
  C        14.4586869845        5.0595086909        1.8985752655
  H        13.9315466293        4.5451068215        2.7154606496
  H        13.7762600614        3.4652904656       19.5784025235
  H        15.4923402240        4.6905533488        1.8481802197
 Si         3.9451790158       11.0410273159        7.1946528262
  O         4.8043530529        9.6684136651        7.5349322158
  C         5.0767940965       12.5002458074        7.4344851397
  H         5.9190889651       12.4630368068        6.7320106436
  H         4.5592658112       13.4534439869        7.2691575438
  H         5.4890825587       12.5143724771        8.4517447108
  C         3.2791704452       10.9378754151        5.4673037971
  H         2.5271117572       10.1444608091        5.3741477862
  H         2.8109397108       11.8832550874        5.1640246455
  H         4.0784645882       10.7274916207        4.7448000680
 Si         6.0173443515        8.6575113188        7.1991412552
  O         5.7476100295        7.3528288341        8.2407043073
  C         7.6308184822        9.3920776524        7.7026459933
  H         7.6776888513        9.5297206280        8.7900859933
  H         8.4787315281        8.7705170168        7.3946950432
  H         7.7729617855       10.3777524334        7.2426194474
  C         6.0074151661        7.9897484854        5.4843277575
  H         6.2031025122        8.7831969530        4.7509915829
  H         6.7916894456        7.2319872365        5.3577350418
  H         5.0469489296        7.5260163081        5.2314780297
 Si         5.7260407062        6.1132454973        9.1856896241
  O         5.1305585607        4.7664960654        8.6976332323
  C         6.1106379624        6.2924991425       10.9524114438
  H         6.8741122864        7.0583767843       11.1296170946
  H         5.1954054118        6.5868853230       11.4915269439
  H         6.4351800561        5.3272096009       11.3598193729
  C         8.5878907730        5.6085152154        8.5249827895
  H         7.7006599641        5.1154884439        8.0917118100
  H         8.5056968559        6.7067817502        8.5253641372
  H         8.7143065859        5.2343882304        9.5490718415
 Si         4.2563282921        3.6134755160        7.7883021952
  O         5.1872594871        3.3165897755        6.4943892420
  C         4.0716940791        2.1276110849        8.8750035547
  H         3.6406472368        2.3868909514        9.8501020042
  H         3.4109878027        1.3902070294        8.3987140701
  H         5.0486447517        1.6552063496        9.0483140613
  C         2.6945981453        4.4808150323        7.3417410393
  H         2.1145184300        4.7760414708        8.2257826439
  H         2.9107991387        5.3951200827        6.7755915947
  H         2.0580955694        3.8504597705        6.7084457640
 Si         5.9047878112        2.0112890208        5.7406732169
  O         7.0930366252        1.4527052504        6.7009137496
  C         4.6762460935        0.6480545095        5.4851538320
  H         4.2850231777       19.3497705021        6.4378473053
  H         3.8420799005        0.9774017414        4.8487294410
  H         5.1621920207       18.8859481957        4.9729083507
  C         6.5639792975        2.6556168315        4.1310849607
  H         5.7346850811        2.9548348086        3.4758737899
  H         7.2152053147        3.5276477384        4.2744987729
  H         7.1392265445        1.8792293598        3.6106167094
 Si         8.1233470010        2.0187559798        7.9167755828
  C         8.4145387966       19.5633089441        8.9962914841
  H         8.6792852921       18.7094296171        8.3530864060
  H         9.2404352948       19.7354641497        9.7022153963
  H         7.5308760407       19.2904928849        9.5859927733
  C         9.8119917352        2.2518484776        6.9989280550
  H         9.5901780280        2.4921377057        5.9472840112
  H        10.3556375881        1.2902008449        6.9892310358
 Si        13.8222916030       15.8177508881        5.1190381493
  O        13.5097580493       14.6389082604        6.2444887236
  C        13.8406180692       17.4817821093        5.9981366444
  H        14.1313365001       18.2874808650        5.3097159590
  H        12.8455630491       17.7241470662        6.3978413877
  H        14.5499009475       17.4819059413        6.8353322918
  C        12.4589981635       15.8312290369        3.8343079229
  H        12.3857198223       14.8637704574        3.3244320386
  H        11.4783014933       16.0540082035        4.2741189787
  H        12.6878278648       16.5866626155        3.0693188879
 Si        12.3940640565       14.1223386075        7.3309055009
  O        12.7055444780       12.5244177734        7.5999366113
  C        12.6197974480       15.0587414973        8.9161417269
  H        13.6374601047       14.9219725987        9.3035128975
  H        12.4578574200       16.1338119704        8.7682035696
  H        11.9137664694       14.7182813866        9.6825938708
  C        10.6776233542       14.2800114696        6.6544222995
  H         9.9621634530       13.7204192749        7.2698433378
  H        10.3454418742       15.3250999551        6.6218110626
  H        10.6228818941       13.8913412196        5.6310373518
 Si        14.0611296547       11.5912203660        7.5250400955
  O        13.6380208130       10.1344579745        8.1749055877
  C        15.4107603375       12.3448208760        8.5463429259
  H        16.3232787901       11.7380304379        8.5055373737
  H        15.6561435885       13.3429354668        8.1647614466
  H        15.1169917635       12.4475015295        9.5986613075
  C        14.5590608993       11.2844329265        5.7789189486
  H        13.7175285918       10.8418585390        5.2255545087
  H        14.8330924388       12.2171629180        5.2728687005
  H        15.4096380483       10.5929188052        5.7160597628
 Si        12.6363157214        9.4036049322        9.2121916099
  O        13.0250588552        7.7718827763        9.0701810171
  C        10.8796657342        9.6105258023        8.6843365833
  H        10.5736595243       10.6617089502        8.7498000305
  H        10.7655237874        9.3037590051        7.6380125770
  H        10.1882893509        9.0180081278        9.2959650916
  C        12.9626808624        9.8871734690       10.9627326203
  H        12.7726496001       10.9583538708       11.1119430352
  H        12.3245793922        9.3448388609       11.6734762969
  H        14.0114574060        9.6912830061       11.2220410088
 Si        12.3228817005        6.3448937469        9.0714958864
  O        11.3079930675        6.1027092599        7.8577834819
  C        11.7170036687        5.8063511010       10.7094204731
  H        12.5031341956        5.8928051115       11.4696255436
  H        10.8925078928        6.4521510869       11.0396204699
  H        11.3525053932        4.7726052079       10.7145689634
  C        13.9430187743        5.1075323115        8.6778992688
  H        13.2129492118        4.2989813007        8.5722505102
  H        14.1949046807        5.7283670163        7.8128089645
  H        14.3023178010        5.4114097014        9.6652010837
 Si        10.0288814127        5.0967156000        7.4159629852
  C        10.6924150229        3.3602311850        7.6251096381
  H        10.8457371560        3.1617918053        8.7021475964
  H        11.7003641419        3.3687690797        7.1620125821
  C         9.6678381180        5.5179524764        5.6490878384
  H         9.4678129354        6.5917468866        5.5293662039
  H        10.5296600949        5.2720808463        5.0137672679
  H         8.7996810410        4.9670504594        5.2653967757
 Si         0.8471416843       14.4143098836       10.7070456425
  O         0.5516273153       12.7562337908       10.4946171760
  C        21.2469833989       15.3073927562       10.3989853487
  H        21.3712713897       16.3836756087       10.5769631831
  H        20.8972548503       15.1810311813        9.3666267320
  H        20.4604019929       14.9530288163       11.0759683099
  C         2.1619798945       14.8805536619        9.4751325674
  H         3.0626893446       14.2661263118        9.6037779075
  H         1.8190336894       14.7710948699        8.4382663908
  H         2.4613505042       15.9292115456        9.6087469350
 Si        -0.0180063729       11.5422933491        9.6591054965
  O        -0.0538348571       10.1331809349       10.3027717160
  C        21.0815289615       11.9215424177        8.1117648561
  H        20.9654019588       11.0107072299        7.5156514169
  H        20.0807964500       12.2902422178        8.3720177313
  H        21.5878399889       12.6991528199        7.5274326893
  C         2.5203901533       11.1253646758        8.4146223618
  H         1.9035889502       11.9766809474        8.0804878579
  H         2.8802872612       11.3104839993        9.4345288405
  H         1.9676517912       10.1666309409        8.3955611562
 Si        21.7194676972        8.4004577292        9.8690682365
  O        20.2342033113        8.6135651039        9.1322283261
  C         0.9637243655        7.6710658102        8.9211112207
  H         1.8587089748        7.2766817819        9.4028572913
  H        21.5225598878        7.9174090153       11.2543469318
  H         1.0100601105        7.7120995964        7.8342321738
  C        18.2103807664        9.6805289642       11.7616753404
  H        18.1532315453        8.7306766187       11.2161611207
  H        19.2288938964       10.0642892334       11.6270471694
  H        17.5170309884       10.3873311325       11.2872224432
 Si        19.1413303290        7.7081617271        8.3216516817
  O        18.3908509306        6.6968615284        9.3984704269
  C        17.8327741817        8.8665133338        7.6920905401
  H        18.2460757960        9.6022655913        6.9909929480
  H        17.0258810759        8.3298929580        7.1770106487
  H        17.3858605539        9.4125983777        8.5313337007
  C        19.9172441555        6.6942542863        6.9749409558
  H        20.2923138609        7.3310458644        6.1635865488
  H        20.7748458025        6.1329792744        7.3678419516
  H        19.2011701526        5.9890918275        6.5321838317
 Si        18.0883556117        5.1978455196        9.9300885004
  O        16.7591002059        4.6392504579        9.0741451332
  C        19.5106005855        4.0618302426        9.6155724606
  H        19.3491466751        3.0679993888       10.0496905991
  H        19.6973853539        3.9428110288        8.5418605682
  H        20.4234550163        4.4811786479       10.0580564699
  C        17.5780605185        5.2933638850       11.7032569644
  H        18.3975771424        5.6823811756       12.3185557458
  H        16.7261805590        5.9753948138       11.8234510485
  H        17.2953076863        4.3139293226       12.1084996303
 Si        15.5042072680        3.8177784145        8.5162861535
  C        15.6348838122        3.4361906655        6.7134297296
  H        15.8999487340        4.3338516911        6.1405995692
  H        16.4225774685        2.6885564425        6.5443408924
  H        14.6972314400        3.0288621409        6.3121945245
  C        15.0191923798        2.3917600327        9.5870741974
  H        14.8309709000        2.7124999113       10.6189782009
  H        14.1183239717        1.8888089837        9.2140840516
  H        15.8244588593        1.6470328740        9.6132509512
 Si         2.5710630161       11.3203173630       15.3874629595
  O         3.3074561317        9.8742447232       15.0660938290
  C         2.9768058344       11.5417988025       17.2330213355
  H         3.0218334194       12.9365120932        0.9205307353
  H         3.3459100015       12.5877020591       17.2336259318
  H         3.7769919513       10.8451456146       17.5069394083
  C         1.4369510247       14.6048278040       12.4483611796
  H         2.3553708103       14.0334894252       12.6255866857
  H         0.6904780376       14.2497657082       13.1687823797
  H         1.6475560345       15.6583224698       12.6733839992
 Si         4.4566161102        9.0937972243       14.1659831148
  O         4.1555897874        7.4910982651       14.2203418332
  C         6.1220579649        9.4579952227       14.9131301195
  H         6.2178209564       10.5088052247       15.2163502863
  H         6.2856694593        8.8403031735       15.8040308925
  H         6.9400683940        9.2416136864       14.2153658708
  C         4.3206600271        9.6555881342       12.3984688328
  H         4.4694121890       10.7397755682       12.3181405445
  H         5.0694990766        9.1764029932       11.7547970011
  H         3.3245482810        9.4239045207       11.9979883730
 Si         3.5824498370        6.3003120627       15.2234597674
  O         3.3022163336        5.0362791472       14.2263658348
  C         2.0294763801        6.8403305323       16.0670636950
  H         1.2949425596        7.2305732586       15.3527319819
  H         1.5696126263        5.9967795471       16.5971924544
  H         2.2359933256        7.6307589971       16.7980041639
  C         4.9134247780        5.8279527448       16.4147891588
  H         5.7637147631        5.3848815528       15.8860851998
  H         5.2699906059        6.6938357870       16.9841074390
  H         4.5453375160        5.0845843279       17.1300393323
 Si         2.2713176931        4.1147897641       13.3581295076
  O         2.6689451817        2.5448086831       13.6602518655
  C         2.5699469947        4.4661991947       11.5537775834
  H         3.6322135738        4.3435195886       11.3094170187
  H         1.9970265276        3.7802864323       10.9164404157
  H         2.2651835709        5.4875066521       11.2927842420
  C        22.5026538741        4.3974227415       13.8143785774
  H         0.3412014683        4.2278069053       14.8856226772
  H        22.1869299583        5.4188382751       13.5660552631
  H        21.8561593258        3.7057213847       13.2581901694
 Si         3.8186463364        1.6406576049       14.4284189070
  O         5.2503195882        2.4511259818       14.5466717860
  C         4.0005111326       19.1759938917       13.3926989077
  H         4.0179090718       19.4255593360       12.3249355494
  H         4.9216485197       18.6313805013       13.6360628243
  H         3.1491304483       18.5039316733       13.5634217560
  C         6.2618428973        2.3899576203       11.8602484915
  H         5.9549849715        1.3733071023       11.5921911136
  H         5.4296256509        3.0658320877       11.6155742809
  H         7.1108311146        2.6451740071       11.2116266641
 Si         6.6835951377        2.4882404397       13.6968040921
  C         7.7978956107        1.2285686926       14.3067300636
  H         7.9037463316       17.9523763586       12.7186301672
  H         8.8113397778        1.0873612404       13.9342905667
  H         7.5440654929       19.6623006741       15.1461695141
  C         7.5552410429        4.1941776059       13.9082261642
  H         7.8480667878        4.2802033926       14.9628104997
  H         6.8904805974        5.0478148145       13.6953121529
 Si         8.9590562338       16.9478416508       12.9928283139
  O         8.3141436171       15.4451002337       12.7427656145
  C        10.3566420179       17.1613196602       11.7790484747
  H        11.1583907478       16.4347964047       11.9601009179
  H        10.0055709218       17.0305454273       10.7480621889
  H        10.7895859886       18.1669150145       11.8598867237
  C         9.5733998380       17.0892963225       14.7447760751
  H        10.2679776280       16.2691633696       14.9724035196
  H        10.1063119491       18.0344099405       14.9072692560
  H         8.7521145969       17.0474022683       15.4699350023
 Si         7.3270264885       14.2742297650       13.3085379439
  O         8.2374092559       12.9064784475       13.3917679144
  C         6.6968199528       14.6556655468       15.0039108047
  H         6.1426059304       15.6031222230       15.0179715855
  H         6.0226065431       13.8685118876       15.3644050939
  H         7.5231341583       14.7363260972       15.7199400168
  C         5.9425469706       14.0320194785       12.0868234963
  H         6.3338876470       13.8387688201       11.0797736878
  H         5.3032768210       13.1874103134       12.3738533740
  H         5.3131819258       14.9285922872       12.0292722943
 Si         9.2052427095       12.0603017550       12.3714030757
  O        10.3952109110       11.3961071372       13.2560285058
  C        10.0013229379       13.1753537043       11.1165530013
  H        10.6052000369       13.9331889009       11.6308076145
  H        10.6635914505       12.6066134771       10.4496677808
  H         9.2684347776       13.7106473129       10.4997620896
  C         8.2118920091       10.7145272594       11.5552027841
  H         7.7360211840       10.0756796459       12.3079902190
  H         7.4213298528       11.1309403403       10.9172955163
  H         8.8629785754       10.0852172972       10.9356938014
 Si        11.0829941357       10.6941334434       14.5627685187
  O        10.9420215760        9.0706127179       14.2866453836
  C        10.1712119169       11.1656287635       16.1013393080
  H        10.6097813113       10.7131776840       16.9995044614
  H        10.1763820302       12.2542796010       16.2361596149
  H         9.1232962518       10.8456444186       16.0365561845
  C        12.8728512859       11.2259462742       14.5428433409
  H        13.4621207859       10.6676904954       15.2832701137
  H        13.2684068253       10.9182564966       13.5628022734
 Si        11.0931036305        7.5668270550       14.9223227899
  O        10.3866385425        6.4941785827       13.8503284539
  C        10.1125500785        7.4207170963       16.4815981820
  H        10.0717936506        6.3709078975       16.7979407860
  H        10.4718701806        8.0094872057       17.3314779894
  H         9.0799225948        7.7240512747       16.2705676578
  C        12.9079400494        7.1891311921       15.0369114829
  H        13.1193678862        6.1718298613       15.3808572335
  H        13.3738433602        7.3238316444       14.0520014730
  H        13.4094628885        7.8787884718       15.7247779319
 Si        10.4017100553        4.8468684778       13.6682344923
  C         8.7918311589        4.1759634865       12.9608487084
  H         9.0550468164        3.1465067296       12.6729660569
  H         8.5669719945        4.6828730306       12.0116273608
  C        10.9231592795        3.9412342441       15.2262081705
  H        10.3947646892        4.2793975533       16.1239877463
  H        10.7164346732        2.8726783628       15.1041938411
  H        11.9955608533        4.0612079725       15.3985987685
 Si        19.5003655429        0.5309327037       15.8169874398
  O        18.1339648307       -0.2084733562       16.3491911660
  C        20.2994974799       18.6192678833       14.4585923312
  H        19.5806418452       18.4021793178       13.6593675866
  H        21.1441542004        0.0828441791       14.0162061505
  H        20.6818879819       17.6633560876       14.8368530209
  C        19.0435892175        2.2417128824       15.2514560501
  H        18.4377667384        2.2102258143       14.3386775131
  H        18.4595992764        2.7555790570       16.0194359953
  H        19.9314691572        2.8549172082       15.0584400470
 Si        17.2408878894       17.5243900910       16.6744288156
  O        16.6867713490       16.8958813104       15.2554504697
  C        18.3235086722       16.2485400073       17.4703656783
  H        19.2994495368       16.1818508080       16.9772442424
  H        18.4990862186       16.4831453095       18.5244651514
  H        17.8546237326       15.2595432909       17.4217289168
  C        15.8174588658       18.0365777745       17.7376270145
  H        15.1556762834       17.1822278788       17.9440993389
  H        16.1702084463       -0.6477676666       18.6986979603
  H        15.2245837021       18.8234856560       17.2552712029
 Si        15.4137325611       16.4685953073       14.3174286502
  O        15.0254346028       14.9044526290       14.6165749669
  C        13.9281022407       17.5078161953       14.7128776140
  H        13.0943884261       17.2722186184       14.0394190767
  H        13.5893413513       17.3187083391       15.7386331352
  H        14.1461645545       -0.5011186234       14.6203475431
  C        15.9606831351       16.6460150918       12.5505819641
  H        16.8621225559       16.0476477839       12.3679612573
  H        15.1851563508       16.3158565008       11.8479566394
  H        16.2042788206       17.6908625500       12.3207952556
 Si        14.7905057432       13.3268705048       14.2391344961
  O        15.8915315053       12.4451060672       15.0668446750
  C        13.0918664390       12.7532472033       14.7578613880
  H        12.9247371145       13.0179003499       15.8122415974
  H        12.3510781182       13.3314613295       14.1810109846
  C        15.0259455258       13.0763916371       12.4068386904
  H        15.0449219098       12.0075323796       12.1601356790
  H        14.2136567021       13.5404587293       11.8318643695
  H        15.9701015921       13.5125204449       12.0589182014
 Si        17.5277934807       12.2509430128       15.1603873420
  O        17.9667342640       10.9380716397       14.2923753275
  C        18.3800729459       13.7180169075       14.3983506208
  H        19.4698274003       13.6318161657       14.5019940474
  H        18.1557843172       13.7668304221       13.3240512863
  H        18.0657332862       14.6654448215       14.8529118221
  C        17.9717071227       11.9802204997       16.9343447851
  H        19.0479409979       11.7983389575       17.0456974191
  H        17.6957027015       12.8392390407       17.5569863996
  H        17.4384742521       11.1061984283       17.3298077130
 Si        17.8187546100        9.4693185923       13.5701192197
  C        19.0348140345        8.3123424052       14.3718008391
  H        18.9897863940        7.3045731914       13.9440592181
  H        20.0598343765        8.6828410714       14.2373553442
  H        18.8503578831        8.2234115898       15.4497941597
  C        16.0643430702        8.8668716194       13.7782512119
  H        15.8985913498        7.9243809375       13.2407406441
  H        15.8178785039        8.6963698330       14.8337860836
  H        15.3515426891        9.6080950121       13.3942461278
  O         7.8174525265       18.0926495706       24.6581299866
  H         8.1323942931       17.8563354211       25.5491717036
  H         7.4255866891       18.9823266430       24.7900179724
  O         4.0912534292        1.1910835209       26.0776351196
  H         3.8388502171        0.5340560140       26.7467667849
  H         3.4001194972        1.1025367171       25.4008540371
  O         1.7107222104       18.4857445264       25.6804310296
  H        22.8004802156       18.4403024564       25.3462155201
  H         1.6803185772       18.4263770367       26.6550968153
  O         3.8351977035        5.7002724592       24.1894670490
  H         4.7544252286        5.4961275189       24.4474405560
  H         3.7055839151        6.5662523158       24.6191118674
  O        13.4460683221        2.6509270691       22.8534877928
  H        13.0912735805        1.7507333927       22.8921463030
  H        14.3918718666        2.5411045743       23.0236159028
  O        17.2961594319        3.7765919683       24.0707717949
  H        17.7802015069        3.5822767960       24.8850437150
  H        17.2005842096        4.7409959729       24.0755070147
  O         6.6551779441        1.5937502794       25.2336445186
  H         5.7392122012        1.4653877350       25.5908871084
  H         6.6579645156        2.4871886098       24.8704456465
  O        11.0510858497       -0.2072773554       27.3448409838
  H        10.4573627073        0.4071184181       26.8823934105
  H        11.6160148419        0.3932556753       27.8888155127
  O         6.8450961133        8.8617525089       24.5956022761
  H         6.5921512826        8.9484719302       23.6654990208
  H         7.0845819168        7.9160687922       24.6796492463
  O        17.0532552119       17.9552041034       26.5242356294
  H        17.7508487311       17.3781812629       26.1900424329
  H        17.1565471475       17.9217843748       27.4962924878
  O         2.6927419973        3.4424053551       23.1134883904
  H         1.9977880605        3.6639651459       22.4782764625
  H         3.0206843581        4.3075152014       23.4642604595
  O         6.2935259897       15.8372898061       23.2410017118
  H         5.5116113218       16.1833710500       22.7872012539
  H         6.6987777920       16.6209023551       23.6584306480
  O         3.1838453363       15.3721387645       21.6333005072
  H         3.0244245302       16.1327333035       22.2287613787
  H         3.5172388455       14.6832777250       22.2238320619
  O        15.4535822261       13.1842986159       26.8463490916
  H        14.8323933212       13.8589328666       26.5207596220
  H        14.9169632627       12.3699242659       26.9414720553
  O         2.8780754317       17.6931953409       23.2904010346
  H         2.6543731328       17.7907928865       24.2373344427
  H         3.3596582682       18.5260715803       23.0716698468
  O         6.4273283700        6.0079953983       25.3878210295
  H         6.7272552838        5.3590770682       26.0609855828
  H         5.7656264529        6.5731801099       25.8501733359
  O        17.3475890350       10.7950564868       26.4669296236
  H        16.6826604683       10.7852039824       27.1743345896
  H        17.3123043173       11.7140905302       26.1557687464
  O         9.4098927583        0.5275510984       21.8289791846
  H         8.7380054542        1.2205785844       21.8824177972
  H         9.1057173852       18.9499132972       22.4773249658
  O         4.1551334495        1.0615649945       22.7932727484
  H         3.7046524328        1.9374860923       22.8741031034
  H         4.9934551142        1.1513269465       23.2731359123
  O        12.0420174591       15.1023677831       26.4612283508
  H        11.1706422840       14.7934220622       26.7655234693
  H        11.9201112167       16.0410052248       26.2578079251
  O         4.5046322723        7.9376570252       25.8838117101
  H         5.1635622466        8.5951197906       25.5764386078
  H         4.0062679033        8.3194471091       26.6492625578
  O        12.0393284889        7.8181385558       22.2072322116
  H        11.4401706013        7.6265845065       21.4509644596
  H        12.5205167772        6.9827233938       22.3007062476
  O        20.6566715347        6.0283591020       24.3990258393
  H        21.6251684726        6.0021068065       24.3691027186
  H        20.4468719704        6.9754067139       24.3688500683
  O        22.1287044448       18.3514465140       22.7344832800
  H        23.0651287502       18.0666418696       22.7124987041
  H        22.1640510494        0.1853109396       22.4177706538
  O        19.9775519178        4.5039601505       21.9574746441
  H        19.2225859370        3.9602492599       22.2300899324
  H        20.1502989424        5.0442651830       22.7507246562
  O         2.6879484183       11.5997521990       27.6133829628
  H         3.0098570827       11.8760861869       26.7436149297
  H         1.7967409914       11.9944842249       27.6692555049
  O        14.5435637338       10.4686564978       27.2269528512
  H        13.6586989023       10.2232491140       27.5369458321
  H        14.6214047287       10.0640983823       26.3460455133
  O         4.7211646091        1.0609889648       29.9329952895
  H         4.1924428107        0.4389075144       29.3950853831
  H         5.5815350759        0.6269589491       30.0836762990
  O         1.5818984940       16.5597127941       29.8042119147
  H         0.6519182024       16.8285653645       29.8937285040
  H         1.5378114326       15.6855576150       29.3797099392
  O        10.0849030040       13.1873625521       27.4208537160
  H         9.2151493772       12.8386749096       27.1710615001
  H        10.7032834470       12.6456272264       26.9068284013
  O         0.1837538530        9.9154253872       28.9251048756
  H        21.3039793859        9.7002522147       28.5272246301
  H         0.0812541951        9.7487333995       29.8752535128
  O        19.9608896642        9.8866573684       27.4087146987
  H        18.9868158831        9.8550888683       27.4174371545
  H        20.1187462415       10.7840289432       27.0734746996
  O        19.3071646825       12.8614937058       29.1015588468
  H        19.5757535465       12.9940095910       30.0217168625
  H        18.4168708561       13.2801891979       29.0641505427
  O         7.9960992972       18.9466758055       30.2807118072
  H         8.8107232123        0.3700913950       30.4312970720
  H         8.1710897875       18.5004881282       29.4219344492
  O        16.0104275822        7.4868280549       29.9341305789
  H        15.3256160037        7.5584145748       30.6151426303
  H        15.5882039668        7.8516829902       29.1434671627
  O         5.1335448635        3.6381667214       28.9103793868
  H         4.9969827737        2.7099115345       29.2162314624
  H         5.1509644406        4.1623998827       29.7244270945
  O         3.0518959548        8.8813547574       28.0044085514
  H         2.1421811409        8.5556607665       28.0956593009
  H         2.9088783315        9.8545707528       27.9141868227
  O        16.6852700470       13.9140539657       29.2243914285
  H        16.1691161298       13.5055300497       29.9318263509
  H        16.2000149285       13.6931210154       28.3945549892
  O        19.9195435932        2.9107381441       29.6104628057
  H        19.3460341290        3.6782274592       29.7530057284
  H        20.2008071740        2.9958508559       28.6866097118
  O         9.8965584697        5.6276353729       27.1035725106
  H         9.6089360587        6.1998138118       26.3780179912
  H         9.0709999306        5.1853711269       27.3719438127
  O        19.0682317826       16.9612865083       30.9637981659
  H        19.4393647806       17.7716548155       30.5213680335
  H        18.7719751727       17.2771089675       31.8324333858
  O        12.4791644819        1.7184086379       28.7164743566
  H        13.4358589796        1.5510737493       28.6452907345
  H        12.3521347420        2.5963449618       28.3154671994
  O        16.9238637441       17.8156464938       29.3600863840
  H        17.6142087432       17.3334665407       29.8729609753
  H        16.1813511981       17.1913430355       29.3326904672
  O         2.5674299523       -0.3312009046       28.4517211877
  H         2.3321170394       17.9146203946       28.9346109585
  H         1.9578431998        0.3183481860       28.8404351661
  O        20.0524934975        0.0009906226       29.6133786987
  H        20.8840675944        0.2406431569       30.0732821005
  H        19.5418521664        0.8342422187       29.6187553880
  O         7.3314843918        4.1033566354       27.3531980883
  H         6.5535990680        3.9290782410       27.9478484045
  H         7.5185040642        3.2343953858       26.9605671888
  O         0.5570963537       19.2174584976       30.9636863928
  H         0.9468990810        0.9889684190       31.2230818975
  H         0.6199495975       -0.4085965683       31.7619903241
  O         8.6823100045       17.6186387613       27.7461512494
  H         9.6497055196       17.8067179092       27.7185516159
  H         8.5877046840       16.6693837945       27.8720710121
  O        21.9379512197       12.6416723094       28.0045624310
  H        21.0398460307       12.9800336893       28.1983129932
  H        21.9392912848       11.7681863090       28.4554850722
  O         7.7583867589        9.4728181801       29.9985833911
  H         6.9798786771        9.2164971891       29.4860001232
  H         7.3934915879       10.0111082233       30.7142119228
