523
Lattice="22.0 0.0 0.0 0.0 19.07996254642244 0.0 0.0 0.0 20.0" Properties=species:S:1:pos:R:3:tags:I:1 pbc="T T T"
Si       4.12500000      17.06664794       3.07770880        0
O        4.12500000      15.43664794       3.07770880        0
C        5.88805291      17.68998127       3.07770880        0
H        5.88805291      17.68998127       4.16770880        0
H        6.20270880      16.80000000       2.53270880        0
H        5.57339701      18.57996255       2.53270880        0
C        2.36194709      17.68998127       3.07770880        0
H        2.36194709      17.68998127       1.98770880        0
H        2.04729120      16.80000000       3.62270880        0
H        2.67660299      18.57996255       3.62270880        0
Si       4.12500000      13.80664794       3.07770880        0
O        4.12500000      12.17664794       3.07770880        0
C        5.37166667      14.42998127       4.32437547        0
H        4.60092028      14.42998127       5.09512186        0
H        5.97953518      13.54000000       4.16149759        0
H        5.53454454      15.31996255       3.71650696        0
C        2.87833333      14.42998127       1.83104214        0
H        3.64907972      14.42998127       1.06029575        0
H        2.27046482      13.54000000       1.99392002        0
H        2.71545546      15.31996255       2.43891065        0
Si       4.12500000      10.54664794       3.07770880        0
O        4.12500000       8.91664794       3.07770880        0
C        4.12500000      11.16998127       4.84076171        0
H        3.03500000      11.16998127       4.84076171        0
H        4.67000000      10.28000000       5.15541761        0
H        4.67000000      12.05996255       4.52610582        0
C        4.12500000      11.16998127       1.31465590        0
H        5.21500000      11.16998127       1.31465590        0
H        3.58000000      10.28000000       1.00000000        0
H        3.58000000      12.05996255       1.62931179        0
Si       4.12500000       7.28664794       3.07770880        0
O        4.12500000       5.65664794       3.07770880        0
C        2.87833333       7.90998127       4.32437547        0
H        2.10758694       7.90998127       3.55362908        0
H        3.04121121       7.02000000       4.93224399        0
H        3.48620185       8.79996255       4.48725335        0
C        5.37166667       7.90998127       1.83104214        0
H        6.14241306       7.90998127       2.60178853        0
H        5.20878879       7.02000000       1.22317362        0
H        4.76379815       8.79996255       1.66816426        0
Si       4.12500000       4.02664794       3.07770880        0
O        4.12500000       2.39664794       3.07770880        0
C        2.36194709       4.64998127       3.07770880        0
H        2.36194709       4.64998127       1.98770880        0
H        2.04729120       3.76000000       3.62270880        0
H        2.67660299       5.53996255       3.62270880        0
C        5.88805291       4.64998127       3.07770880        0
H        5.88805291       4.64998127       4.16770880        0
H        6.20270880       3.76000000       2.53270880        0
H        5.57339701       5.53996255       2.53270880        0
Si       4.12500000       0.76664794       3.07770880        0
C        2.87833333       1.38998127       1.83104214        0
H        3.64907972       1.38998127       1.06029575        0
H        2.27046482       0.50000000       1.99392002        0
H        2.71545546       2.27996255       2.43891065        0
C        5.37166667       1.38998127       4.32437547        0
H        4.60092028       1.38998127       5.09512186        0
H        5.97953518       0.50000000       4.16149759        0
H        5.53454454       2.27996255       3.71650696        0
Si       9.62500000      17.06664794       3.07770880        1
O        9.62500000      15.43664794       3.07770880        1
C       11.38805291      17.68998127       3.07770880        1
H       11.38805291      17.68998127       4.16770880        1
H       11.70270880      16.80000000       2.53270880        1
H       11.07339701      18.57996255       2.53270880        1
C        7.86194709      17.68998127       3.07770880        1
H        7.86194709      17.68998127       1.98770880        1
H        7.54729120      16.80000000       3.62270880        1
H        8.17660299      18.57996255       3.62270880        1
Si       9.62500000      13.80664794       3.07770880        1
O        9.62500000      12.17664794       3.07770880        1
C       10.87166667      14.42998127       4.32437547        1
H       10.10092028      14.42998127       5.09512186        1
H       11.47953518      13.54000000       4.16149759        1
H       11.03454454      15.31996255       3.71650696        1
C        8.37833333      14.42998127       1.83104214        1
H        9.14907972      14.42998127       1.06029575        1
H        7.77046482      13.54000000       1.99392002        1
H        8.21545546      15.31996255       2.43891065        1
Si       9.62500000      10.54664794       3.07770880        1
O        9.62500000       8.91664794       3.07770880        1
C        9.62500000      11.16998127       4.84076171        1
H        8.53500000      11.16998127       4.84076171        1
H       10.17000000      10.28000000       5.15541761        1
H       10.17000000      12.05996255       4.52610582        1
C        9.62500000      11.16998127       1.31465590        1
H       10.71500000      11.16998127       1.31465590        1
H        9.08000000      10.28000000       1.00000000        1
H        9.08000000      12.05996255       1.62931179        1
Si       9.62500000       7.28664794       3.07770880        1
O        9.62500000       5.65664794       3.07770880        1
C        8.37833333       7.90998127       4.32437547        1
H        7.60758694       7.90998127       3.55362908        1
H        8.54121121       7.02000000       4.93224399        1
H        8.98620185       8.79996255       4.48725335        1
C       11.78228637       7.90998127       2.58619018        1
H       11.61940849       7.02000000       1.97832167        1
H       11.17441786       8.79996255       2.42331231        1
Si       9.62500000       4.02664794       3.07770880        1
O        9.62500000       2.39664794       3.07770880        1
C        7.86194709       4.64998127       3.07770880        1
H        7.86194709       4.64998127       1.98770880        1
H        7.54729120       3.76000000       3.62270880        1
H        8.17660299       5.53996255       3.62270880        1
C       11.38805291       4.64998127       3.07770880        1
H       11.38805291       4.64998127       4.16770880        1
H       11.70270880       3.76000000       2.53270880        1
H       11.07339701       5.53996255       2.53270880        1
Si       9.62500000       0.76664794       3.07770880        1
C        8.37833333       1.38998127       1.83104214        1
H        9.14907972       1.38998127       1.06029575        1
H        7.77046482       0.50000000       1.99392002        1
H        8.21545546       2.27996255       2.43891065        1
C       10.87166667       1.38998127       4.32437547        1
H       10.10092028       1.38998127       5.09512186        1
H       11.47953518       0.50000000       4.16149759        1
H       11.03454454       2.27996255       3.71650696        1
Si      15.12500000      17.06664794       3.07770880        2
O       15.12500000      15.43664794       3.07770880        2
C       16.88805291      17.68998127       3.07770880        2
H       16.88805291      17.68998127       4.16770880        2
H       17.20270880      16.80000000       2.53270880        2
H       16.57339701      18.57996255       2.53270880        2
C       13.36194709      17.68998127       3.07770880        2
H       13.36194709      17.68998127       1.98770880        2
H       13.04729120      16.80000000       3.62270880        2
H       13.67660299      18.57996255       3.62270880        2
Si      15.12500000      13.80664794       3.07770880        2
O       15.12500000      12.17664794       3.07770880        2
C       16.37166667      14.42998127       4.32437547        2
H       15.60092028      14.42998127       5.09512186        2
H       16.97953518      13.54000000       4.16149759        2
H       16.53454454      15.31996255       3.71650696        2
C       13.87833333      14.42998127       1.83104214        2
H       14.64907972      14.42998127       1.06029575        2
H       13.27046482      13.54000000       1.99392002        2
H       13.71545546      15.31996255       2.43891065        2
Si      15.12500000      10.54664794       3.07770880        2
O       15.12500000       8.91664794       3.07770880        2
C       15.12500000      11.16998127       4.84076171        2
H       14.03500000      11.16998127       4.84076171        2
H       15.67000000      10.28000000       5.15541761        2
H       15.67000000      12.05996255       4.52610582        2
C       15.12500000      11.16998127       1.31465590        2
H       16.21500000      11.16998127       1.31465590        2
H       14.58000000      10.28000000       1.00000000        2
H       14.58000000      12.05996255       1.62931179        2
Si      15.12500000       7.28664794       3.07770880        2
O       15.12500000       5.65664794       3.07770880        2
C       12.96771363       7.90998127       3.56922742        2
H       13.13059151       7.02000000       4.17709594        2
H       13.57558214       8.79996255       3.73210530        2
C       16.37166667       7.90998127       1.83104214        2
H       17.14241306       7.90998127       2.60178853        2
H       16.20878879       7.02000000       1.22317362        2
H       15.76379815       8.79996255       1.66816426        2
Si      15.12500000       4.02664794       3.07770880        2
O       15.12500000       2.39664794       3.07770880        2
C       13.36194709       4.64998127       3.07770880        2
H       13.36194709       4.64998127       1.98770880        2
H       13.04729120       3.76000000       3.62270880        2
H       13.67660299       5.53996255       3.62270880        2
C       16.88805291       4.64998127       3.07770880        2
H       16.88805291       4.64998127       4.16770880        2
H       17.20270880       3.76000000       2.53270880        2
H       16.57339701       5.53996255       2.53270880        2
Si      15.12500000       0.76664794       3.07770880        2
C       13.87833333       1.38998127       1.83104214        2
H       14.64907972       1.38998127       1.06029575        2
H       13.27046482       0.50000000       1.99392002        2
H       13.71545546       2.27996255       2.43891065        2
C       16.37166667       1.38998127       4.32437547        2
H       15.60092028       1.38998127       5.09512186        2
H       16.97953518       0.50000000       4.16149759        2
H       16.53454454       2.27996255       3.71650696        2
Si       6.87500000      17.06664794       7.84084853        3
O        6.87500000      15.43664794       7.84084853        3
C        8.63805291      17.68998127       7.84084853        3
H        8.63805291      17.68998127       8.93084853        3
H        8.95270880      16.80000000       7.29584853        3
H        8.32339701      18.57996255       7.29584853        3
C        5.11194709      17.68998127       7.84084853        3
H        5.11194709      17.68998127       6.75084853        3
H        4.79729120      16.80000000       8.38584853        3
H        5.42660299      18.57996255       8.38584853        3
Si       6.87500000      13.80664794       7.84084853        3
O        6.87500000      12.17664794       7.84084853        3
C        8.12166667      14.42998127       9.08751519        3
H        7.35092028      14.42998127       9.85826158        3
H        8.72953518      13.54000000       8.92463731        3
H        8.28454454      15.31996255       8.47964668        3
C        5.62833333      14.42998127       6.59418186        3
H        6.39907972      14.42998127       5.82343547        3
H        5.02046482      13.54000000       6.75705974        3
H        5.46545546      15.31996255       7.20205037        3
Si       6.87500000      10.54664794       7.84084853        3
O        6.87500000       8.91664794       7.84084853        3
C        6.87500000      11.16998127       9.60390143        3
H        5.78500000      11.16998127       9.60390143        3
H        7.42000000      10.28000000       9.91855733        3
H        7.42000000      12.05996255       9.28924554        3
C        6.87500000      11.16998127       6.07779562        3
H        7.96500000      11.16998127       6.07779562        3
H        6.33000000      10.28000000       5.76313972        3
H        6.33000000      12.05996255       6.39245151        3
Si       6.87500000       7.28664794       7.84084853        3
O        6.87500000       5.65664794       7.84084853        3
C        5.62833333       7.90998127       9.08751519        3
H        4.85758694       7.90998127       8.31676880        3
H        5.79121121       7.02000000       9.69538371        3
H        6.23620185       8.79996255       9.25039307        3
C        8.12166667       7.90998127       6.59418186        3
H        8.89241306       7.90998127       7.36492825        3
H        7.95878879       7.02000000       5.98631334        3
H        7.51379815       8.79996255       6.43130398        3
Si       6.87500000       4.02664794       7.84084853        3
O        6.87500000       2.39664794       7.84084853        3
C        5.11194709       4.64998127       7.84084853        3
H        5.11194709       4.64998127       6.75084853        3
H        4.79729120       3.76000000       8.38584853        3
H        5.42660299       5.53996255       8.38584853        3
C        8.63805291       4.64998127       7.84084853        3
H        8.63805291       4.64998127       8.93084853        3
H        8.95270880       3.76000000       7.29584853        3
H        8.32339701       5.53996255       7.29584853        3
Si       6.87500000       0.76664794       7.84084853        3
C        5.62833333       1.38998127       6.59418186        3
H        6.39907972       1.38998127       5.82343547        3
H        5.02046482       0.50000000       6.75705974        3
H        5.46545546       2.27996255       7.20205037        3
C        9.03228637       1.38998127       8.33236714        3
H        9.64015488       0.50000000       8.16948927        3
H        9.19516425       2.27996255       7.72449863        3
Si      12.37500000      17.06664794       7.84084853        4
O       12.37500000      15.43664794       7.84084853        4
C       14.13805291      17.68998127       7.84084853        4
H       14.13805291      17.68998127       8.93084853        4
H       14.45270880      16.80000000       7.29584853        4
H       13.82339701      18.57996255       7.29584853        4
C       10.61194709      17.68998127       7.84084853        4
H       10.61194709      17.68998127       6.75084853        4
H       10.29729120      16.80000000       8.38584853        4
H       10.92660299      18.57996255       8.38584853        4
Si      12.37500000      13.80664794       7.84084853        4
O       12.37500000      12.17664794       7.84084853        4
C       13.62166667      14.42998127       9.08751519        4
H       12.85092028      14.42998127       9.85826158        4
H       14.22953518      13.54000000       8.92463731        4
H       13.78454454      15.31996255       8.47964668        4
C       11.12833333      14.42998127       6.59418186        4
H       11.89907972      14.42998127       5.82343547        4
H       10.52046482      13.54000000       6.75705974        4
H       10.96545546      15.31996255       7.20205037        4
Si      12.37500000      10.54664794       7.84084853        4
O       12.37500000       8.91664794       7.84084853        4
C       12.37500000      11.16998127       9.60390143        4
H       11.28500000      11.16998127       9.60390143        4
H       12.92000000      10.28000000       9.91855733        4
H       12.92000000      12.05996255       9.28924554        4
C       12.37500000      11.16998127       6.07779562        4
H       13.46500000      11.16998127       6.07779562        4
H       11.83000000      10.28000000       5.76313972        4
H       11.83000000      12.05996255       6.39245151        4
Si      12.37500000       7.28664794       7.84084853        4
O       12.37500000       5.65664794       7.84084853        4
C       11.12833333       7.90998127       9.08751519        4
H       10.35758694       7.90998127       8.31676880        4
H       11.29121121       7.02000000       9.69538371        4
H       11.73620185       8.79996255       9.25039307        4
C       13.62166667       7.90998127       6.59418186        4
H       14.39241306       7.90998127       7.36492825        4
H       13.45878879       7.02000000       5.98631334        4
H       13.01379815       8.79996255       6.43130398        4
Si      12.37500000       4.02664794       7.84084853        4
O       12.37500000       2.39664794       7.84084853        4
C       10.61194709       4.64998127       7.84084853        4
H       10.61194709       4.64998127       6.75084853        4
H       10.29729120       3.76000000       8.38584853        4
H       10.92660299       5.53996255       8.38584853        4
C       14.13805291       4.64998127       7.84084853        4
H       14.13805291       4.64998127       8.93084853        4
H       14.45270880       3.76000000       7.29584853        4
H       13.82339701       5.53996255       7.29584853        4
Si      12.37500000       0.76664794       7.84084853        4
C       10.21771363       1.38998127       7.34932991        4
H        9.60984512       0.50000000       7.51220778        4
H       10.05483575       2.27996255       7.95719842        4
C       13.62166667       1.38998127       9.08751519        4
H       12.85092028       1.38998127       9.85826158        4
H       14.22953518       0.50000000       8.92463731        4
H       13.78454454       2.27996255       8.47964668        4
Si      17.87500000      17.06664794       7.84084853        5
O       17.87500000      15.43664794       7.84084853        5
C       19.63805291      17.68998127       7.84084853        5
H       19.63805291      17.68998127       8.93084853        5
H       19.95270880      16.80000000       7.29584853        5
H       19.32339701      18.57996255       7.29584853        5
C       16.11194709      17.68998127       7.84084853        5
H       16.11194709      17.68998127       6.75084853        5
H       15.79729120      16.80000000       8.38584853        5
H       16.42660299      18.57996255       8.38584853        5
Si      17.87500000      13.80664794       7.84084853        5
O       17.87500000      12.17664794       7.84084853        5
C       19.12166667      14.42998127       9.08751519        5
H       18.35092028      14.42998127       9.85826158        5
H       19.72953518      13.54000000       8.92463731        5
H       19.28454454      15.31996255       8.47964668        5
C       16.62833333      14.42998127       6.59418186        5
H       17.39907972      14.42998127       5.82343547        5
H       16.02046482      13.54000000       6.75705974        5
H       16.46545546      15.31996255       7.20205037        5
Si      17.87500000      10.54664794       7.84084853        5
O       17.87500000       8.91664794       7.84084853        5
C       17.87500000      11.16998127       9.60390143        5
H       16.78500000      11.16998127       9.60390143        5
H       18.42000000      10.28000000       9.91855733        5
H       18.42000000      12.05996255       9.28924554        5
C       17.87500000      11.16998127       6.07779562        5
H       18.96500000      11.16998127       6.07779562        5
H       17.33000000      10.28000000       5.76313972        5
H       17.33000000      12.05996255       6.39245151        5
Si      17.87500000       7.28664794       7.84084853        5
O       17.87500000       5.65664794       7.84084853        5
C       16.62833333       7.90998127       9.08751519        5
H       15.85758694       7.90998127       8.31676880        5
H       16.79121121       7.02000000       9.69538371        5
H       17.23620185       8.79996255       9.25039307        5
C       19.12166667       7.90998127       6.59418186        5
H       19.89241306       7.90998127       7.36492825        5
H       18.95878879       7.02000000       5.98631334        5
H       18.51379815       8.79996255       6.43130398        5
Si      17.87500000       4.02664794       7.84084853        5
O       17.87500000       2.39664794       7.84084853        5
C       16.11194709       4.64998127       7.84084853        5
H       16.11194709       4.64998127       6.75084853        5
H       15.79729120       3.76000000       8.38584853        5
H       16.42660299       5.53996255       8.38584853        5
C       19.63805291       4.64998127       7.84084853        5
H       19.63805291       4.64998127       8.93084853        5
H       19.95270880       3.76000000       7.29584853        5
H       19.32339701       5.53996255       7.29584853        5
Si      17.87500000       0.76664794       7.84084853        5
C       16.62833333       1.38998127       6.59418186        5
H       17.39907972       1.38998127       5.82343547        5
H       16.02046482       0.50000000       6.75705974        5
H       16.46545546       2.27996255       7.20205037        5
C       19.12166667       1.38998127       9.08751519        5
H       18.35092028       1.38998127       9.85826158        5
H       19.72953518       0.50000000       8.92463731        5
H       19.28454454       2.27996255       8.47964668        5
Si       4.12500000      17.06664794      12.60398825        6
O        4.12500000      15.43664794      12.60398825        6
C        5.88805291      17.68998127      12.60398825        6
H        5.88805291      17.68998127      13.69398825        6
H        6.20270880      16.80000000      12.05898825        6
H        5.57339701      18.57996255      12.05898825        6
C        2.36194709      17.68998127      12.60398825        6
H        2.36194709      17.68998127      11.51398825        6
H        2.04729120      16.80000000      13.14898825        6
H        2.67660299      18.57996255      13.14898825        6
Si       4.12500000      13.80664794      12.60398825        6
O        4.12500000      12.17664794      12.60398825        6
C        5.37166667      14.42998127      13.85065491        6
H        4.60092028      14.42998127      14.62140130        6
H        5.97953518      13.54000000      13.68777704        6
H        5.53454454      15.31996255      13.24278640        6
C        2.87833333      14.42998127      11.35732158        6
H        3.64907972      14.42998127      10.58657519        6
H        2.27046482      13.54000000      11.52019946        6
H        2.71545546      15.31996255      11.96519009        6
Si       4.12500000      10.54664794      12.60398825        6
O        4.12500000       8.91664794      12.60398825        6
C        4.12500000      11.16998127      14.36704115        6
H        3.03500000      11.16998127      14.36704115        6
H        4.67000000      10.28000000      14.68169705        6
H        4.67000000      12.05996255      14.05238526        6
C        4.12500000      11.16998127      10.84093534        6
H        5.21500000      11.16998127      10.84093534        6
H        3.58000000      10.28000000      10.52627944        6
H        3.58000000      12.05996255      11.15559124        6
Si       4.12500000       7.28664794      12.60398825        6
O        4.12500000       5.65664794      12.60398825        6
C        2.87833333       7.90998127      13.85065491        6
H        2.10758694       7.90998127      13.07990852        6
H        3.04121121       7.02000000      14.45852343        6
H        3.48620185       8.79996255      14.01353279        6
C        5.37166667       7.90998127      11.35732158        6
H        6.14241306       7.90998127      12.12806797        6
H        5.20878879       7.02000000      10.74945307        6
H        4.76379815       8.79996255      11.19444370        6
Si       4.12500000       4.02664794      12.60398825        6
O        4.12500000       2.39664794      12.60398825        6
C        2.36194709       4.64998127      12.60398825        6
H        2.36194709       4.64998127      11.51398825        6
H        2.04729120       3.76000000      13.14898825        6
H        2.67660299       5.53996255      13.14898825        6
C        5.88805291       4.64998127      12.60398825        6
H        5.88805291       4.64998127      13.69398825        6
H        6.20270880       3.76000000      12.05898825        6
H        5.57339701       5.53996255      12.05898825        6
Si       4.12500000       0.76664794      12.60398825        6
C        2.87833333       1.38998127      11.35732158        6
H        3.64907972       1.38998127      10.58657519        6
H        2.27046482       0.50000000      11.52019946        6
H        2.71545546       2.27996255      11.96519009        6
C        6.28228637       1.38998127      13.09550687        6
H        6.89015488       0.50000000      12.93262899        6
H        6.44516425       2.27996255      12.48763835        6
Si       9.62500000      17.06664794      12.60398825        7
O        9.62500000      15.43664794      12.60398825        7
C       11.38805291      17.68998127      12.60398825        7
H       11.38805291      17.68998127      13.69398825        7
H       11.70270880      16.80000000      12.05898825        7
H       11.07339701      18.57996255      12.05898825        7
C        7.86194709      17.68998127      12.60398825        7
H        7.86194709      17.68998127      11.51398825        7
H        7.54729120      16.80000000      13.14898825        7
H        8.17660299      18.57996255      13.14898825        7
Si       9.62500000      13.80664794      12.60398825        7
O        9.62500000      12.17664794      12.60398825        7
C       10.87166667      14.42998127      13.85065491        7
H       10.10092028      14.42998127      14.62140130        7
H       11.47953518      13.54000000      13.68777704        7
H       11.03454454      15.31996255      13.24278640        7
C        8.37833333      14.42998127      11.35732158        7
H        9.14907972      14.42998127      10.58657519        7
H        7.77046482      13.54000000      11.52019946        7
H        8.21545546      15.31996255      11.96519009        7
Si       9.62500000      10.54664794      12.60398825        7
O        9.62500000       8.91664794      12.60398825        7
C        9.62500000      11.16998127      14.36704115        7
H        8.53500000      11.16998127      14.36704115        7
H       10.17000000      10.28000000      14.68169705        7
H       10.17000000      12.05996255      14.05238526        7
C        9.62500000      11.16998127      10.84093534        7
H       10.71500000      11.16998127      10.84093534        7
H        9.08000000      10.28000000      10.52627944        7
H        9.08000000      12.05996255      11.15559124        7
Si       9.62500000       7.28664794      12.60398825        7
O        9.62500000       5.65664794      12.60398825        7
C        8.37833333       7.90998127      13.85065491        7
H        7.60758694       7.90998127      13.07990852        7
H        8.54121121       7.02000000      14.45852343        7
H        8.98620185       8.79996255      14.01353279        7
C       11.78228637       7.90998127      12.11246963        7
H       11.61940849       7.02000000      11.50460111        7
H       11.17441786       8.79996255      11.94959175        7
Si       9.62500000       4.02664794      12.60398825        7
O        9.62500000       2.39664794      12.60398825        7
C        7.86194709       4.64998127      12.60398825        7
H        7.86194709       4.64998127      11.51398825        7
H        7.54729120       3.76000000      13.14898825        7
H        8.17660299       5.53996255      13.14898825        7
C       11.38805291       4.64998127      12.60398825        7
H       11.38805291       4.64998127      13.69398825        7
H       11.70270880       3.76000000      12.05898825        7
H       11.07339701       5.53996255      12.05898825        7
Si       9.62500000       0.76664794      12.60398825        7
C        7.46771363       1.38998127      12.11246963        7
H        6.85984512       0.50000000      12.27534750        7
H        7.30483575       2.27996255      12.72033814        7
C       10.87166667       1.38998127      13.85065491        7
H       10.10092028       1.38998127      14.62140130        7
H       11.47953518       0.50000000      13.68777704        7
H       11.03454454       2.27996255      13.24278640        7
Si      15.12500000      17.06664794      12.60398825        8
O       15.12500000      15.43664794      12.60398825        8
C       16.88805291      17.68998127      12.60398825        8
H       16.88805291      17.68998127      13.69398825        8
H       17.20270880      16.80000000      12.05898825        8
H       16.57339701      18.57996255      12.05898825        8
C       13.36194709      17.68998127      12.60398825        8
H       13.36194709      17.68998127      11.51398825        8
H       13.04729120      16.80000000      13.14898825        8
H       13.67660299      18.57996255      13.14898825        8
Si      15.12500000      13.80664794      12.60398825        8
O       15.12500000      12.17664794      12.60398825        8
C       16.37166667      14.42998127      13.85065491        8
H       15.60092028      14.42998127      14.62140130        8
H       16.97953518      13.54000000      13.68777704        8
H       16.53454454      15.31996255      13.24278640        8
C       13.87833333      14.42998127      11.35732158        8
H       14.64907972      14.42998127      10.58657519        8
H       13.27046482      13.54000000      11.52019946        8
H       13.71545546      15.31996255      11.96519009        8
Si      15.12500000      10.54664794      12.60398825        8
O       15.12500000       8.91664794      12.60398825        8
C       15.12500000      11.16998127      14.36704115        8
H       14.03500000      11.16998127      14.36704115        8
H       15.67000000      10.28000000      14.68169705        8
H       15.67000000      12.05996255      14.05238526        8
C       15.12500000      11.16998127      10.84093534        8
H       16.21500000      11.16998127      10.84093534        8
H       14.58000000      10.28000000      10.52627944        8
H       14.58000000      12.05996255      11.15559124        8
Si      15.12500000       7.28664794      12.60398825        8
O       15.12500000       5.65664794      12.60398825        8
C       12.96771363       7.90998127      13.09550687        8
H       13.13059151       7.02000000      13.70337538        8
H       13.57558214       8.79996255      13.25838474        8
C       16.37166667       7.90998127      11.35732158        8
H       17.14241306       7.90998127      12.12806797        8
H       16.20878879       7.02000000      10.74945307        8
H       15.76379815       8.79996255      11.19444370        8
Si      15.12500000       4.02664794      12.60398825        8
O       15.12500000       2.39664794      12.60398825        8
C       13.36194709       4.64998127      12.60398825        8
H       13.36194709       4.64998127      11.51398825        8
H       13.04729120       3.76000000      13.14898825        8
H       13.67660299       5.53996255      13.14898825        8
C       16.88805291       4.64998127      12.60398825        8
H       16.88805291       4.64998127      13.69398825        8
H       17.20270880       3.76000000      12.05898825        8
H       16.57339701       5.53996255      12.05898825        8
Si      15.12500000       0.76664794      12.60398825        8
C       13.87833333       1.38998127      11.35732158        8
H       14.64907972       1.38998127      10.58657519        8
H       13.27046482       0.50000000      11.52019946        8
H       13.71545546       2.27996255      11.96519009        8
C       16.37166667       1.38998127      13.85065491        8
H       15.60092028       1.38998127      14.62140130        8
H       16.97953518       0.50000000      13.68777704        8
H       16.53454454       2.27996255      13.24278640        8
