523
 Atoms. Timestep: 21168
Si 7.29094 4.19527 2.59833
O 7.20755 5.43951 3.75676
C 17.4427 5.77002 6.35722
H 13.8445 9.86106 8.93166
H 4.89344 12.9581 2.42076
H 17.2268 6.72024 6.901
C 21.7722 4.88823 9.43195
H 17.5283 16.356 3.02163
H 12.1654 1.06033 8.76334
H 10.958 18.139 14.0233
Si 7.51499 7.04148 2.99525
O 6.73095 6.98894 1.55848
C 6.98144 8.61321 4.05024
H 0.29011 0.420026 12.368
H 6.48603 8.43013 5.00859
H 6.23391 9.15371 3.33057
C 8.2162 9.37239 4.23018
H 18.1651 12.7251 10.4116
H 16.731 0.401386 17.9675
H 20.8461 17.1946 19.4192
Si 5.52559 6.06204 0.891632
O 5.85067 4.44854 1.66461
C 5.94699 6.45644 19.0232
H 6.57122 7.31311 18.8718
H 6.63281 5.6102 18.9145
H 5.23669 6.2649 18.1801
C 3.53862 6.47093 1.0248
H 3.42868 6.62737 2.0385
H 3.30595 7.37247 0.417513
H 2.74454 5.66357 0.945271
Si 7.21911 2.05808 3.66828
O 6.99876 0.806846 2.63781
C 15.5648 17.4961 9.36497
H 14.9585 0.475138 9.76083
H 17.1901 13.8248 16.0038
H 5.18144 4.47526 7.41813
C 9.04644 3.74237 2.00815
H 14.0988 2.03963 2.39992
H 17.279 9.77278 2.35974
H 9.63113 3.70152 2.86573
Si 3.81748 17.3281 2.10331
O 4.37761 18.9453 1.19414
C 4.51717 13.5763 3.2206
H 0.111903 5.80126 9.31036
H 3.44849 13.3336 3.29603
H 21.049 16.1453 4.11745
C 13.8132 7.0065 6.60781
H 14.4029 7.92736 6.77845
H 13.4588 6.53279 7.50908
H 14.4937 6.29032 6.11197
Si 5.14734 0.471914 2.56298
C 18.9933 14.1257 17.2946
H 18.9802 4.44717 17.4203
H 4.64442 16.2784 1.42182
H 11.921 17.9844 3.31546
C 11.3679 18.4763 19.4713
H 21.3927 3.79512 12.6908
H 20.7593 3.79752 12.81
H 4.94147 13.3549 4.22824
Si 9.04608 16.2786 18.6168
O 12.4432 6.89696 10.1022
C 9.17722 3.38608 9.17891
H 9.80854 2.50168 9.12222
H 9.69549 4.23301 8.68306
H 9.04867 3.66797 10.2347
C 13.1978 6.10088 10.4428
H 13.3897 2.75366 11.1947
H 18.3303 4.32732 18.983
H 8.22224 3.22718 8.67748
Si 19.8185 2.32341 18.3198
O 9.2424 14.8408 19.4878
C 7.91143 11.4629 1.0274
H 4.57825 17.1453 14.4052
H 13.149 1.40219 6.12159
H 6.62544 14.7547 15.851
C 18.8472 14.0525 18.6511
H 17.0065 2.81289 9.89906
H 0.512789 1.47547 12.2859
H 17.1991 4.71741 9.95978
Si 8.71512 13.5282 0.459158
O 10.9178 10.4686 19.4327
C 20.8064 0.109298 9.7631
H 20.3158 18.8235 8.85787
H 21.5036 18.2556 9.84034
H 20.0061 0.284633 10.4171
C 9.97184 17.8698 19.0824
H 2.89318 11.4992 3.8388
H 13.5529 2.26424 6.13487
H 18.0423 1.0025 12.6229
Si 12.4383 10.6655 19.8765
O 11.6771 11.9174 2.11732
C 13.2171 12.2669 19.4668
H 12.8378 12.962 0.357291
H 14.1961 12.4343 19.2429
H 12.4699 12.5389 18.5278
C 13.1374 9.84745 1.43925
H 16.5307 6.21005 0.405989
H 21.1912 1.16382 9.67922
Si 12.2052 10.4838 2.87472
O 11.0533 9.52287 3.51105
C 17.9899 14.0607 0.112125
H 11.4547 18.3913 3.01548
H 2.30919 17.2816 4.65899
H 20.2327 6.28926 1.55824
C 13.2563 10.815 4.50445
H 12.5053 10.8791 5.33311
H 13.762 9.89865 4.75423
H 13.78 11.7667 4.53055
Si 9.84669 8.37141 3.9029
C 9.41271 7.06632 2.62434
H 9.621 7.33672 1.52447
H 14.101 10.5548 1.4039
H 8.18637 10.3805 4.64557
C 4.81722 18.0574 14.944
H 5.14199 17.9468 15.958
H 4.77837 18.9902 14.5946
H 17.7702 15.4997 11.0849
Si 2.42346 10.2595 1.60641
O 0.896915 10.2411 0.792049
C 19.4489 14.2539 19.79
H 1.13061 11.2915 3.41942
H 10.9244 6.17424 19.2011
H 10.2965 2.07503 12.2188
C 2.0631 10.8763 3.34278
H 9.96885 2.0957 17.2695
H 11.0031 17.729 14.3469
H 5.20004 1.64751 16.1639
Si 21.3377 10.8874 0.801345
O 20.7882 10.622 2.30074
C 20.4936 9.93874 19.0641
H 17.1911 14.1422 0.829909
H 4.44057 1.73422 3.15309
H 20.3748 16.0171 3.80115
C 8.68305 1.81072 4.91596
H 17.9528 16.0804 7.37917
H 17.891 0.553168 11.0569
H 9.26535 0.786154 4.865
Si 19.4611 10.6124 3.46563
O 19.0292 12.2161 3.3285
C 18.0622 9.43306 2.99101
H 17.5369 9.20535 3.92492
H 18.3982 8.4076 2.65555
H 12.7516 12.5314 16.7269
C 19.8779 10.108 5.25152
H 20.4399 9.15058 5.1194
H 20.4185 10.8739 5.77051
H 18.9139 9.85477 5.77409
Si 15.4388 5.81789 1.41703
O 14.7665 4.48092 0.834897
C 13.5864 8.4561 1.43607
H 11.8068 3.66564 4.26435
H 20.2287 2.71702 3.00163
C 13.9214 7.31319 1.45771
H 11.9161 15.3571 11.9166
H 3.33453 3.85634 3.24748
H 18.8997 12.4315 6.32036
Si 14.802 3.05663 19.9206
O 16.1903 2.8398 18.9837
C 13.4018 2.76067 18.4832
H 13.8068 3.8988 18.8886
H 13.8924 2.76596 17.5752
H 12.4475 3.04272 18.3072
C 14.8551 1.53079 1.58608
H 14.2572 0.591112 1.2388
H 17.6878 14.9639 10.2531
H 16.2258 9.9027 6.93666
Si 17.0516 2.74405 17.4962
C 16.6363 1.03898 17.1216
H 15.0033 12.7118 17.571
H 15.5171 1.13921 16.9563
H 17.1277 0.520496 16.2715
C 18.5248 3.56987 18.2005
H 14.1457 9.18583 8.98551
H 19.6757 6.36411 1.93079
H 6.02897 14.4484 16.1453
Si 3.54656 17.9509 5.08785
O 4.38181 17.2384 6.50331
C 4.71037 18.0138 3.76624
H 17.7433 1.41678 6.58905
H 18.3266 16.489 3.2632
H 10.0743 1.48223 11.791
C 16.6805 1.39494 6.8497
H 16.1687 0.497493 6.54219
H 16.6009 1.6616 7.91237
H 16.2592 2.22974 6.30087
Si 3.91958 16.4092 7.83408
O 2.64058 15.4924 7.34559
C 3.83324 17.6538 9.18698
H 2.95521 18.2981 9.32217
H 3.93525 17.3018 10.2204
H 4.75434 18.2293 9.03006
C 5.26801 15.2732 8.39908
H 5.72063 14.6143 7.60493
H 6.13265 15.861 8.7005
H 4.90708 14.5879 9.16473
Si 1.70139 14.133 7.42977
O 2.45964 13.1757 8.63297
C 1.87809 13.3051 5.824
H 1.04429 13.7099 5.21526
H 2.84452 13.6411 5.42674
H 1.80809 12.2013 5.86863
C 21.8419 14.283 7.91426
H 21.2342 13.5716 8.75655
H 0.253905 15.3063 8.62695
H 21.1649 14.581 6.96781
Si 2.40405 11.6166 9.10298
O 3.65121 11.1861 10.1002
C 1.17973 11.1074 10.4607
H 0.653512 10.1751 10.246
H 0.505063 11.8218 10.9201
H 14.8366 4.03314 8.46854
C 2.48756 10.5922 7.65646
H 1.55873 10.436 7.07721
H 3.22858 11.0439 6.96313
H 2.91477 9.61268 7.96706
Si 2.84516 10.891 11.7145
O 3.95323 9.5845 12.044
C 3.19448 12.5991 12.4668
H 4.26601 12.7804 12.7182
H 2.92209 13.3734 11.7262
H 2.54803 12.7228 13.3213
C 5.26112 4.39854 6.32638
H 4.77652 3.49894 5.94711
H 6.28823 4.32246 6.05898
H 4.86817 5.32062 5.86502
Si 4.07009 7.96951 12.4129
C 3.45093 6.70757 10.9792
H 2.40117 6.65121 10.7525
H 3.9739 6.97195 10.0479
H 3.74913 5.68984 11.2267
C 5.86487 7.5777 12.5119
H 6.08775 7.37609 11.4573
H 6.49308 8.45213 12.724
Si 8.67925 18.3904 8.16247
O 8.52501 16.7877 8.15882
C 7.78198 0.192044 9.53159
H 8.19595 18.8848 10.6243
H 2.92836 18.4632 17.9896
H 6.82752 18.9214 12.6621
C 8.86515 2.52911 6.07146
H 6.85352 11.3438 1.2302
H 9.70848 2.40467 6.70523
H 8.11628 3.32625 6.41636
Si 9.61959 15.5364 8.80299
O 9.57649 14.249 7.76138
C 11.46 15.9496 8.9302
H 11.8889 15.7815 9.8929
H 11.7464 15.1165 8.31246
H 11.6529 16.9169 8.51691
C 8.84572 14.8747 10.4489
H 8.90839 13.7953 10.3677
H 9.50292 15.172 11.2997
H 7.81308 15.179 10.6825
Si 9.30467 14.0317 6.15312
O 7.84718 13.0436 6.26672
C 10.7461 13.3892 5.16072
H 10.7089 13.5529 4.08244
H 11.475 14.0962 5.58241
H 11.2005 12.4632 5.56654
C 8.76231 15.4801 5.14327
H 8.67113 16.4307 5.68794
H 9.42133 15.6552 4.26943
H 7.78484 15.1768 4.73003
Si 7.75443 11.9959 7.43628
O 8.92024 10.8726 7.37977
C 6.00922 11.5095 7.90236
H 6.10078 10.5554 8.44255
H 5.50685 12.1938 8.60442
H 5.3508 11.3768 7.01918
C 12.9379 12.9505 9.51487
H 13.6064 13.7846 9.36578
H 12.3536 13.1774 10.4404
H 12.2483 12.8768 8.65276
Si 9.4003 9.3305 8.00115
O 10.4574 8.66028 6.94114
C 7.97034 8.07162 8.24925
H 8.48642 7.11895 8.44389
H 7.25091 8.25277 9.06745
H 7.39994 7.9752 7.31574
C 10.2139 9.62289 9.63573
H 9.69095 10.2433 10.3699
H 10.4475 8.67206 10.1295
H 11.2026 10.0827 9.47568
Si 10.8076 7.5411 5.74409
C 12.6975 7.24752 5.57496
H 12.6581 6.35581 4.91867
H 13.0153 8.06585 4.89594
C 9.99345 5.96092 6.50001
H 10.4353 5.05021 6.08039
H 10.205 5.96761 7.57702
H 8.90941 5.87573 6.2875
Si 20.0018 5.29273 9.94979
O 19.004 6.36952 8.82149
C 19.5941 5.61859 11.5866
H 20.1925 6.24236 12.2383
H 19.0614 4.83954 12.1551
H 14.6822 13.0858 17.2858
C 17.0884 5.39532 5.16827
H 8.2808 10.7076 1.73352
H 2.82859 0.301333 5.44428
H 16.1051 6.90062 3.58815
Si 18.7646 5.22621 7.53063
O 20.0419 4.91339 6.59611
C 16.1937 5.99346 3.09344
H 15.7617 16.6349 9.75394
H 16.8024 11.4709 18.3185
H 2.3833 8.05405 6.08132
C 14.6461 18.4336 9.83335
H 14.6862 18.0041 12.673
H 13.9497 18.3096 10.5454
H 18.4968 14.2096 14.8464
Si 20.2722 3.66706 5.48767
O 18.8352 3.15663 4.96267
C 21.6364 3.46695 4.45715
H 21.2497 3.39403 2.98718
H 2.96353 7.63901 6.42374
H 16.5976 10.4597 7.39608
C 0.153284 2.52494 5.29915
H 16.2127 17.7176 8.40602
H 0.485921 1.22366 5.73744
H 21.5541 2.72013 6.4655
Si 17.9035 3.65358 3.57605
O 16.4944 2.74923 3.43803
C 17.0053 5.13179 3.87876
H 0.291988 16.7256 1.83947
H 0.929164 6.03089 19.7065
H 16.3438 0.452435 3.445
C 1.18488 16.5237 1.55494
H 18.7643 12.9809 17.087
H 21.1098 2.2627 0.559151
H 2.27389 9.99055 3.89487
Si 16.4279 1.42604 2.50388
O 17.9816 1.13784 1.80443
C 9.20563 3.00771 0.826311
H 8.3439 2.66672 0.113369
H 11.9441 0.518523 19.6639
H 10.107 3.09038 0.337645
C 15.7251 17.8194 12.8806
H 16.1822 16.7541 13.2753
H 4.31899 15.2944 12.064
H 4.48612 15.8144 12.4026
Si 19.2581 2.4086 1.55553
C 20.2848 2.13891 0.206607
H 2.88243 14.6656 18.5019
H 17.5211 11.5478 18.0971
H 7.32449 16.9172 18.4309
C 10.2078 17.6602 0.643364
H 9.51164 18.8977 18.4881
H 9.7589 5.88358 2.79577
H 12.9488 2.60926 11.7451
Si 1.69911 14.8496 0.767523
O 0.410582 13.6888 0.892231
C 18.657 3.84492 8.93184
H 12.9875 15.7316 15.5024
H 12.3279 16.5187 15.0376
H 15.0591 4.67191 7.89793
C 17.5227 3.75196 9.65182
H 12.8859 1.33789 8.59719
H 19.4378 12.5885 6.71954
H 3.2743 8.88911 1.68715
Si 20.8388 13.3321 0.43991
O 3.30632 11.1024 0.231154
C 5.77482 2.20867 15.4792
H 6.35105 2.85644 16.0733
H 6.63002 1.48916 14.9846
H 5.18335 2.5668 14.5269
C 18.1591 14.2934 15.9118
H 2.95901 18.0811 17.2289
H 16.7799 11.4921 16.8058
H 5.60295 17.8162 4.09997
Si 2.59131 12.4068 19.4414
O 1.2765 12.2958 18.5164
C 2.0378 17.642 1.42441
H 6.38075 18.7208 13.0537
H 11.8642 3.34403 4.95163
H 1.36299 18.546 1.1204
C 2.82985 14.3172 19.54
H 15.5511 17.0516 2.66106
H 3.83799 14.2324 0.23823
H 15.3462 16.5368 2.75591
Si 0.667477 10.9865 17.1963
O 1.95527 9.94327 17.3722
C 0.929062 12.1103 15.7088
H 1.79771 12.4843 16.2737
H 1.37597 11.72 14.8177
H 0.407383 12.9666 15.691
C 21.0458 9.99256 17.7714
H 19.5387 9.69929 19.4516
H 11.5558 15.587 12.6916
H 20.2989 9.907 17.0315
Si 3.4128 9.11058 17.1473
O 3.47796 8.34291 15.7036
C 5.02594 9.83927 17.5519
H 5.71048 8.94609 17.4617
H 5.41739 10.4563 16.7188
H 5.06957 10.4267 18.4467
C 0.700524 5.12566 19.0445
H 0.468972 4.34339 19.7076
H 1.54274 5.10857 18.5539
H 21.6464 5.49614 18.7333
Si 3.09226 7.25817 14.5166
C 1.27445 6.78927 14.2386
H 0.894627 7.28555 13.3095
H 1.20631 5.67988 14.1457
H 0.486254 7.05404 14.9667
C 4.06401 5.65837 14.9318
H 3.84704 4.96131 14.0768
H 3.50526 5.19377 15.7629
Si 10.8463 11.3722 15.8976
O 9.79048 11.221 17.1648
C 17.5761 0.226599 12.0596
H 21.4444 4.05914 8.89479
H 18.4241 12.5566 4.0639
H 9.35697 1.84434 17.1085
C 16.3945 18.7546 12.207
H 13.4915 12.0615 9.48219
H 10.4979 5.62228 19.8074
H 19.0526 2.73484 8.75069
Si 9.42886 10.7374 18.6779
O 9.89753 11.8369 14.6337
C 8.42681 9.10285 18.7733
H 7.65128 9.22159 18.0315
H 8.92581 8.0589 18.5823
H 7.83911 9.19343 19.5794
C 8.62914 11.9731 19.808
H 9.01407 15.8689 17.2567
H 4.71118 14.5933 2.89316
H 11.2212 12.3978 2.70197
Si 8.81425 11.0932 13.726
O 9.61873 9.69315 13.3915
C 8.54865 12.093 12.2365
H 7.66541 12.7226 12.0872
H 9.45031 12.707 12.0893
H 8.51366 11.4353 11.3408
C 7.28946 10.5665 14.5202
H 7.06361 9.62583 13.9512
H 7.31041 10.2377 15.5632
H 6.4981 11.3128 14.3564
Si 10.9246 8.79751 14.0357
O 10.3345 7.39462 14.5586
C 11.5333 9.6861 15.5772
H 11.458 8.90498 16.3689
H 0.482588 4.32454 9.95933
H 12.6328 9.75581 15.4868
C 12.4489 8.50391 12.9363
H 11.9684 7.95404 12.1084
H 12.708 9.48548 12.5017
Si 9.4343 6.05077 14.6515
O 8.06209 6.28951 13.7984
C 9.36963 5.59139 16.4517
H 8.66198 4.75313 16.4445
H 10.3434 5.16568 16.7483
H 9.02646 6.37733 17.1332
C 10.4903 4.74171 13.7786
H 11.3417 5.31378 13.3577
H 10.8877 3.99513 14.4745
H 9.91508 4.2529 12.9716
Si 6.43351 6.04609 13.4977
C 5.64303 5.73015 15.1955
H 5.9389 6.54452 15.8985
H 5.97407 4.78779 15.6596
C 6.32616 4.5395 12.3093
H 7.29134 4.03016 12.0916
H 5.6012 3.82869 12.7114
H 5.89267 4.89969 11.3783
Si 19.5314 12.1109 10.298
O 19.303 10.4682 10.6355
C 20.3004 12.2691 12.1323
H 20.0614 13.1927 12.6809
H 21.3844 12.1334 12.2194
H 20.2189 16.5779 19.2247
C 12.127 12.6274 15.8949
H 11.4408 13.4867 15.7382
H 12.692 12.8436 15.0114
H 1.91407 10.4021 12.7695
Si 19.3276 10.7098 12.3106
O 17.8803 11.0901 12.8712
C 20.0652 9.07901 12.8388
H 19.4063 8.31211 12.4346
H 21.0866 8.9128 12.4625
H 20.057 9.01101 13.9412
C 17.7711 16.7692 6.51497
H 16.7782 16.6405 6.21369
H 18.3453 16.268 5.75004
H 18.1223 17.7602 6.8326
Si 16.3146 11.2642 13.3327
O 15.4823 9.9572 13.0557
C 16.3645 11.4158 15.4728
H 17.3755 10.8007 15.3549
H 16.6425 12.4835 15.4338
H 15.3405 11.3558 15.5317
C 15.5078 12.9482 12.9016
H 14.6066 12.7603 12.3217
H 15.1857 13.4973 13.7972
H 16.1572 13.5502 12.2614
Si 15.2662 8.26204 13.3859
O 16.463 7.87709 14.477
C 13.5056 7.7709 13.6917
H 13.3345 6.72372 13.9436
H 2.5798 3.50116 3.33836
C 16.0489 7.29786 11.9205
H 16.7606 6.52783 12.1975
H 15.1672 6.89748 11.3939
H 16.5285 8.00761 11.2547
Si 16.7045 7.25182 15.95
O 16.3767 5.51783 15.8792
C 18.6045 7.52182 16.3536
H 18.7817 7.1917 17.3939
H 19.281 6.88326 15.7624
H 18.9193 8.5585 16.414
C 15.5557 7.58959 17.3718
H 15.7286 8.58514 17.8692
H 14.4986 7.47635 17.1564
H 15.8557 6.83371 18.1307
Si 16.3708 3.85319 15.474
C 14.7595 3.23216 14.8463
H 14.8011 2.15119 14.6668
H 13.9712 3.43474 15.5934
H 14.4443 3.70495 13.8893
C 17.8188 3.45406 14.3234
H 18.5465 4.26286 14.1864
H 18.2709 2.46947 14.5641
H 17.3073 3.15883 13.3849
