         420
  Built with Packmol                                             
  O            7.288731       -3.624471       13.258061
  H            7.730539       -2.887460       12.836337
  H            6.360399       -3.487893       13.068910
  O           -5.992952       -4.052025       -7.082202
  H           -5.452510       -4.399443       -7.791748
  H           -5.777464       -4.598745       -6.326627
  O           10.055270        2.856272        1.660573
  H            9.521037        2.228567        2.147207
  H           10.753919        2.328153        1.274293
  O           -0.994506        7.042859      -13.301923
  H           -0.606037        6.774552      -12.469257
  H           -1.108838        6.226029      -13.787667
  O           -8.989977        4.757746      -10.518714
  H           -9.240279        5.055131       -9.643990
  H           -9.783087        4.863248      -11.044145
  O           -5.030716        6.171829       11.741693
  H           -5.578787        5.644901       11.160147
  H           -4.403146        6.598714       11.158463
  O           -8.262182       12.449692       -1.553234
  H           -9.097128       11.982156       -1.530724
  H           -7.606771       11.779967       -1.357950
  O           -0.136709      -11.518833        3.316780
  H           -0.594432      -11.759680        2.511353
  H            0.341909      -12.309315        3.566369
  O            6.121331        6.231355        7.650214
  H            5.821916        5.685914        8.377590
  H            6.112527        7.122650        7.999135
  O            7.082464       -9.906134       -5.691987
  H            6.660377      -10.390508       -4.982441
  H            7.909777       -9.603875       -5.317255
  O          -10.800333       -1.321431        7.897277
  H          -11.232028       -0.524927        8.206231
  H           -9.865534       -1.143050        8.000046
  O            8.969504        8.312240       -7.794417
  H            8.092120        8.292347       -7.412274
  H            9.529962        7.912095       -7.129585
  O            4.235779       -8.390365        3.382603
  H            3.806522       -8.651843        4.197219
  H            4.922203       -7.782484        3.657437
  O           -6.495879       -5.114817        8.006811
  H           -6.208870       -4.908733        8.896409
  H           -7.272325       -5.661812        8.125807
  O            6.655693       -7.434213        5.299941
  H            7.271761       -8.131663        5.075763
  H            5.940572       -7.881859        5.752097
  O           -7.727250        7.762319        5.205423
  H           -7.061815        7.646115        4.527246
  H           -7.424088        7.221047        5.934360
  O            7.847166       -4.778889       -0.319513
  H            7.838583       -3.889805       -0.674037
  H            6.971078       -5.118533       -0.502113
  O           -1.894946       -7.080037      -10.906681
  H           -1.305101       -6.564466      -11.456680
  H           -2.474649       -7.523226      -11.526164
  O           -4.869150        4.341209       -4.073207
  H           -4.233134        3.689662       -3.777909
  H           -4.982462        4.923603       -3.322069
  O            5.478212        4.846950       -1.537199
  H            6.072244        5.440913       -1.078325
  H            4.675250        4.860863       -1.016344
  O           -3.366941       -7.511930       -2.766469
  H           -2.860394       -7.634965       -3.569278
  H           -4.270023       -7.407636       -3.066129
  O           -8.000151       -3.539064       -8.519504
  H           -8.304994       -2.772926       -9.005646
  H           -7.314397       -3.200707       -7.943754
  O            9.562005       10.856235       -0.939527
  H            9.487613       10.024365       -1.407170
  H           10.357145       10.766020       -0.414317
  O           -7.592936       -4.088542       -9.730906
  H           -8.146695       -4.656976      -10.266129
  H           -6.794990       -3.975483      -10.247366
  O           -0.956952       -1.441085        8.135143
  H           -0.622332       -0.597962        7.829524
  H           -0.948100       -1.998981        7.357386
  O            0.265933       -6.585494       -5.026166
  H           -0.651849       -6.320468       -5.086731
  H            0.292384       -7.452944       -5.429973
  O          -13.820575       -6.004900       -3.349392
  H          -14.001092       -6.460806       -2.527325
  H          -12.949487       -6.307891       -3.605581
  O          -10.575527       -9.825096        1.046385
  H          -10.002879       -9.710457        1.804779
  H          -10.441132      -10.734450        0.779467
  O           11.930300        3.095736        6.654691
  H           12.622175        2.592421        7.083892
  H           11.781488        2.640740        5.825797
  O           -0.052779       -6.128005       10.939734
  H            0.576815       -6.595319       11.488788
  H           -0.636698       -5.693071       11.561105
  O           -0.651141        7.119100        7.799542
  H           -1.274872        7.450854        8.445398
  H            0.124275        6.888479        8.311180
  O           -3.893402      -10.648609      -10.024508
  H           -4.783364      -10.993896       -9.953964
  H           -3.380266      -11.181874       -9.417424
  O           -4.256720        4.701014       12.378850
  H           -3.970435        4.424195       11.508423
  H           -3.908711        5.587477       12.475303
  O           -3.409608       -4.962957       -0.262794
  H           -3.898220       -4.537875        0.442043
  H           -3.063968       -5.762868        0.133321
  O           -0.001003       -2.393412       -0.320359
  H           -0.886426       -2.493334       -0.670033
  H           -0.131064       -2.130014        0.590650
  O           -4.504161        9.966005        1.227626
  H           -3.630746        9.986209        1.618738
  H           -5.079754       10.316110        1.907590
  O            9.766425       -0.430273        0.221403
  H            9.230860       -0.802381       -0.479265
  H           10.285538        0.249393       -0.208490
  O           -0.253609       -9.349014        0.857371
  H           -1.067859       -9.852143        0.866852
  H           -0.364386       -8.726706        0.138558
  O           -1.268314       -6.362909        0.966338
  H           -0.753764       -7.168438        0.915411
  H           -1.342142       -6.184162        1.903797
  O           -8.487058       -5.779330       -3.732398
  H           -9.083450       -6.261063       -4.305532
  H           -8.315581       -4.960788       -4.198032
  O           -6.172121        1.654547       -8.964361
  H           -5.694312        2.210693       -8.349030
  H           -6.972673        2.142587       -9.157145
  O            7.208091       -5.207409       11.887974
  H            7.888804       -5.699292       12.347225
  H            6.554073       -5.017487       12.560596
  O            4.384348       -3.286899       -3.755682
  H            3.626975       -3.617935       -4.238416
  H            4.319323       -3.699869       -2.894603
  O           -0.883256        1.772351        1.978684
  H           -1.226239        1.440672        1.148875
  H           -0.472807        2.606920        1.752283
  O            0.879931       10.169791      -11.155599
  H            0.605448       10.575537      -10.333248
  H            1.707544       10.599838      -11.370884
  O            2.863293       -3.446190       -5.033130
  H            2.485576       -2.692373       -5.486253
  H            2.127931       -4.046996       -4.912686
  O            4.957298       -9.809516       -0.311011
  H            5.348023      -10.038454       -1.154309
  H            4.579346      -10.628770        0.008685
  O            1.748260       -4.251375        2.574053
  H            2.337777       -3.907350        3.245132
  H            0.931678       -3.768495        2.701534
  O           -6.232855       -8.373473        2.473914
  H           -6.547894       -9.272499        2.380458
  H           -6.889951       -7.841088        2.025560
  O           -4.128161      -13.821889       -0.715669
  H           -4.348093      -13.307635       -1.492459
  H           -3.429376      -13.325739       -0.289328
  O           11.097229       -9.866698        3.221533
  H           10.866346      -10.245899        4.069549
  H           10.545125      -10.331281        2.592586
  O           -1.347241        1.338849        0.014157
  H           -0.464810        1.004682        0.175026
  H           -1.252783        1.908035       -0.749607
  O            3.182140       -6.400130        3.795362
  H            3.186513       -6.125184        4.712214
  H            2.371687       -6.900171        3.698633
  O            3.741138      -10.469253       -7.025589
  H            3.206893       -9.786923       -6.619093
  H            3.668109      -11.216678       -6.432080
  O           -3.849525       12.224079       -2.807590
  H           -3.119908       12.018729       -2.223019
  H           -4.575218       12.435815       -2.220420
  O           11.904752        3.607136        2.225827
  H           11.804796        3.523361        3.174100
  H           11.464376        4.429099        2.009778
  O           -1.517410      -10.493514       -7.345771
  H           -1.617165      -11.154408       -8.030970
  H           -1.362054       -9.677056       -7.820631
  O           -7.467257        1.230038       -4.139751
  H           -8.388569        1.405932       -4.330739
  H           -7.101054        0.936389       -4.973955
  O           10.456464       -9.699354       -5.106338
  H           10.601926      -10.643000       -5.038487
  H           10.044868       -9.459667       -4.276055
  O           -1.860066       -0.016338       -4.181936
  H           -1.520140        0.871628       -4.071486
  H           -2.478893        0.052291       -4.908967
  O            1.289260       -3.709252       -7.580714
  H            1.777170       -2.891176       -7.486231
  H            1.870479       -4.378437       -7.219319
  O            5.946446       -8.391109        1.666617
  H            6.589864       -7.783503        2.031389
  H            5.788608       -9.023094        2.367982
  O            7.299376        6.163610       11.830307
  H            7.692676        7.004795       12.062589
  H            7.770685        5.887187       11.044375
  O           -9.305742       -2.696422       -8.458343
  H           -9.395137       -3.422489       -9.075649
  H           -9.418584       -1.910991       -8.993689
  O           -7.137530       -1.021553       -9.444749
  H           -7.379722       -1.644404       -8.759454
  H           -7.959039       -0.588455       -9.676654
  O            0.771716       -5.711986       10.143876
  H            1.375125       -5.551275        9.418411
  H           -0.070968       -5.381229        9.832887
  O            7.859699        4.368732       -3.813760
  H            8.489878        4.519667       -3.109257
  H            7.391468        3.576232       -3.551207
  O          -12.850100        5.280907        1.321434
  H          -13.488546        4.951824        1.954145
  H          -13.376184        5.555851        0.570520
  O           -6.756649       -0.651668       12.717908
  H           -6.041551       -1.076954       12.244624
  H           -7.094064        0.002322       12.105798
  O           -0.991927       13.553957        5.334414
  H           -1.422503       13.382091        4.496979
  H           -0.297933       14.178620        5.123699
  O            8.443446      -10.697949       -1.940589
  H            7.797658      -11.236199       -2.398276
  H            8.611058       -9.966730       -2.535111
  O           -6.070891       -0.229121       -1.179508
  H           -5.506408       -0.841323       -0.707493
  H           -6.935816       -0.638841       -1.163222
  O           -7.172156        4.490914        4.230664
  H           -7.815528        4.977377        3.715245
  H           -6.613456        4.067228        3.579069
  O            7.293979        7.205204        9.879272
  H            7.483031        7.778526       10.622099
  H            6.476247        6.767551       10.115929
  O            2.716545       -8.599385       -6.524323
  H            3.352692       -8.723275       -5.819909
  H            1.921572       -9.028544       -6.207982
  O           -5.091675       -8.574494       -3.507274
  H           -5.462396       -7.776946       -3.129498
  H           -4.746938       -9.057910       -2.756478
  O           -5.887009        5.712563        5.575283
  H           -6.134871        6.120555        6.404944
  H           -6.719659        5.523132        5.142802
  O           12.317450       -1.105063        7.987449
  H           13.064625       -0.676555        7.569905
  H           11.568698       -0.869294        7.439713
  O            3.739589       -8.662372       -2.761076
  H            4.120907       -9.263567       -2.121239
  H            3.285018       -8.006288       -2.232731
  O            2.484145       12.896963        6.690833
  H            1.793305       12.384195        6.271261
  H            3.267276       12.714858        6.171435
  O          -11.985131       -5.905818        5.182583
  H          -12.535096       -5.460102        5.826870
  H          -11.442666       -6.500547        5.700522
  O            1.966047       -8.509826       -0.547486
  H            2.790042       -8.996489       -0.568060
  H            1.839477       -8.213995       -1.448982
  O           -5.930782        6.558798        3.691930
  H           -5.097484        6.106649        3.559996
  H           -5.727747        7.260573        4.310412
  O            5.550154       13.683363       -2.927710
  H            5.227353       13.846219       -2.041421
  H            5.375217       12.754683       -3.079967
  O           -6.530723       -8.046403        6.926144
  H           -6.847724       -8.939547        6.791850
  H           -5.706779       -8.008611        6.440428
  O           -9.061088       -4.568474      -10.807313
  H           -9.836911       -4.084383      -10.524496
  H           -9.392286       -5.201797      -11.444054
  O          -12.260681       -2.982397        2.827470
  H          -12.416206       -2.037916        2.827412
  H          -13.099983       -3.363837        2.569971
  O           10.640858       -4.656050       10.504053
  H           10.757979       -3.859365        9.986552
  H            9.881363       -5.087222       10.112275
  O          -12.410481       -8.088172       -2.298661
  H          -12.516760       -8.847470       -1.725597
  H          -12.516428       -7.333583       -1.719350
  O           -0.885155       12.072398       -5.132391
  H           -1.622971       11.837079       -4.569823
  H           -0.117834       11.999652       -4.564802
  O            4.680838        5.438110        3.350579
  H            4.411247        5.721716        4.224147
  H            5.428814        4.861310        3.505708
  O          -12.209052       -9.219882        0.002028
  H          -12.994308       -9.283827       -0.541585
  H          -11.484184       -9.214707       -0.623088
  O           -6.126909       -7.735588       -1.281593
  H           -5.391102       -7.987317       -0.723515
  H           -6.832604       -7.527964       -0.669125
  O            5.708033       10.922791        6.566866
  H            5.882678       10.019714        6.301946
  H            5.564612       11.390739        5.744256
  O            6.662898       12.558651        1.759780
  H            6.352130       13.312009        1.257677
  H            7.391005       12.900085        2.278927
  O            3.799611        5.924332       11.982880
  H            4.270040        6.671996       11.614199
  H            3.398951        6.263812       12.783165
  O            2.009170      -11.666924       -7.363964
  H            2.530426      -12.398132       -7.695413
  H            2.569938      -11.249355       -6.710200
  O           13.416502       -4.191782       -3.190198
  H           12.915063       -4.959719       -3.464170
  H           14.325246       -4.413607       -3.393197
  O          -11.072524        5.769864       -8.593516
  H          -10.651816        5.072405       -9.096294
  H          -11.965234        5.456312       -8.448650
  O           -6.201988        2.032292       -4.232810
  H           -6.030811        2.943315       -3.994135
  H           -6.779744        1.707739       -3.542091
  O           -7.044767      -13.444254       -0.820363
  H           -6.898288      -14.151167       -0.191835
  H           -7.131455      -12.658011       -0.281347
  O           -7.704173        6.386783       -9.355352
  H           -6.957372        6.218212       -9.929899
  H           -8.424988        6.589046       -9.951796
  O           -1.633249       13.040991        7.344789
  H           -1.158682       13.869538        7.412077
  H           -2.391656       13.151563        7.918219
  O           -4.476212      -12.930857       -0.551991
  H           -5.179491      -12.985608       -1.199010
  H           -3.690861      -12.744181       -1.066390
  O            5.339465        0.721876       11.274514
  H            4.503775        0.348873       10.993940
  H            5.998654        0.226546       10.788356
  O           -4.658014       -5.800901       -0.012567
  H           -4.873214       -5.342670       -0.824937
  H           -4.462458       -6.696833       -0.286964
  O           -0.036628        6.842505        9.822482
  H           -0.888744        6.420658        9.712143
  H           -0.039289        7.155856       10.726935
  O            6.712072        3.896194        3.102809
  H            5.935061        4.117633        2.589535
  H            7.362209        3.631599        2.452007
  O           13.461756        6.588872       -3.389904
  H           13.100578        5.704862       -3.455538
  H           12.728871        7.125783       -3.088512
  O            7.078633        6.497777      -10.840156
  H            6.752768        6.806739       -9.994824
  H            8.013737        6.701762      -10.825986
  O           -6.097336        3.784637       -2.524801
  H           -6.007125        4.543315       -3.101430
  H           -7.011909        3.518554       -2.619594
  O            7.988121       -8.295527        1.595991
  H            7.291891       -8.013772        1.002604
  H            8.707569       -8.549968        1.018164
  O           -1.196628      -10.629002      -10.515183
  H           -0.825501      -10.983392      -11.323207
  H           -1.215243      -11.372943       -9.913156
  O            4.079144        2.283887       13.372009
  H            3.814278        2.596237       12.506842
  H            4.912511        1.837763       13.221331
  O           -6.995458       -0.638380        6.200289
  H           -6.569769        0.141285        6.556860
  H           -7.737893       -0.299041        5.700418
  O            0.883529        0.310380       12.166205
  H            0.628020        0.681912       13.010545
  H            1.607250       -0.280861       12.373309
  O            5.605691       -4.533462        3.168765
  H            6.010823       -3.799085        3.630056
  H            6.325933       -5.143419        3.009278
  O            4.707422      -10.594068       -9.479261
  H            5.530291      -11.039473       -9.681082
  H            4.822236      -10.271181       -8.585509
  O            2.610134       -6.855247        5.210261
  H            1.823136       -6.314240        5.145637
  H            2.494876       -7.527715        4.538894
  O           -6.313287       -6.233369       -0.202399
  H           -6.127217       -7.162993       -0.334337
  H           -6.544040       -5.908907       -1.072864
  O          -10.148606       -5.629303       -1.640955
  H          -10.280770       -6.438222       -2.135337
  H           -9.340846       -5.777773       -1.149313
  O           -1.945240        6.495875       13.783693
  H           -1.969227        6.454021       12.827709
  H           -1.070709        6.183480       14.015719
  O           -5.048167       -0.799619        9.196897
  H           -5.460284       -1.200032        9.962442
  H           -5.256723        0.131591        9.271620
  O            0.121818       -2.968134       10.967337
  H            1.003794       -3.131035       11.301722
  H           -0.448248       -3.084093       11.727475
  O           10.866328       -4.421615       -1.441699
  H           10.609359       -5.154083       -0.881619
  H           10.885458       -4.790072       -2.324934
  O            2.050482        9.827964        0.128156
  H            2.793504        9.816643        0.731498
  H            1.358597       10.283215        0.608024
  O            2.265661       -0.213362       14.854083
  H            1.503434       -0.619126       15.267116
  H            2.911352       -0.917717       14.797540
  O           -7.466676       -3.203570       -2.124746
  H           -7.866986       -2.395064       -1.804898
  H           -6.527841       -3.077152       -1.987494
  O            2.017359      -12.344478        7.615725
  H            2.723681      -12.074912        7.028635
  H            1.222910      -12.264872        7.087762
  O           -1.875742        5.180323        9.948235
  H           -1.791690        5.926317       10.542086
  H           -1.919389        4.417906       10.525337
  O          -13.646605       -1.597192        2.487725
  H          -13.552680       -1.153640        1.644712
  H          -14.592269       -1.673691        2.614606
  O           -2.532934       -3.675267       -7.319259
  H           -3.113785       -2.944717       -7.531723
  H           -1.650872       -3.322487       -7.436488
  O            2.927737       -1.579190        1.994388
  H            3.651135       -0.955282        2.054936
  H            2.189196       -1.060164        1.675955
  O            3.037287       11.383448       -3.345973
  H            3.221909       11.373655       -4.285148
  H            2.196350       10.933999       -3.262003
  O           -5.215198       -5.764558       -3.661563
  H           -5.276717       -6.428372       -4.348439
  H           -6.085437       -5.366908       -3.633485
  O           -9.163182        6.779843       -8.416578
  H           -9.012002        6.205605       -7.665827
  H          -10.056810        7.101254       -8.296765
  O          -10.308220        6.040464        8.183154
  H          -10.621464        5.398903        7.545573
  H          -10.341662        6.876640        7.718481
  O           -3.260874       11.856515       -9.001016
  H           -3.316429       11.013391       -8.551253
  H           -4.153434       12.201363       -8.975562
  O            5.213521       -8.776121        4.394445
  H            5.269756       -9.695207        4.655884
  H            4.420778       -8.452896        4.822597
  O            9.967801        8.940369        0.334598
  H            9.816749        9.885435        0.318347
  H           10.893398        8.849131        0.560823
