823
Lattice="20.2117127458661 0.0 0.0 0.0 17.529033243535533 0.0 0.0 0.0 63.770932810000005" Properties=species:S:1:pos:R:3 Atoms.=T Timestep:=T 88312=T pbc="T T T"
Si      18.53423600       5.58672300       6.12872000
O       18.84903600       4.27928300       7.20234000
C        2.64196600       4.53519300      22.91077000
H        2.90655600       4.77163300      21.85707000
H        3.60735600       4.94902300       5.17349000
H        1.88372600       5.24663300      23.08227000
C       19.30513600       7.07575300       6.07974000
H       18.76403600       8.20260300       5.59725000
H        0.73414600      12.32027300      19.85897000
H       20.00483600       7.10633300       6.98552000
Si      18.89433600       3.37066300       8.50052000
O       20.31203600       2.57912300       8.62652000
C       17.60813600       4.88314300      23.05647000
H       17.05973600       3.95092300      23.25177000
H       17.10583600       5.76814300      22.68807000
H       18.31083600       4.79586300      22.19957000
C       17.35223600       3.39860300       9.35795000
H       18.18463600      17.10907300       9.67475000
H        1.33982600      10.39217300       5.27845000
H       16.51583600       3.23001300       8.78112000
Si       1.49229600       2.20502300       7.80678000
O        1.23403600       2.62112300       6.28062000
C        1.69188600      17.95207300       8.15923000
H        1.78237600      17.78477300       9.26291000
H        0.93179600      17.36077300       7.92724000
H        2.56408600      17.39327300       7.71141000
C        2.79664600       3.24113300       8.53011000
H        2.67360600       4.25603300       8.17398000
H        2.93885600       3.20988300       9.69460000
H        3.76272600       3.03701300       8.12678000
Si       1.80631600       2.86811300      23.13577000
O        0.59651900       2.64155300      22.08247000
C       17.71853600      14.70737300      22.04217000
H       17.74463600      15.97337300      22.70817000
H       18.11643600      13.65287300      22.21117000
H       19.69673600      17.31617300      23.14857000
C        2.79090600       1.16822300      22.93197000
H        3.12567600      17.94577300      22.02357000
H        4.28957600       0.83193300      23.17427000
H        1.85952600       0.57183300       5.15082000
Si      20.17583600       1.86629300      20.83137000
O       20.41433600      17.73927300      21.19927000
C       18.43743600       2.10912300      20.53557000
H       17.80443600       2.16783300      21.43217000
H        6.32495600      12.29687300      20.45837000
H       18.05573600       1.28584300      19.92597000
C        0.97162600       2.06323300      19.35497000
H        1.09640600       3.21482300      18.99517000
H        2.04447600       1.82465300      19.59287000
H        0.69956600       1.40871300      18.54187000
Si      20.10593600      16.64137300      22.29907000
C       16.42443600      14.72997300      21.64477000
H       16.23233600      12.68317300       6.67375000
H       15.75113600      13.94397300      21.60097000
H       15.83513600      15.63407300      21.63607000
C        1.28004600      15.30717300      22.39297000
H        0.61149600      14.37237300      22.13837000
H        2.22916600      15.26187300      21.97607000
H        1.27170600      15.11997300       5.35965000
Si       8.03862600      14.73637300       8.92742000
O        7.84040600      14.35937300       7.32525000
C        7.64019600      16.53477300       9.09251000
H        8.23988600      17.14537300       8.41278000
H        6.59732600      16.73867300       8.85106000
H        7.82621600      16.88737300      10.11026000
C        6.86654600      13.65357300       9.90051000
H        7.17311600      12.61867300       9.71086000
H        6.93091600      13.82237300      10.98074000
H        5.81828600      13.73737300       9.60798000
Si       7.08124600      13.55227300       6.13237000
O        7.69969600      12.01247300       6.01483000
C        7.32648600      14.43577300      22.91427000
H        6.98233600      15.47497300      23.01047000
H        8.37389600      14.46357300      22.61427000
H        6.76891600      13.97547300      22.08667000
C        5.28787600      13.38417300       6.56481000
H        5.15847600      12.82877300       7.49595000
H        4.83272600      14.36867300       6.70521000
H        4.71561600      12.84847300       5.80455000
Si       7.81705600      10.68327300       5.06085200
O        8.68386600       9.56042300       5.89987000
C        8.73974600      11.01817300      21.86167000
H        8.49527600      11.96117300      21.36687000
H        9.80523600      11.07347300      22.11657000
H        8.63018600      10.19497300      21.14837000
C        6.15363600      10.01397300      23.02577000
H        5.65370600       9.67223300       5.55473000
H        5.46603600      10.72847300      22.56817000
H        6.20458600       9.14412300      22.34877000
Si       9.02458600       8.85387300       7.31130000
O        8.17493600       7.39022300       7.25797000
C        8.30107600       9.81617300       8.71470000
H        8.79219600      10.78577300       8.81117000
H        7.22578600       9.97157300       8.58896000
H        8.42760600       9.25694300       9.64576000
C       10.78923600       8.39833300       7.53632000
H       10.48163600       7.85221300       9.65891000
H       11.29423600       9.34832300       7.75305000
Si       7.13586600       6.29364300       7.62986000
O        7.18199600       4.89629300       6.91727000
C        5.90098600       6.50326300       8.97621000
H        6.42541600       6.40903300       9.93093000
H        5.50512600       7.51955300       8.94172000
H        5.12408600       5.74521300       8.91591000
C        8.94467600       6.02314300      11.18973000
H        9.54439600       5.56038300      10.40404000
H        8.54302600       6.97314300      10.82392000
H        8.08305600       5.38131300      11.39847000
Si       7.39467600       4.41574300       5.24277000
C        6.96728600       5.96538300      22.68897000
H        8.19377600      14.26427300      19.41737000
H        5.98149600       6.27077300      23.04997000
H        7.61705600       6.81193300      22.96957000
C        6.15492600       3.10491300      23.33247000
H        5.12156600       3.33566300       5.00000000
H        6.25322600       2.50952300      22.47327000
H        6.19904600       2.34338300       5.77730000
Si      13.24493600      14.64497300       7.72678000
O       13.22603600      13.07107300       8.36715000
C       14.88603600      15.52047300       7.98571000
H       15.70143600      14.78497300       7.92605000
H       15.04943600      16.20497300       7.13440000
H       15.01093600      16.11087300       8.89481000
C       12.88093600      13.97157300       6.06405000
H       16.80663600      13.11467300       6.43267000
H       12.64723600      14.92647300      21.80487000
H       12.86393600       1.19423300      16.08327000
Si      12.83873600      12.37517300       6.85786000
O       13.86883600      11.10167300       6.66871000
C       19.81303600      12.80827300       6.08926000
H       19.22543600      12.60117300       5.18978000
H       19.70023600      11.99077300       6.80388000
H        0.65178600      12.80187300       5.78332000
C       19.15553600      10.08277300      21.31817000
H       18.58293600       9.19558300      21.55397000
H       18.81983600      10.90967300      21.91637000
H       19.00793600      10.34187300      20.26857000
Si      14.21963600       9.53002300       6.35125000
O       12.90203600       8.77519300       5.65443000
C       14.60083600       8.61468300       7.98746000
H       15.49833600       9.03122300       8.44858000
H       13.75953600       8.77884300       8.67136000
H       14.65133600       7.52837300       7.87064000
C       15.65273600       9.45745300       5.19343000
H       15.33473600       9.75327300      22.69217000
H       16.45883600      10.18167300       5.40144000
H       16.16003600       8.63035300       5.62958000
Si      11.72083600       7.71304300       6.06402000
O       12.40993600       6.25630300       6.44942000
C       10.96653600       7.47783300       8.75584000
H       10.55793600       6.48239300       8.56172000
H       12.01963600       7.32021300       9.00244000
C       10.65253600       7.38267300      22.97777000
H       10.16563600       8.29929300      22.61327000
H       11.20883600       6.95172300      22.13487000
H        9.88593600       6.66308300      23.26907000
Si      12.20673600       4.64069300       6.31954000
O       10.69083600       4.32596300       5.77887000
C       12.43563600       3.87002300       8.02771000
H       12.27023600       2.79531300       8.05404000
H       13.43313600       4.13697300       8.39877000
H       11.70693600       4.36270300       8.67386000
C       13.39403600       3.92265300       5.07875100
H       13.28633600       4.46695300      22.55557000
H       14.42553600       4.09039300       5.45868000
H       13.15243600       2.85175300      23.26727000
Si       9.48762600       3.36307300       5.19155000
C        9.84353600       2.82138300      21.83377000
H        9.03111600       2.24344300      21.38857000
H        9.99353600       3.67766300      21.16487000
H       10.77083600       2.23802300      21.72607000
C        9.31943600       1.86813300       6.34121000
H        8.57106600       1.14471300       6.00882000
H       10.28913600       1.36436300       6.40218000
H        9.06663600       2.15587300       7.36296000
Si       7.14282600      17.59097300      16.17197000
O        6.62929600      16.41097300      15.17997000
C        6.59679600      17.80727300      17.75007000
H        6.97846600       1.07354300      18.23607000
H        5.91829600      17.21447300      18.31147000
H       15.21423600      17.23507300      19.96127000
C        8.38687600       1.15034300      15.38977000
H        9.35611600       0.65716000      15.29257000
H        8.08425600       1.52623300      14.42557000
H        8.54782600       2.00339300      16.05517000
Si       6.86392600      15.78707300      13.67671000
O        6.46426600      14.20367300      13.74686000
C        8.65450600      16.00277300      13.19947000
H        8.93934600      15.33367300      12.38642000
H        8.87499600      17.02347300      12.86472000
H        9.29810600      15.78277300      14.05387000
C        5.68430600      16.60227300      12.51368000
H        5.82927600      17.68677300      12.45746000
H        5.75780600      16.21447300      11.50090000
H        4.65799600      16.44177300      12.84254000
Si       7.08925600      12.83527300      14.43907000
O        6.18020600      11.55117300      13.96407000
C        6.86522600      13.02047300      16.27077000
H        7.14052600      14.01527300      16.62347000
H        5.80420600      12.84257300      16.47657000
H        7.42884600      12.26177300      16.81637000
C        8.82469600      12.61657300      13.83621000
H        9.23234600      11.63647300      14.09748000
H        8.83836600      12.63987300      12.74188000
H        9.49993600      13.39927300      14.18877000
Si       6.07148600      10.21117300      13.02071000
O        5.30987600       9.07542300      13.93624000
C        5.15769600      10.56837300      11.45062000
H        4.92245600       9.64851300      10.90807000
H        4.19935600      11.04787300      11.65937000
H        5.76151600      11.22247300      10.81852000
C        7.76401600       9.60814300      12.54563000
H        7.66755600       8.69648300      11.94964000
H        8.29189600      10.33307300      11.92012000
H        8.41947600       9.38363300      13.38770000
Si       4.78208600       7.53310300      14.09717000
O        5.63639600       6.78147300      15.26717000
C        2.98930600       7.51587300      14.65907000
H        2.65124600       6.46909300      14.73387000
H        2.84960600       7.95670300      15.64987000
H        2.30045600       8.04851300      13.99495000
C        4.98932600       6.70714300      12.46093000
H        4.33555600       7.11909300      11.68201000
H        6.06169600       6.75350300      12.22050000
H        4.79756600       5.63006300      12.52970000
Si       6.71630600       5.62837300      15.84577000
C        5.73417600       4.09409300      16.22537000
H        4.95212600       4.29025300      16.96507000
H        5.26799600       3.70504300      15.31607000
H        6.33825600       3.28339300      16.63957000
C        7.95833600       5.29807300      14.49227000
H        7.38084600       4.98376300      13.61324000
H        8.58179600       4.44476300      14.77877000
Si      11.04193600      13.70427300       5.66746000
O       12.05253600      15.59287300       8.33058000
C       14.95413600      17.05997300      18.90317000
H       15.84323600      16.73867300      18.35937000
H       18.36583600      17.26627300      10.40717000
H       14.69193600       0.51259800      18.49647000
C       11.06293600      12.19807300       6.56719000
H       10.62773600      14.64097300      17.55017000
H       10.22043600      11.68337300       7.03448000
H       20.21703600       9.92947300      21.50037000
Si      11.13833600      15.58737300       9.69631000
O       12.07753600      15.06377300      10.93301000
C       10.68733600      17.32367300      10.08488000
H       11.63313600      17.84657300      10.39126000
H       10.24653600      17.82797300       9.25863000
H        9.98923600      17.35667300      10.91571000
C        9.76013600      14.34357300       9.52715000
H       13.14673600      14.33217300      22.03597000
H       10.16023600      13.58167300       8.84455000
H        9.69963600      13.85287300      10.50648000
Si      12.99393600      14.23017300      11.98769000
O       12.44003600      12.67587300      12.20939000
C       12.86333600      15.04307300      13.63645000
H       13.43303600      14.41477300      14.36527000
H       13.38553600      15.99837300      13.64671000
H       11.86863600      15.20337300      14.02314000
C       14.75113600      14.26157300      11.40352000
H       14.83983600      13.90267300      10.38441000
H       15.05603600      15.32597300      11.41037000
H       15.45853600      13.72737300      12.03664000
Si      12.49953600      11.17907300      11.56095000
O       12.12813600      10.09837300      12.75163000
C       14.24903600      10.83187300      11.00415000
H       14.45583600      11.44437300      10.11680000
H       14.93843600      11.12427300      11.80077000
H       14.41933600       9.79037300      10.73285000
C       11.20183600      10.93307300      10.25903000
H       11.00963600       9.87157300      10.09676000
H       10.28653600      11.37937300      10.66211000
H       11.44003600      11.40547300       9.30405000
Si      12.08343600       8.50004300      13.08411000
O       10.76203600       7.75694300      12.40276000
C       11.92103600       8.31331300      14.92187000
H       11.78773600       7.26266300      15.19147000
H       12.81733600       8.66237300      15.43497000
H       11.06623600       8.85896300      15.33057000
C       13.63863600       7.68240300      12.41105000
H       13.57013600       7.56787300      11.32563000
H       14.50523600       8.30573300      12.63741000
H       13.81543600       6.71375300      12.88095000
Si       9.95753600       6.33939300      12.73254000
C        8.81135600       6.53736300      14.18767000
H        8.17035600       7.40240300      13.99963000
H        9.42711600       6.74845300      15.06897000
C       11.14663600       4.91674300      13.00397000
H       11.73113600       5.01985300      13.92038000
H       10.61303600       3.96455300      13.07500000
H       11.84783600       4.84745300      12.16730000
Si       1.75893600      12.58627300      13.54590000
O        0.51246400      12.85227300      12.55922000
C        2.01619600      10.75867300      13.61095000
H        2.88770600      10.44717300      14.18677000
H        1.13050600      10.26187300      14.01597000
H        2.08899600      10.34277300      12.59908000
C        3.17090600      13.63127300      13.08348000
H        3.57214600      13.31337300      12.11931000
H        2.97953600      14.69677300      13.03694000
H        3.99322600      13.45857300      13.78195000
Si      20.04593600      12.30367300      11.15066000
O       19.86343600      10.74417300      11.16633000
C       18.36823600      12.99577300      10.80146000
H        1.85030600       9.95627300      23.25687000
H       17.44983600      12.42067300      10.88807000
H       18.22693600      14.08207300      10.85757000
C        1.07209600      12.81757300       9.91169000
H        1.22654600      13.86897300       9.65508000
H        2.00731600      12.36877300      10.28191000
H        0.85005600      12.28477300       8.97873000
Si      19.81753600       9.31945300      10.38595000
O       19.70433600       8.03421300      11.51271000
C       18.25793600       9.37061300       9.44664000
H       17.44393600       8.94702300      10.04073000
H       18.02023600      10.38837300       9.07463000
H       18.34933600       8.63598300       8.62050000
C        1.09604600       9.20052300       9.38415000
H        1.95953600       9.15891300      10.06623000
H        1.12891600       8.47799300       8.58515000
H        1.17340600      10.06807300       8.71238000
Si      19.84893600       6.42408300      11.74377000
O       18.86933600       5.52834300      10.63171000
C        1.32486600       5.86301300      11.42718000
H        1.99951600       6.05071300      12.34345000
H        1.65661600       6.31536300      10.33450000
H       17.34463600       2.50596300       9.99312000
C       19.23143600       6.11931300      13.45890000
H       19.25983600       5.09446300      13.82009000
H       19.87503600       6.59915300      14.19267000
H       18.22483600       6.52815300      13.61116000
Si      17.35203600       4.94000300      10.46516000
O       16.94173600       4.46247300      11.97100000
C       17.54873600       2.24642300      13.65356000
H       18.39693600       2.81857300      14.01726000
H       17.21763600       1.61108300      14.47447000
H       17.97363600       1.54467300      12.92439000
C       16.28003600       6.16338300       9.68463000
H       16.25763600       7.24804300       9.84863000
H       16.45873600       6.02451300       8.60465000
H       15.19833600       5.90135300       9.78192000
Si      16.19603600       3.35355300      12.94552000
C       15.31403600       4.11921300      14.37847000
H       14.23153600       4.20112300      14.28047000
H       15.41483600       3.40186300      15.21757000
H       15.64203600       5.11605300      14.65467000
C       15.07513600       2.19762300      12.00981000
H       12.28943600      16.96617300      20.36987000
H        1.31494600       4.71677300      11.38198000
H       13.85823600       1.34553300      13.84741000
Si       0.75036600      16.57267300      15.14517000
O        1.41185600      15.08907300      15.92947000
C        2.27893600      17.61317300      15.04377000
H        2.58188600      17.80277300      16.05767000
H        3.13884600      17.19207300      14.48087000
H        1.95319600       0.98445300      14.46257000
C       19.79843600      17.26347300      16.35797000
H       19.03513600      16.54017300      16.68017000
H       20.26473600      17.64597300      17.25697000
H       19.26433600       0.58673700      15.91487000
Si       2.42825600      14.78867300      17.30887000
O        1.95824600      13.12227300      17.09917000
C        1.66024600      15.46457300      18.78827000
H        0.75887600      14.94357300      19.08817000
H        2.36227600      15.41947300      19.61517000
H        1.45441600      16.52057300      18.64807000
C        4.18611600      15.09707300      16.97337000
H        4.52410600      14.70327300      16.01497000
H        4.28613600      16.18517300      16.94987000
H        4.86002600      14.73947300      17.76097000
Si       2.12768600      11.66447300      18.01767000
O        3.68862600      11.24187300      17.79127000
C        0.96074600      10.44067300      17.27737000
H        0.94365600       9.52897300      17.91297000
H       20.15373600      10.87487300      17.37487000
H        1.12486600      10.14217300      16.24967000
C        1.79682600      12.09527300      19.76357000
H        1.99751600      11.23447300      20.37937000
H       19.55363600      13.79157300       6.49443000
H        2.38810600      12.95887300      20.12367000
Si       4.87634600      10.29497300      18.36777000
O        4.29187600       9.25206300      19.44267000
C        5.81136600      11.66107300      19.72557000
H        6.07830600      12.19357300      18.80687000
H        4.76654600      11.73727300      20.07197000
H        6.33530600      10.72077300      19.95007000
C        6.09921600       9.75307300      17.10967000
H        7.13309600       9.90767300      17.43777000
H        5.97880600       8.68871300      16.88947000
H        5.95220600      10.31857300      16.18567000
Si       4.26604600       7.68836300      20.13257000
O        5.80944600       7.24457300      20.38187000
C        3.44404600       7.87049300      21.75307000
H        2.38931600       8.17759300      21.64717000
H        3.51102600       6.97405300      22.35867000
H        3.98975600       8.66664300      22.28897000
C        3.44294600       6.55736300      18.85937000
H        3.17396600       5.59560300      19.29737000
H        2.55138600       7.02658300      18.40477000
H        4.22867600       6.42519300      18.10427000
Si       6.84318600       5.99644300      20.83277000
C        6.04288600       4.44428300      20.16587000
H        5.09309600       4.20854300      20.67017000
H        5.85185600       4.47744300      19.08927000
H        6.69065600       3.58678300      20.36417000
C        8.54919600       6.33581300      20.10907000
H        9.29606600       5.94760300      20.81207000
H        8.68368600       7.42580300      20.10257000
Si      13.54433600      15.92347300      18.66027000
O       13.85533600      14.55997300      19.58657000
C       13.53153600      15.52447300      16.91197000
H       14.22803600      16.15417300      16.20187000
H       15.12733600       2.63955300      19.68727000
H       13.05503600      14.84387300      16.48597000
C       11.92823600      16.65877300      19.41027000
H       11.07493600      16.05457300      19.53687000
H       14.15673600       2.73003300      11.71694000
H       11.64293600      17.55527300      18.80767000
Si      13.59633600      13.02557300      19.53657000
O       12.25453600      12.65687300      18.67267000
C       13.76723600      12.07607300      21.12837000
H       13.24923600      11.12467300      21.05947000
H       14.81453600      11.87717300      21.39177000
H       13.29673600      12.50617300      22.03287000
C        9.99743600      15.14597300      16.82577000
H        9.09993600      15.50057300      17.30687000
H       10.55373600      15.97977300      16.38297000
H        9.68523600      14.43607300      16.06547000
Si      11.84143600      11.48617300      17.56797000
O       12.70413600      10.12437300      17.92047000
C       10.00543600      11.17947300      17.76017000
H        9.71523600      10.99507300      18.79587000
H        9.46120600      12.07027300      17.44137000
H        9.68183600      10.31767300      17.16817000
C       12.34503600      12.06607300      15.89857000
H       11.89803600      13.03357300      15.69617000
H       13.43243600      12.18017300      15.83187000
H       12.04223600      11.40547300      15.08507000
Si      12.66893600       8.82651300      18.95457000
O       12.70033600       7.46669300      18.06667000
C       11.02503600       8.86943300      19.85197000
H       10.87253600       9.77077300      20.45217000
H       10.25623600       8.87628300      19.07517000
H       10.85003600       7.99489300      20.47027000
C       14.15953600       8.88343300      20.10437000
H       14.65063600       9.85087300      20.08297000
H       13.75063600       8.80544300      21.12297000
Si      11.91693600       5.99885300      18.12867000
O       10.32883600       6.27741300      17.85007000
C       12.11833600       5.22755300      19.82217000
H       11.48533600       5.69991300      20.58107000
H       11.81173600       4.17931300      19.75177000
H       13.15403600       5.26374300      20.15347000
C       12.65473600       4.92250300      16.83377000
H       12.67623600       5.38271300      15.84587000
H       13.68463600       4.67697300      17.09797000
H       12.07133600       4.00440300      16.72117000
Si       8.87105600       5.60691300      18.36227000
C        7.48083600       6.40104300      17.34757000
H        6.68407600       6.64295300      18.06367000
H        7.87648600       7.37532300      17.02597000
C        9.06397600       3.83729300      18.32277000
H       13.00163600      18.02027300      16.29957000
H        8.26809600       3.16918300      18.63277000
H       10.02653600       3.39341300      18.10647000
Si       0.87982600      13.40287300      15.65457000
O       19.55113600      13.40007300      15.98687000
C       20.20133600      16.06297300      13.60261000
H       19.32693600      15.40797300      13.80541000
H        0.67478600      15.53837300      12.93459000
H       19.80813600      16.92547300      13.03083000
C       14.54403600       1.08941300      12.92009000
H       13.87553600       0.50161800      12.55013000
H       15.23633600       0.53923300      13.51208000
H       15.63583600       1.86256300      11.17754000
Si      17.94073600      13.02487300      15.79307000
O       17.59623600      11.89097300      16.94087000
C       17.02883600      14.60007300      16.19507000
H       17.21053600      14.86267300      17.24547000
H       17.32633600      15.41567300      15.53647000
H       15.95073600      14.45477300      16.06437000
C       17.62193600      12.43877300      14.05952000
H       17.80243600      13.27767300      13.37562000
H       18.25883600      11.61197300      13.73606000
H       16.58023600      12.14527300      13.90840000
Si      16.29283600      10.95277300      17.31437000
O       16.63713600       9.70345300      18.30077000
C       15.15273600      12.14717300      18.33947000
H       14.48123600      11.34627300      18.68667000
H       15.86403600      12.54187300      19.07217000
H       14.80233600      12.87387300      17.59197000
C       15.34773600      10.28427300      15.84847000
H       14.97023600      11.07007300      15.19597000
H       15.96163600       9.57799300      15.28277000
H       14.48753600       9.73457300      16.24517000
Si      16.56883600       8.08098300      18.66517000
O       18.03213600       7.54487300      19.11687000
C       15.29603600       7.82495300      19.96577000
H       14.93323600       6.82611300      19.82047000
H       15.79123600       7.83813300      20.95557000
C       15.96533600       7.22433300      17.10287000
H       16.64123600       7.47766300      16.28417000
H       16.03463600       6.13997300      17.19727000
H       14.95723600       7.51704300      16.82797000
Si      19.03423600       6.28558300      19.21827000
O       18.18163600       4.92659300      19.65227000
C       19.90253600       6.19271300      17.59187000
H        0.52912300       5.41346300      17.68347000
H       19.20923600       5.81577300      16.87317000
H       20.26103600       7.14421300      17.20127000
C       20.25173600       6.70423300      20.59557000
H        0.82298600       7.51093300      20.28927000
H       19.66213600       6.91896300      21.36627000
H       20.69213600       5.75430300      20.98167000
Si      17.63743600       3.32371300      19.51587000
C       17.75783600       2.74924300      17.79737000
H       18.81863600       2.76202300      17.59667000
H       17.49733600       1.67667300      17.70927000
H       17.32813600       3.18908300      16.90417000
C       15.77553600       3.46958300      20.05647000
H        8.63466600      13.67177300      19.40947000
H       15.67613600       3.84414300      21.08067000
H       15.51133600       4.44473300      19.47127000
O       10.83143600       2.77225300      25.39037251
H       11.16003600       2.74829300      26.32512481
H       10.30183600       3.55605300      25.33247000
O       19.92783600      16.96297300      27.69188281
H       19.91193600      16.07777300      28.02382281
H       20.43403600      16.94967300      26.82438281
O        0.68669600       4.25321300      29.91687281
H        1.62278600       4.08894300      30.22842281
H       20.56053600       3.35655300      30.00939281
O       12.68323600      14.47637300      31.45257281
H       12.91203600      13.63107300      31.74152281
H       12.26043600      14.26547300      30.57334281
O       15.70343600      16.01007300      26.21678981
H       14.80603600      16.32887300      26.04277481
H       16.18633600      16.78697300      26.51208281
O        2.87503600      11.12377300      33.30101281
H        2.27647600      11.89617300      33.42171281
H        2.35888600      10.30947300      33.28365281
O       12.41223600       7.91764300      28.77530281
H       11.55763600       7.83812300      29.18683281
H       12.30373600       8.61081300      28.09394281
O        9.29195600      12.52397300      30.16020281
H        8.55214600      13.12627300      29.91645281
H        9.49380600      12.66237300      31.14078281
O        8.01454600      17.92267300      26.19634781
H        7.16968600      17.65437300      26.61529281
H        7.80732600       1.04856300      25.52202481
O        4.38307600       6.97427300      32.30638281
H        5.02817600       7.30835300      31.68523281
H        3.63479600       7.54314300      32.36841281
O       19.70013600      11.31737300      31.47129281
H       18.95693600      10.94857300      31.00076281
H       19.47423600      11.19317300      32.40519281
O       17.65513600       4.35489300      32.52126281
H       18.17793600       4.94713300      31.92510281
H       17.88783600       3.47096300      32.47686281
O        7.09146600      12.43027300      27.90638281
H        7.92941600      12.88837300      27.88482281
H        7.06253600      11.83347300      28.72472281
O        3.82408600      12.82877300      31.02493281
H        4.62289600      12.27747300      30.78058281
H        3.29342600      12.23487300      31.61595281
O       16.52883600       8.74283300      28.79467281
H       17.51143600       8.37828300      28.78510281
H       15.98853600       8.31337300      29.51143281
O       13.67903600      11.61847300      28.67201281
H       13.99593600      11.19507300      29.46226281
H       14.39573600      11.99127300      28.13007281
O       13.84223600       7.50718300      33.65680281
H       12.98383600       7.92425300      33.70064281
H       13.95163600       7.18307300      32.70339281
O       16.01443600       8.39713300      26.26980781
H       15.17033600       8.04711300      25.92634981
H       16.08273600       8.42166300      27.24352281
O       17.13473600       2.46980300      29.12940281
H       16.88633600       3.41181300      28.93793281
H       16.38863600       1.89747300      29.59510281
O        6.28377600      16.53147300      30.89388281
H        5.49226600      16.65527300      31.45699281
H        6.96826600      17.14337300      31.11470281
O       13.46043600      10.07777300      31.26540281
H       13.73693600       9.21717300      30.93437281
H       14.09573600      10.33467300      31.96471281
O       14.62133600       7.40800300      30.39694281
H       14.74273600       6.47285300      30.80653281
H       13.85943600       7.29527300      29.68854281
O        9.60963600       0.96594300      28.45365281
H        9.31004600       0.50000000      27.67702281
H        9.59261600       1.91268300      28.10192281
O       10.13743600      10.05617300      29.23942281
H       10.72383600      10.18677300      28.44987281
H        9.84353600      10.91127300      29.56711281
O       13.01313600      17.04977300      26.21251781
H       12.77023600      16.13847300      26.47820281
H       12.61423600      17.00367300      33.72708281
O       18.86013600       7.61325300      28.74461281
H       19.04173600       7.00214300      29.47513281
H       19.56823600       8.22786300      28.73492281
O       13.75153600       5.71936300      27.37691281
H       13.91023600       6.27987300      26.58433281
H       13.00313600       6.16507300      27.76855281
O        0.95746600       3.70308300      33.47688281
H       20.39803600       3.12039300      33.58606281
H        0.88172600       4.49278300      25.53375581
O        3.30072600       4.07955300      30.90149281
H        3.16196600       3.46529300      31.63347281
H        3.35078600       5.00215300      31.32621281
O        7.70753600       6.30823300      26.54533281
H        6.78370600       6.39860300      26.38370281
H        7.80438600       5.84964300      27.46450281
O       15.13393600      15.18927300      30.36123281
H       15.93803600      15.01467300      30.93364281
H       14.34013600      14.87867300      30.87653281
O        4.22119600       1.93165300      28.68347281
H        3.46016600       1.35346300      28.73124281
H        4.23493600       2.73014300      28.13163281
O       19.95433600       7.85635300      33.57525281
H       19.54373600       8.71126300      33.44299281
H       19.19043600       7.38265300      25.54788281
O        8.16325600       1.23923300      30.78801281
H        8.56428600       0.83793300      29.96293281
H        8.90865600       1.57246300      31.24044281
O        9.42638600      15.93187300      33.72192281
H        8.75210600      15.47317300      33.21405281
H        8.92075600      16.69947300      25.70311481
O       18.34533600      13.24077300      29.00684281
H       17.53353600      13.66067300      28.67073281
H       18.98303600      13.80097300      29.48437281
O        7.21108600      14.18117300      32.18441281
H        6.71777600      14.66027300      31.52365281
H        6.54519600      13.74767300      32.78723281
O        2.03939600       8.55276300      32.13158281
H        1.63051600       8.64190300      31.27045281
H        1.29487600       7.99899300      32.52666281
O        5.60582600      17.55597300      27.10307281
H        5.39749600      16.73527300      27.57217281
H        5.22636600       0.79604300      27.54835281
O       11.30793600       6.06510300      32.19638281
H       10.47133600       5.80142300      32.68839281
H       11.72063600       5.27840300      31.81382281
O        8.12648600      14.77947300      28.63391281
H        7.22011600      15.05567300      28.48222281
H        8.49039600      15.22997300      27.83685281
O       17.36123600      17.97267300      27.07272281
H       18.17683600      17.57247300      27.43403281
H       17.04593600       1.11687300      27.68930281
O       16.53133600       4.91320300      28.28673281
H       17.18273600       5.37930300      27.68306281
H       15.70223600       5.09624300      27.95121281
O       15.07663600       0.70547100      29.67674281
H       15.01343600      17.32127300      29.92634281
H       14.24753600       0.89947300      29.29996281
O        0.78731600       9.30264300      29.77756281
H        1.08019600       9.86887300      29.05559281
H        0.50000000      10.02157300      30.42403281
O        6.80045600       2.57343300      33.54415281
H        6.09775600       2.40940300      32.83022281
H        7.46232600       3.19484300      33.17170281
O       11.37073600       9.41317300      32.96336281
H       10.61273600       8.92848300      32.67857281
H       11.83393600       9.70612300      32.14069281
O        9.96103600       7.16091300      29.93854281
H       10.57043600       6.81731300      30.63265281
H        9.86423600       8.17484300      30.01266281
O        7.77371600       8.93399300      28.04805281
H        8.05714600       8.14088300      27.57231281
H        8.52417600       9.34442300      28.50834281
O        4.84457600       3.88368300      26.75676281
H        4.89067600       4.84822300      26.67822281
H        5.65316600       3.48860300      26.41857281
O       16.29443600      11.94807300      26.61990281
H       16.31333600      11.24367300      27.21407281
H       16.24303600      12.76567300      27.09587281
O       19.66983600       1.63094300      29.69732281
H       19.93853600       1.08343300      28.93934281
H       18.82153600       2.06605300      29.44319281
O        4.87609600       6.79075300      26.70633281
H        4.01941600       6.98990300      27.17365281
H        4.63796600       6.88455300      25.76272881
O       15.71663600      11.44177300      32.32128281
H       16.14863600      11.28047300      31.43419281
H       16.46723600      11.10147300      32.85542281
O        4.21014600      17.11217300      33.14201281
H        3.85953600       0.52910700      33.09943281
H        4.71551600      17.05467300      25.50151081
O       18.95213600       1.55338300      33.26414281
H       19.07803600       1.03557300      32.49117281
H       18.23043600       1.19206300      33.77093281
O       13.32593600      12.56027300      33.49804281
H       14.23963600      12.26717300      33.30643281
H       13.27753600      13.41257300      25.50278181
O        1.26518600      16.58517300      25.59356881
H        1.45687600      17.24407300      33.41267281
H        2.15902600      16.20867300      25.81350181
O        5.84857600       2.42350300      30.85805281
H        5.17539600       2.43378300      30.16076281
H        6.59941600       1.87896300      30.66416281
O        2.61373600      17.34657300      28.72557281
H        1.74711600      17.28587300      28.23709281
H        2.68669600      16.54087300      29.26901281
O        8.77004600       4.79576300      32.98166281
H        8.39710600       5.52671300      33.57398281
H        8.15055600       4.91822300      32.28774281
O        8.81635600       8.12814300      32.53190281
H        8.58400600       7.67343300      33.31968281
H        8.45252600       9.03492300      32.73081281
O       11.09093600       1.80240300      31.38154281
H       11.08633600       2.04198300      32.34956281
H       11.08053600       0.82615300      31.29216281
O       11.98963600      10.10487300      27.03044281
H       12.75873600      10.70477300      27.24337281
H       11.90203600       9.95327300      26.04698581
O        2.44910600       7.14156300      28.13671281
H        1.86733600       7.85882300      28.38500281
H        1.83017600       6.50699300      27.68367281
O        3.08215600      14.69727300      26.39253281
H        3.08973600      14.64977300      27.38062281
H        3.99884600      14.68237300      26.11616981
O       19.65513600      14.56187300      32.81356281
H       18.72093600      14.83667300      32.90831281
H       20.29443600      15.29897300      33.12334281
O        2.85399600      11.03507300      27.87623281
H        2.79278600      11.03737300      26.89705281
H        3.67869600      10.52877300      28.05186281
O       15.59883600       1.03690300      32.36880281
H       14.92763600       1.52245300      32.82058281
H       15.26623600       0.96407300      31.44113281
O       11.63673600      16.79397300      32.51168281
H       11.82903600      15.89787300      32.14491281
H       10.70143600      16.68617300      32.88585281
O       10.41803600       3.73837300      28.02015281
H       11.11313600       3.66197300      28.68571281
H        9.66883600       4.16791300      28.38258281
O       13.67443600       3.50450300      33.55964281
H       13.78443600       3.74172300      26.06933281
H       12.74053600       3.45395300      33.49386281
O       11.64423600      13.65587300      29.13850281
H       12.17993600      12.86987300      28.89892281
H       10.85023600      13.22907300      29.50998281
O       20.29943600      14.93407300      29.79471281
H        0.85826600      14.48467300      29.35420281
H       20.47713600      14.73657300      30.74926281
O        7.00574600       4.98351300      30.84058281
H        6.37026600       5.67313300      30.98095281
H        6.69244600       4.03943300      31.01037281
O        3.30856600       2.30981300      33.30316281
H        2.35525600       2.60465300      33.50059281
H        3.88925600       2.75878300      25.55626881
O        2.32626600      13.57637300      28.74842281
H        2.79088600      13.26067300      29.54557281
H        2.27521600      12.80737300      28.14784281
O       19.34253600       6.10133300      31.20602281
H       19.58393600       6.67119300      31.93377281
H       19.97513600       5.43801300      30.87494281
O       12.65343600       1.48423300      28.13192281
H       11.76293600       1.01429300      28.31838281
H       12.98363600       1.04170300      27.29671281
O       16.75013600      14.37177300      32.63172281
H       16.51193600      13.42607300      32.47266281
H       16.02103600      14.71557300      33.19365281
O        3.43364600      15.74867300      30.84637281
H        3.24472600      14.84067300      31.15686281
H        3.62963600      16.24287300      31.62807281
O       12.39793600       4.16351300      30.67722281
H       13.35043600       4.03735300      30.57482281
H       12.02703600       3.21487300      30.75382281
O        6.81075600       8.05387300      30.53270281
H        7.62572600       8.08166300      31.07726281
H        7.13094600       8.12667300      29.60914281
O       11.82613600      14.64367300      26.48603281
H       11.57233600      14.23667300      27.33893281
H       10.92413600      14.97327300      26.09439981
O        1.15829600       0.81177300      31.95583281
H        1.30369600       0.61532700      31.03606281
H        0.90486600       1.73849300      32.08655281
O        8.44689600       5.46703300      28.84748281
H        7.98755600       5.29119300      29.69824281
H        9.05940600       6.16920300      29.05128281
O       17.34033600      10.86807300      30.29844281
H       17.55213600      11.65517300      29.71873281
H       16.87293600      10.21377300      29.70296281
O        7.56668600      10.83257300      33.03949281
H        6.84991600      10.51067300      33.57127281
H        8.19098600      11.40617300      33.45870281
O        5.62854600       9.87597300      26.48752281
H        6.26017600      10.11687300      27.16396281
H        5.45664600       8.91931300      26.63325281
O       18.01623600      10.16427300      33.61752281
H       17.43613600       9.52132300      25.49405481
H       18.41223600      10.72037300      25.89111581
O        5.44513600      13.19577300      25.73047781
H        6.12529600      12.90277300      26.39947281
H        5.04763600      12.40427300      25.41362761
O       20.61503600       5.65331300      27.25075281
H       19.78203600       6.18701300      27.42177281
H       20.68663600       4.95431300      27.96078281
O        5.57458600      15.10207300      28.67685281
H        5.65459600      15.64657300      29.49927281
H        5.82084600      14.11957300      28.74485281
O       14.97003600       5.15506300      31.90342281
H       14.42573600       4.70751300      32.63017281
H       15.90623600       4.86914300      32.02232281
O       10.18573600      12.25487300      32.92668281
H       10.81863600      11.58477300      33.29495281
H       10.73703600      13.05597300      33.01656281
O       15.99313600      14.13557300      28.10274281
H       15.96593600      14.93507300      27.54551281
H       15.49643600      14.32987300      28.92318281
O       19.48103600      11.38127300      27.05983281
H       19.21853600      12.18967300      27.58447281
H       20.33433600      11.72787300      26.64609281
O       17.80563600       6.40493300      26.17561981
H       17.78153600       5.82177300      25.40757821
H       17.08633600       7.06397300      26.19943581
O        6.57041600      10.92287300      30.21387281
H        6.78090600      11.39437300      31.05704281
H        6.67990600      10.00547300      30.45053281
O        1.16158600      12.92957300      25.68921381
H        1.91667600      13.53217300      25.85652081
H       20.59843600      13.36647300      33.66212281
