523
 Atoms. Timestep: 13870
Si 3.38752 11.0119 1.80864
O 2.86549 9.59871 1.00048
C 3.91922 12.2414 18.7226
H 4.99946 12.4131 18.669
H 3.68455 11.8347 17.6998
H 3.3609 13.1558 18.6663
C 4.99604 10.4713 2.52806
H 5.51584 11.2036 3.17375
H 4.94476 9.61096 3.05648
H 5.66912 10.3342 1.69357
Si 1.8591 9.09141 18.2664
O 1.58255 7.39962 18.7391
C 2.67827 9.22585 16.6222
H 1.81392 9.26711 15.8599
H 3.26349 10.0946 16.524
H 3.41648 8.48152 16.367
C 20.5291 10.0698 18.3157
H 20.6229 11.1728 18.1601
H 19.844 9.7208 17.6274
H 20.1364 9.90428 0.887715
Si 2.9139 6.42254 1.14552
O 2.49208 4.91992 0.859281
C 2.85179 6.65738 2.95602
H 1.86214 6.23876 3.25413
H 3.62838 5.90254 3.33196
H 2.99738 7.68472 3.35388
C 4.3713 6.97347 18.7078
H 4.41097 8.00456 19.0895
H 5.23058 6.51562 19.1831
H 4.2479 6.78713 17.624
Si 3.43639 3.55481 19.1822
O 2.51706 2.17104 1.07935
C 4.72321 3.50677 2.22538
H 4.14937 3.60254 3.15575
H 5.29838 2.57122 2.25937
H 5.53785 4.25744 2.11244
C 4.35511 3.6288 17.5398
H 4.37288 2.62567 16.9699
H 3.92141 4.31068 16.7925
H 5.3926 3.97605 17.698
Si 2.27316 18.0633 1.30522
O 3.45369 17.5569 2.30841
C 2.37154 17.027 18.1605
H 2.98934 17.4957 17.336
H 2.69468 15.981 18.4238
H 1.39973 16.9601 17.5948
C 20.8981 17.8128 2.11453
H 20.5437 16.7803 1.97247
H 20.8023 18.0126 3.21565
H 20.1426 0.862131 1.58284
Si 4.82003 17.1366 3.11882
C 6.40307 17.001 2.21595
H 6.62901 15.9592 2.16459
H 6.2492 17.4286 1.20315
H 7.17549 17.6669 2.59594
C 4.94491 0.783393 4.68688
H 3.94566 1.07834 5.0191
H 5.31891 17.7189 5.50063
H 5.54189 1.70998 4.49309
Si 12.558 16.1059 1.80961
O 11.5172 14.9097 2.06352
C 11.5761 17.6077 0.986465
H 10.8131 17.8613 1.78529
H 12.2486 0.998671 0.997543
H 11.0484 17.4673 18.4719
C 13.4488 16.6493 3.27989
H 12.7645 17.3257 3.82224
H 13.7018 15.7373 3.89957
H 14.4017 17.2195 3.1201
Si 10.5138 13.9606 2.95057
O 11.2498 12.4787 3.1622
C 8.84749 14.0018 2.18364
H 8.78071 13.4062 1.21282
H 8.05907 13.9415 2.93357
H 8.66892 14.9919 1.78857
C 10.467 14.6127 4.77406
H 10.7153 13.8363 5.46761
H 11.2384 15.4534 4.87168
H 9.41959 14.8377 4.91685
Si 12.2017 11.1938 2.86781
O 11.2927 10.0757 2.05689
C 12.6358 10.3109 4.50711
H 13.4768 9.66006 4.40234
H 12.8131 11.1681 5.22122
H 11.7935 9.71047 4.92
C 13.681 11.7103 1.9522
H 14.6726 11.5051 2.39264
H 13.7643 11.163 0.991467
H 13.6507 12.7417 1.63179
Si 10.3628 8.74405 1.72092
O 10.4107 8.39795 18.5341
C 8.60696 9.12654 2.12137
H 8.625 10.2119 2.53746
H 8.09572 8.95826 1.14367
H 8.17834 8.54448 2.9131
C 11.1571 7.34933 2.66398
H 11.702 7.79122 3.55126
H 10.3337 6.81597 3.16086
Si 10.6466 7.69424 17.0719
O 10.077 6.18253 17.019
C 12.475 7.58045 16.5561
H 12.5869 8.22276 15.6916
H 13.1231 7.96834 17.3771
H 12.727 6.48852 16.3082
C 9.72836 8.83745 15.5765
H 10.7188 9.23449 15.4292
H 9.43239 7.78512 15.223
H 9.25203 9.29107 16.4458
Si 9.0913 4.8507 16.8116
C 8.49361 4.34964 18.5231
H 8.07907 3.32608 18.423
H 9.19053 4.23924 0.895918
H 7.71989 5.01156 18.8774
C 9.88212 3.34919 15.9221
H 10.6329 3.48136 15.1478
H 10.2798 2.72912 16.758
H 9.07797 2.82757 15.38
Si 20.1183 6.86442 18.5013
O 19.114 7.7622 1.03671
C 19.9194 5.16783 0.846814
H 18.8242 4.97743 19.1331
H 20.5255 4.33229 18.8244
H 20.0783 5.2538 1.9302
C 19.783 7.10025 16.7104
H 18.9873 7.77375 16.3416
H 20.7724 7.34598 16.2314
H 19.689 6.08382 16.3343
Si 17.6045 7.93508 1.84244
O 17.1851 6.50564 2.58982
C 17.5778 9.2818 3.02661
H 16.7336 10.0257 2.95961
H 17.6406 8.72264 3.99781
H 18.4372 9.90313 3.17447
C 16.4057 8.2127 18.8385
H 16.3484 7.68698 17.8463
H 15.3466 8.14437 19.0901
H 16.6888 9.26314 18.4661
Si 16.1783 5.31946 3.13712
O 14.5671 5.51816 2.74904
C 16.8926 3.63493 2.72385
H 17.746 3.53646 2.06778
H 17.2954 3.46157 3.71949
H 16.1161 2.91992 2.49175
C 16.2185 5.63876 5.05404
H 17.2333 5.61314 5.53522
H 15.7508 6.59968 5.34037
H 15.8079 4.85899 5.69479
Si 12.987 5.05133 2.71783
O 12.4398 4.70783 4.18189
C 12.1169 6.42661 1.90965
H 12.9111 7.07757 1.44648
H 11.5496 6.0052 1.05457
C 12.9803 3.5417 1.57878
H 13.2146 2.63167 2.08589
H 12.0825 3.15115 1.01133
H 13.8213 3.78514 0.869539
Si 11.3764 3.53925 4.76552
O 12.0372 2.65923 6.02752
C 10.7152 2.35375 3.47944
H 11.1958 2.19278 2.55654
H 10.5827 1.41734 4.05645
H 9.72103 2.64688 3.12712
C 9.84478 4.43678 5.48975
H 9.96266 5.43248 5.85554
H 9.03905 4.45832 4.81025
H 9.60015 3.76628 6.39501
Si 13.4667 2.20215 6.74782
C 14.8686 2.2705 5.51102
H 15.6678 1.50876 5.69977
H 14.3889 2.14869 4.55811
H 15.1487 3.28934 5.49019
C 13.7138 3.26174 8.1862
H 12.8344 3.2077 8.8112
H 14.6033 2.9234 8.68963
H 13.8447 4.35284 7.7794
Si 1.71296 12.2221 3.03316
O 2.42988 13.0436 4.29705
C 21.1138 13.4523 1.81841
H 20.078 13.0689 1.55317
H 20.8677 14.4246 2.24094
H 1.21525 13.6796 19.175
C 20.5971 11.1985 3.98476
H 19.7786 11.9402 4.12881
H 20.3338 10.2739 3.48482
H 20.9922 10.9337 4.91427
Si 3.14289 14.1616 5.21721
O 4.26458 13.3397 6.06296
C 2.23087 15.3923 6.21448
H 1.54 15.026 6.96146
H 2.83224 16.2644 6.57768
H 1.48178 15.9828 5.59395
C 4.22248 15.2952 3.90255
H 4.24043 14.6271 3.05849
H 3.2623 15.8383 4.08983
H 5.08676 15.386 4.59883
Si 4.32223 12.2285 7.2688
O 5.70428 11.4057 7.07909
C 2.9055 10.9235 6.99524
H 1.87857 11.3701 6.84518
H 3.10766 10.1906 6.18012
H 2.81416 10.3251 7.9026
C 4.28663 12.9117 9.02526
H 3.38095 13.5243 9.00863
H 4.33445 12.1094 9.81671
H 5.08603 13.6628 9.15756
Si 7.26189 10.9343 6.67693
O 8.22183 11.3819 7.99513
C 7.30113 9.12234 6.48794
H 6.5703 8.66154 5.79045
H 8.29446 8.9822 6.08603
H 7.3868 8.7528 7.48356
C 7.69333 11.9423 5.16132
H 8.54478 12.6349 5.17873
H 7.83556 11.3331 4.27788
H 6.74972 12.5132 5.01501
Si 9.65052 11.4492 8.83765
O 10.0183 9.92773 9.08746
C 10.8873 12.2176 7.68166
H 10.3078 12.9764 7.12645
H 11.7338 12.7994 8.20852
H 11.3007 11.6035 6.86452
C 9.41581 12.3024 10.4008
H 9.31303 11.4735 11.1229
H 10.2935 12.8585 10.6896
H 8.42284 12.7617 10.3892
Si 10.4409 8.41061 9.69031
C 9.94837 7.29116 8.23487
H 9.05608 7.69375 7.81131
H 10.7768 7.49295 7.53722
H 9.85985 6.24732 8.34427
C 12.2699 8.53824 10.0925
H 12.8145 7.62613 9.91925
H 12.3752 8.64283 11.1683
Si 9.51026 18.1323 11.339
O 10.0972 17.5338 9.92795
C 7.72265 18.2712 11.2418
H 7.25833 17.2409 11.4795
H 7.21146 1.34503 11.9848
H 7.24596 1.02452 10.2979
C 10.5888 1.93993 11.9377
H 10.6632 2.7119 11.1657
H 10.2253 2.55678 12.8415
H 11.5234 1.42735 12.062
Si 9.6754 16.8218 8.53415
O 11.0273 15.9658 8.00147
C 8.07353 15.7706 8.51995
H 7.60387 15.7288 7.56491
H 8.2059 14.706 8.89457
H 7.17861 16.2944 9.09482
C 9.14197 18.0876 7.33459
H 8.22718 1.02016 7.68418
H 9.87695 1.32457 7.20196
H 8.80815 17.7664 6.30018
Si 12.6034 16.2046 8.35559
O 13.4416 15.1263 7.5037
C 13.4071 16.2432 9.98171
H 13.2431 17.11 10.6582
H 12.9786 15.3495 10.5286
H 14.5022 15.9725 9.79295
C 12.9916 17.9915 7.45129
H 12.3439 17.7411 6.55028
H 12.4206 0.907165 8.28242
H 14.077 17.6409 7.57149
Si 14.8826 14.4822 6.99061
O 15.5998 13.6855 8.26083
C 16.0145 15.8808 6.3189
H 16.8562 15.4141 5.79772
H 15.4824 16.6258 5.70867
H 16.5947 16.3795 7.10756
C 14.4391 13.4123 5.54589
H 15.2673 13.2639 4.80189
H 14.1158 12.353 5.78561
H 13.5396 13.8115 5.03085
Si 16.2284 12.361 9.09824
O 15.2351 11.1853 9.34231
C 16.695 13.1307 10.7321
H 16.5325 14.2107 10.8143
H 16.1832 12.8068 11.6672
H 17.7381 12.8961 10.8631
C 17.7219 11.856 7.9375
H 17.7035 10.7518 7.82038
H 17.5305 12.1309 6.88443
H 18.6548 12.2893 8.3398
Si 14.7699 9.60189 9.82107
C 13.0685 9.72968 9.35739
H 12.955 9.42636 8.3189
H 12.5837 10.6323 9.64016
C 15.5376 8.30782 8.70956
H 16.4665 7.98328 9.32065
H 14.8534 7.46008 8.80525
H 15.7948 8.46835 7.67937
Si 20.9329 6.91487 7.90737
O 1.36747 5.66073 7.21941
C 19.5047 6.56502 8.9731
H 19.74 5.638 9.58198
H 19.2616 7.37633 9.65946
H 18.5897 6.19863 8.49188
C 20.5364 8.16941 6.58611
H 19.4362 8.08926 6.3025
H 20.6161 9.19764 6.95933
H 0.876397 8.15461 5.66311
Si 1.54558 4.19225 6.46034
O 21.0913 3.0547 7.47757
C 20.8428 4.47658 4.87901
H 0.922298 5.46284 4.44488
H 21.0822 3.61844 4.1379
H 19.7849 4.51403 5.18665
C 3.27867 3.71816 6.21117
H 3.85904 4.6223 6.12919
H 3.71099 3.31714 7.11037
H 3.46382 3.0636 5.36459
Si 19.8864 1.91097 7.31923
O 19.9182 0.851506 8.6024
C 18.2209 2.75713 7.26343
H 18.0025 3.5172 7.91984
H 18.1978 3.22147 6.23592
H 17.494 1.97311 7.19863
C 20.2024 0.870749 5.84031
H 19.8609 1.43008 4.98583
H 0.968856 18.2709 5.54671
H 19.6451 17.5116 5.91361
Si 19.0133 17.5695 9.75883
O 19.7287 18.1708 11.1739
C 17.1677 17.8816 9.69314
H 16.7749 17.4455 8.76821
H 16.7213 17.2202 10.4853
H 16.6505 1.29335 9.8172
C 19.5055 15.8394 9.54562
H 18.6331 15.2859 9.17503
H 20.2228 15.7769 8.71114
H 19.8838 15.378 10.4929
Si 19.327 17.9443 12.7492
O 17.9669 1.29767 12.8965
C 18.8099 16.2299 13.0396
H 19.6934 15.5694 13.0678
H 18.1694 16.1819 13.9473
H 18.1506 15.8119 12.2317
C 20.8134 0.985347 13.6103
H 1.34819 17.9967 13.1782
H 21.0008 2.07876 13.4421
H 20.6421 18.179 14.6281
Si 16.6961 2.45779 13.3121
C 15.0741 2.0441 12.4399
H 14.6927 1.06694 12.6265
H 14.1945 2.61682 12.7999
H 15.2776 2.1976 11.3721
C 17.339 4.17611 12.5289
H 16.407 4.57823 12.0817
H 17.6326 4.88329 13.3058
H 18.1369 4.11612 11.7439
Si 3.14228 13.1436 13.3213
O 2.41415 12.0868 12.2716
C 4.19017 12.0579 14.4545
H 5.23259 11.9137 14.26
H 4.13046 12.7507 15.3464
H 3.85215 11.0796 14.781
C 1.70347 14.1268 14.1096
H 1.42473 13.8672 15.1175
H 2.14637 15.1272 13.9913
H 21.0588 14.2095 13.5448
Si 1.16078 11.2904 11.5586
O 1.86142 10.0237 10.7581
C 20.5133 12.5006 10.5313
H 20.204 13.4419 11.0894
H 1.02727 12.915 9.88418
H 19.7043 12.0395 10.0573
C 20.3599 10.5512 12.9199
H 20.6329 9.53893 13.0554
H 20.3568 11.1529 13.8511
H 19.2557 10.6275 12.4997
Si 2.72556 8.621 10.7928
O 2.61696 7.89514 12.2433
C 4.42686 9.00891 10.2228
H 4.40747 9.18502 9.0997
H 4.82731 9.94968 10.649
H 5.08122 8.17565 10.4931
C 1.96694 7.66643 9.26476
H 2.89367 7.52571 8.66576
H 1.66119 6.75884 9.82117
H 1.29896 8.47236 9.21221
Si 2.15795 6.31443 12.8574
O 2.50525 5.06902 11.7482
C 20.5291 6.3597 13.2726
H 20.0392 5.42677 13.7317
H 20.3449 7.38399 13.7228
H 19.9719 6.47209 12.3301
C 3.09842 6.1989 14.5125
H 4.05268 6.65098 14.3637
H 2.5801 6.86044 15.2369
H 3.32174 5.16142 14.8614
Si 3.95642 4.10177 11.3665
O 4.94987 5.08866 10.5037
C 4.32446 3.57132 13.1505
H 3.35149 3.50525 13.6456
H 4.76769 2.5522 13.2797
H 4.86711 4.32923 13.6263
C 3.16441 2.86989 10.2096
H 3.94865 2.19591 9.89429
H 2.33601 2.26562 10.6337
H 2.865 3.39079 9.3087
Si 6.48247 4.56347 10.05
C 6.83657 5.1265 8.26025
H 6.45644 6.20169 8.13784
H 7.90959 4.9806 8.0715
H 6.16755 4.57014 7.58861
C 7.68757 5.42095 11.2993
H 8.68614 5.28433 10.8678
H 7.67875 4.90966 12.3136
Si 4.95939 14.6137 12.5251
O 5.45011 15.2668 13.86
C 6.35583 13.389 11.9454
H 5.97794 12.3303 12.0005
H 6.67281 13.4066 10.9118
H 7.26762 13.3705 12.4846
C 4.54686 15.7952 11.1786
H 4.05964 15.1896 10.2983
H 3.90736 16.6265 11.5595
H 5.53476 16.3211 10.9378
Si 6.24099 16.2304 14.8972
O 7.8518 16.2175 14.8229
C 5.71589 17.9395 14.5766
H 5.96811 1.09034 15.3235
H 6.17092 18.2763 13.607
H 4.60968 17.9024 14.4846
C 5.90038 15.6463 16.6172
H 6.47516 16.2697 17.3335
H 4.79239 15.6005 16.9128
H 6.35676 14.64 16.625
Si 9.43067 15.6922 14.4047
O 9.4307 14.0576 14.0661
C 10.6555 16.34 15.6835
H 10.4308 16.0961 16.7093
H 11.6297 15.9756 15.3439
H 10.5172 17.3865 15.5742
C 9.9238 16.6311 12.8768
H 9.46093 17.5747 13.1368
H 11.0775 16.7449 12.8126
H 9.36742 16.1394 12.0589
Si 9.81425 12.7418 14.9426
O 9.64138 11.376 13.992
C 8.6777 12.8622 16.405
H 7.67463 12.4733 16.1641
H 9.04462 12.2438 17.2762
H 8.45283 13.8943 16.7765
C 11.572 13.0112 15.5938
H 11.3891 13.8487 16.2889
H 11.9116 12.0874 16.0632
Si 8.93202 9.88534 14.1121
O 9.19155 9.12643 12.6547
C 7.14178 10.2086 14.444
H 6.95295 10.3832 15.5498
H 6.78029 11.0096 13.8346
H 6.42949 9.4013 14.1407
C 7.53434 5.20181 15.8217
H 7.10199 4.25457 15.475
H 7.85118 5.57902 14.7954
H 6.763 5.79549 16.3241
Si 9.28778 7.86006 11.6334
C 7.54448 7.02604 11.403
H 6.90483 7.45344 10.6423
H 7.03264 7.39235 12.3516
C 10.4374 6.67641 12.5151
H 10.6486 5.92493 11.7644
H 11.3879 6.99778 12.8136
H 10.0728 5.99155 13.3545
Si 16.7804 2.53836 15.6908
O 16.718 0.869871 16.2461
C 18.3351 3.47435 16.2172
H 18.3436 3.43086 17.3023
H 19.2206 3.03141 15.7589
H 18.2453 4.54827 15.8679
C 15.1532 3.3522 16.044
H 14.8054 3.13138 17.0751
H 15.2642 4.47789 15.8995
H 14.27 3.01453 15.4657
Si 17.1437 17.5738 17.5527
O 16.5341 16.089 17.3654
C 18.9883 17.3137 17.4766
H 19.2514 16.3593 17.8784
H 19.4161 17.4232 16.5013
H 19.4949 18.112 18.1849
C 16.3732 0.870154 19.1731
H 17.2244 1.13093 1.42719
H 15.661 1.75135 19.1979
H 15.9954 17.6739 1.38235
Si 15.3865 14.9456 17.6813
O 14.3818 14.3809 16.4724
C 16.1975 13.4153 18.4496
H 17.2418 13.726 18.756
H 15.7531 13.2596 1.0491
H 16.0597 12.4129 17.9457
C 14.0944 15.5329 19.0072
H 13.3849 14.8148 18.5891
H 14.6691 15.4244 1.53509
H 14.0661 16.6494 18.5776
Si 14.2442 13.9595 14.7978
O 15.2629 12.7688 14.3367
C 12.4893 13.3896 14.4462
H 11.9697 14.239 14.0062
H 12.6267 12.5736 13.6735
C 14.9229 15.5259 14.0757
H 15.95 15.3133 13.8363
H 14.4869 15.939 13.1627
H 14.8318 16.3729 14.7759
Si 15.3828 11.121 14.5304
O 14.9501 10.2903 13.138
C 17.1704 10.9084 15.1901
H 17.3513 9.82932 15.5668
H 18.0198 11.0962 14.4497
H 17.5268 11.4623 16.0323
C 14.1599 10.452 15.8364
H 13.1486 10.161 15.6417
H 14.6195 9.49759 16.2053
H 14.2828 11.0754 16.7539
Si 15.3475 9.13501 11.9615
C 14.43 7.61347 12.5331
H 13.6553 7.76071 13.3376
H 14.0068 7.03731 11.7264
H 15.1398 6.84408 13.0076
C 17.1911 8.73538 11.8428
H 17.8539 9.65403 11.7725
H 17.4447 8.39652 12.9128
H 17.4843 7.91914 11.1759
