LAMMPS (22 Jul 2025 - Update 2)
KOKKOS mode with Kokkos version 4.6.2 is enabled
  will use up to 1 GPU(s) per node
WARNING: When using a single thread, the Kokkos Serial backend (i.e. Makefile.kokkos_mpi_only) gives better performance than the OpenMP backend (src/KOKKOS/kokkos.cpp:221)
  using 1 OpenMP thread(s) per MPI task
package kokkos
package kokkos neigh half newton on
# =============================================================================
# LAMMPS input script for PDMS melt-quench densification
# =============================================================================
# OPTIMIZED VERSION - ~1 hour runtime (~20k steps)
#
# Key improvements over original:
# 1. Extended high-pressure equilibration (6000 steps vs 2000)
# 2. Gradual two-stage pressure release (prevents density collapse)
# 3. Increased pdamp for smoother barostat control
# 4. Brief annealing cycle at high pressure
#
# Strategy: 5 GPa compression with proper equilibration and gradual release
# =============================================================================

log             melt_quench_log.lammps
