========================================== 
PDMS Melt-Quench Densification Simulation 
Target density: 1.10 g/cm3 
Using MACE Machine Learning Force Field 
Log file: run_melt_quench_12-Sat-20_10-37-08.log 
Started at: Sat 12/20/2025 10:37:08.79 
========================================== 
 
Using: docker-compose 
Step 1: Converting XYZ to LAMMPS data format... 
Successfully converted silicone_slab.xyz to silicone_slab.lmpdat
Cell dimensions: 22.000 x 19.080 x 20.000 A
Elements found: ['C', 'H', 'O', 'Si']
Total atoms: 523
Initial density: 0.762 g/cm^3
Target density: 1.10 g/cm^3 (PDMS rubber)
XYZ conversion completed successfully. 
 
Step 2: Converting MACE model to MLIAP format... 
Using default model: mace_pretained_models\mace-mpa-0-medium.model 
Converting model in Docker container... 
 Network lammps_melting-quenching-test_cuequi2_default  Creating
 Network lammps_melting-quenching-test_cuequi2_default  Created
/usr/local/lib/python3.10/dist-packages/e3nn/o3/_wigner.py:10: UserWarning: Environment variable TORCH_FORCE_NO_WEIGHTS_ONLY_LOAD detected, since the`weights_only` argument was not explicitly passed to `torch.load`, forcing weights_only=False.
  _Jd, _W3j_flat, _W3j_indices = torch.load(os.path.join(os.path.dirname(__file__), 'constants.pt'))
Failed to get GPU information from pynvml: module 'pynvml' has no attribute 'nvmlDeviceGetNumGpuCores'. Using default values.
/workspace/convert_mace_to_mliap.py:58: UserWarning: Environment variable TORCH_FORCE_NO_WEIGHTS_ONLY_LOAD detected, since the`weights_only` argument was not explicitly passed to `torch.load`, forcing weights_only=False.
  model = torch.load(
/usr/local/lib/python3.10/dist-packages/mace/modules/models.py:84: UserWarning: To copy construct from a tensor, it is recommended to use sourceTensor.detach().clone() or sourceTensor.detach().clone().requires_grad_(True), rather than torch.tensor(sourceTensor).
  "atomic_numbers", torch.tensor(atomic_numbers, dtype=torch.int64)
/usr/local/lib/python3.10/dist-packages/cuequivariance_torch/operations/linear.py:125: DeprecationWarning: `use_fallback` is deprecated, please use `method` instead
  warnings.warn(
/usr/local/lib/python3.10/dist-packages/cuequivariance_torch/operations/linear.py:125: DeprecationWarning: `use_fallback` is deprecated, please use `method` instead
  warnings.warn(
/usr/local/lib/python3.10/dist-packages/cuequivariance_torch/operations/linear.py:125: DeprecationWarning: `use_fallback` is deprecated, please use `method` instead
  warnings.warn(
/usr/local/lib/python3.10/dist-packages/cuequivariance_torch/operations/tp_fully_connected.py:142: DeprecationWarning: `use_fallback` is deprecated, please use `method` instead
  warnings.warn(
/usr/local/lib/python3.10/dist-packages/cuequivariance_torch/operations/linear.py:125: DeprecationWarning: `use_fallback` is deprecated, please use `method` instead
  warnings.warn(
/usr/local/lib/python3.10/dist-packages/cuequivariance_torch/operations/linear.py:125: DeprecationWarning: `use_fallback` is deprecated, please use `method` instead
  warnings.warn(
/usr/local/lib/python3.10/dist-packages/cuequivariance_torch/operations/linear.py:125: DeprecationWarning: `use_fallback` is deprecated, please use `method` instead
  warnings.warn(
/usr/local/lib/python3.10/dist-packages/cuequivariance_torch/operations/linear.py:125: DeprecationWarning: `use_fallback` is deprecated, please use `method` instead
  warnings.warn(
/usr/local/lib/python3.10/dist-packages/cuequivariance_torch/operations/tp_fully_connected.py:142: DeprecationWarning: `use_fallback` is deprecated, please use `method` instead
  warnings.warn(
/usr/local/lib/python3.10/dist-packages/cuequivariance_torch/operations/linear.py:125: DeprecationWarning: `use_fallback` is deprecated, please use `method` instead
  warnings.warn(
/usr/local/lib/python3.10/dist-packages/cuequivariance_torch/operations/linear.py:125: DeprecationWarning: `use_fallback` is deprecated, please use `method` instead
  warnings.warn(
/usr/local/lib/python3.10/dist-packages/cuequivariance_torch/operations/linear.py:125: DeprecationWarning: `use_fallback` is deprecated, please use `method` instead
  warnings.warn(
GPU information: NVIDIA RTX A6000, 8, 6, 45, 84, 300, 2100
cuEquivariance conversion is available - GPU acceleration will be enabled!
No model path provided, using default: /workspace/mace_pretained_models/mace-mpa-0-medium.model
Loading model from: /workspace/mace_pretained_models/mace-mpa-0-medium.model
Converting model to cuEquivariance format for GPU acceleration...
cuEquivariance conversion successful!
Model loaded and converted to float64
Using head: default
Model saved to: /workspace/mace_pretained_models/mace-mpa-0-medium.model-mliap_lammps.pt
Conversion successful!
 
Model conversion completed successfully 
Output file: mace_pretained_models\mace-mpa-0-medium.model-mliap_lammps.pt 
 
Step 3: Running melt-quench simulation... 
This may take a while... 

==========
== CUDA ==
==========

CUDA Version 12.9.0

Container image Copyright (c) 2016-2023, NVIDIA CORPORATION & AFFILIATES. All rights reserved.

This container image and its contents are governed by the NVIDIA Deep Learning Container License.
By pulling and using the container, you accept the terms and conditions of this license:
https://developer.nvidia.com/ngc/nvidia-deep-learning-container-license

A copy of this license is made available in this container at /NGC-DL-CONTAINER-LICENSE for your convenience.

LAMMPS (22 Jul 2025 - Update 2)
/usr/local/lib/python3.10/dist-packages/e3nn/o3/_wigner.py:10: UserWarning: Environment variable TORCH_FORCE_NO_WEIGHTS_ONLY_LOAD detected, since the`weights_only` argument was not explicitly passed to `torch.load`, forcing weights_only=False.
  _Jd, _W3j_flat, _W3j_indices = torch.load(os.path.join(os.path.dirname(__file__), 'constants.pt'))
Failed to get GPU information from pynvml: module 'pynvml' has no attribute 'nvmlDeviceGetNumGpuCores'. Using default values.
W1220 02:37:39.585000 1 torch/fx/_symbolic_trace.py:52] is_fx_tracing will return true for both fx.symbolic_trace and torch.export. Please use is_fx_tracing_symbolic_tracing() for specifically fx.symbolic_trace or torch.compiler.is_compiling() for specifically torch.export/compile.
/usr/local/lib/python3.10/dist-packages/mace/calculators/lammps_mliap_mace.py:193: UserWarning: Converting a tensor with requires_grad=True to a scalar may lead to unexpected behavior.
Consider using tensor.detach() first. (Triggered internally at /pytorch/torch/csrc/autograd/generated/python_variable_methods.cpp:836.)
  data.energy = torch.sum(atom_energies[:natoms])
KOKKOS mode with Kokkos version 4.6.2 is enabled
  will use up to 1 GPU(s) per node
WARNING: When using a single thread, the Kokkos Serial backend (i.e. Makefile.kokkos_mpi_only) gives better performance than the OpenMP backend (src/KOKKOS/kokkos.cpp:221)
  using 1 OpenMP thread(s) per MPI task
Reading data file ...
  orthogonal box = (0 0 0) to (22 19.079963 20)
  1 by 1 by 1 MPI processor grid
  reading atoms ...
  523 atoms
  read_data CPU = 0.026 seconds
Step 1: Quick Minimization
Neighbor list info ...
  update: every = 1 steps, delay = 0 steps, check = yes
  max neighbors/atom: 2000, page size: 100000
  master list distance cutoff = 8
  ghost atom cutoff = 8
  binsize = 8, bins = 3 3 3
  1 neighbor lists, perpetual/occasional/extra = 1 0 0
  (1) pair mliap/kk, perpetual
      attributes: full, newton on, kokkos_device
      pair build: full/bin/kk/device
      stencil: full/bin/3d
      bin: kk/device
Setting up cg/kk style minimization ...
  Unit style    : metal
  Current step  : 0
WARNING: Fix MINIMIZE/kk not compatible with sending data in Kokkos communication (src/KOKKOS/comm_kokkos.cpp:767)
WARNING: Fix with atom-based arrays not compatible with sending data in Kokkos communication, switching to classic exchange/border communication (src/KOKKOS/comm_kokkos.cpp:780)
WARNING: Fix MINIMIZE/kk not compatible with Kokkos sorting on device (src/KOKKOS/atom_kokkos.cpp:212)
WARNING: Fix with atom-based arrays not compatible with Kokkos sorting on device, switching to classic host sorting (src/KOKKOS/atom_kokkos.cpp:218)
Per MPI rank memory allocation (min/avg/max) = 118.4 | 118.4 | 118.4 Mbytes
   Step          CPU           S/CPU           Temp          Press          PotEng         KinEng         TotEng         Volume        Density          Fmax          Fnorm     
         0   0              0              0              150097.85     -2363.8186      0             -2363.8186      8395.1837      0.76196043     12.378492      76.805711    
        70   10.713423      6.5338564      0              3768.6545     -2817.92        0             -2817.92        8395.1837      0.76196043     0.69849075     3.4079092    
Loop time of 10.7145 on 1 procs for 70 steps with 523 atoms

93.9% CPU use with 1 MPI tasks x 1 OpenMP threads

Minimization stats:
  Stopping criterion = energy tolerance
  Energy initial, next-to-last, final = 
     -2363.81860700332  -2817.64874578812  -2817.92003207292
  Force two-norm initial, final = 76.805711 3.4079092
  Force max component initial, final = 12.378492 0.69849075
  Final line search alpha, max atom move = 0.11674468 0.081545081
  Iterations, force evaluations = 70 90

MPI task timing breakdown:
Section |  min time  |  avg time  |  max time  |%varavg| %total
---------------------------------------------------------------
Pair    | 10.604     | 10.604     | 10.604     |   0.0 | 98.97
Neigh   | 0.0056303  | 0.0056303  | 0.0056303  |   0.0 |  0.05
Comm    | 0.040483   | 0.040483   | 0.040483   |   0.0 |  0.38
Output  | 0          | 0          | 0          |   0.0 |  0.00
Modify  | 0          | 0          | 0          |   0.0 |  0.00
Other   |            | 0.06395    |            |       |  0.60

Nlocal:            523 ave         523 max         523 min
Histogram: 1 0 0 0 0 0 0 0 0 0
Nghost:           2285 ave        2285 max        2285 min
Histogram: 1 0 0 0 0 0 0 0 0 0
Neighs:              0 ave           0 max           0 min
Histogram: 1 0 0 0 0 0 0 0 0 0
FullNghs:        77608 ave       77608 max       77608 min
Histogram: 1 0 0 0 0 0 0 0 0 0

Total # of neighbors = 77608
Ave neighs/atom = 148.39006
Neighbor list builds = 5
Dangerous builds = 0
Initial density: 0.761960427262085 g/cm^3
Step 2: Heating 300K -> 500K (600 steps)
Setting up Verlet run ...
  Unit style    : metal
  Current step  : 70
  Time step     : 0.001
Per MPI rank memory allocation (min/avg/max) = 126.5 | 126.5 | 126.5 Mbytes
   Step          CPU           S/CPU           Temp          Press          PotEng         KinEng         TotEng         Volume        Density          Fmax          Fnorm     
        70   0              0              300            6344.058      -2817.92        20.242139     -2797.6779      8395.1837      0.76196043     0.69849075     3.4079092    
       100   2.8687606      10.457458      131.37919      3430.0967     -2806.071       8.8646527     -2797.2064      8400.5645      0.76147237     2.8132651      26.748437    
       200   12.272315      10.634278      298.10878      2174.4099     -2816.2159      20.114531     -2796.1014      8479.5809      0.75437665     3.0558258      20.599788    
       300   21.209789      11.188842      359.30666      2400.9465     -2819.229       24.243784     -2794.9852      8631.5906      0.74109142     3.2817113      23.723343    
       400   30.142866      11.194348      418.76095      914.34371     -2822.3333      28.255391     -2794.0779      8827.4196      0.72465092     2.4205518      22.093492    
       500   39.124689      11.133591      395.86411      5387.4558     -2819.9807      26.710454     -2793.2702      9029.0956      0.70846495     2.6402979      24.309441    
       600   48.212621      11.0036        388.82236      4586.9659     -2818.3035      26.235321     -2792.0682      9283.7892      0.68902876     2.7376469      22.729183    
       670   54.563205      11.022624      415.2663       1811.018      -2818.7604      28.019593     -2790.7408      9480.803       0.67471054     3.1881836      24.746484    
Loop time of 54.564 on 1 procs for 600 steps with 523 atoms

Performance: 0.950 ns/day, 25.261 hours/ns, 10.996 timesteps/s, 5.751 katom-step/s
96.8% CPU use with 1 MPI tasks x 1 OpenMP threads

MPI task timing breakdown:
Section |  min time  |  avg time  |  max time  |%varavg| %total
---------------------------------------------------------------
Pair    | 53.18      | 53.18      | 53.18      |   0.0 | 97.46
Neigh   | 0.035119   | 0.035119   | 0.035119   |   0.0 |  0.06
Comm    | 0.253      | 0.253      | 0.253      |   0.0 |  0.46
Output  | 0.016808   | 0.016808   | 0.016808   |   0.0 |  0.03
Modify  | 0.92046    | 0.92046    | 0.92046    |   0.0 |  1.69
Other   |            | 0.1587     |            |       |  0.29

Nlocal:            523 ave         523 max         523 min
Histogram: 1 0 0 0 0 0 0 0 0 0
Nghost:           2217 ave        2217 max        2217 min
Histogram: 1 0 0 0 0 0 0 0 0 0
Neighs:              0 ave           0 max           0 min
Histogram: 1 0 0 0 0 0 0 0 0 0
FullNghs:        69524 ave       69524 max       69524 min
Histogram: 1 0 0 0 0 0 0 0 0 0

Total # of neighbors = 69524
Ave neighs/atom = 132.93308
Neighbor list builds = 26
Dangerous builds = 0
Step 3: Compression 0 -> 5 GPa (2000 steps)
Setting up Verlet run ...
  Unit style    : metal
  Current step  : 670
  Time step     : 0.001
Per MPI rank memory allocation (min/avg/max) = 125.2 | 125.2 | 125.2 Mbytes
   Step          CPU           S/CPU           Temp          Press          PotEng         KinEng         TotEng         Volume        Density          Fmax          Fnorm     
       670   0              0              415.2663       1811.018      -2818.7604      28.019593     -2790.7408      9480.803       0.67471054     3.1881836      24.746484    
       700   2.6923287      11.142754      417.88945      6447.8239     -2818.8201      28.196588     -2790.6235      9483.0224      0.67455264     2.758632       24.278852    
       800   11.734421      11.059386      451.99147      2592.7923     -2819.5646      30.49758      -2789.067       9525.5632      0.67154011     2.6329347      24.602451    
       900   20.759895      11.079751      448.31849      3521.7581     -2817.7198      30.24975      -2787.47        9571.4546      0.66832034     2.6537963      25.252736    
      1000   29.728745      11.149701      470.36126      2154.5389     -2817.725       31.737059     -2785.9879      9565.1956      0.66875765     2.6028029      26.316114    
      1100   38.68141       11.169851      493.20546      3687.0143     -2817.5228      33.278444     -2784.2444      9446.6726      0.67714824     3.0580845      27.212884    
      1200   47.404666      11.463619      513.68905      5753.1307     -2817.0909      34.66055      -2782.4303      9180.0664      0.69681389     4.052833       27.843491    
      1300   56.401349      11.115205      524.64854      4632.7245     -2816.53        35.400029     -2781.1299      8803.2211      0.72664286     2.9541469      28.290776    
      1400   65.555627      10.923856      546.68214      4219.1117     -2816.9703      36.886719     -2780.0836      8420.1218      0.75970371     3.11501        28.04784     
      1500   74.935254      10.661405      511.68415      5131.0533     -2814.8461      34.525272     -2780.3208      8065.1921      0.79313644     3.2872763      27.787698    
      1600   84.290624      10.689048      536.38942      4605.4408     -2816.4773      36.19223      -2780.2851      7714.2696      0.82921626     3.018689       27.500529    
      1700   93.583912      10.760455      508.5477       9799.8201     -2814.6299      34.313644     -2780.3163      7362.9138      0.86878618     3.3540418      27.992977    
      1800   103.13659      10.468265      508.41765      6950.9464     -2814.8648      34.304868     -2780.56        7027.7363      0.91022166     3.1520235      28.641539    
      1900   112.9147       10.226931      514.00932      10213.753     -2815.0405      34.68216      -2780.3583      6721.9935      0.95162213     3.0578965      27.864125    
      2000   122.96403      9.9509062      515.87924      14862.495     -2814.1853      34.80833      -2779.377       6453.6439      0.99119162     3.209016       28.832551    
      2100   133.12183      9.8446533      522.4893       17200.046     -2813.9841      35.254336     -2778.7298      6216.2807      1.0290394      3.7605608      28.757575    
      2200   155.95329      4.3799218      537.69504      22040.429     -2814.2368      36.280325     -2777.9565      5993.7125      1.0672514      3.3869827      28.402087    
      2300   185.91898      3.3371428      535.2429       24459.366     -2812.9206      36.11487      -2776.8057      5793.3417      1.1041637      3.892651       28.685507    
      2400   218.30277      3.0879662      562.63002      29329.293     -2813.8216      37.962783     -2775.8588      5607.3724      1.1407835      3.5307341      29.424737    
      2500   248.44675      3.3174135      520.05093      30184.386     -2809.9287      35.08981      -2774.8389      5442.6034      1.1753195      4.6388022      28.947482    
      2600   276.00439      3.6287587      537.27226      30811.374     -2810.2231      36.251799     -2773.9713      5293.9808      1.2083152      3.5256259      28.061245    
      2670   302.01705      2.6909974      530.77621      38828.034     -2809.0053      35.813486     -2773.1918      5193.2854      1.2317439      3.5037219      28.190969    
Loop time of 302.018 on 1 procs for 2000 steps with 523 atoms

Performance: 0.572 ns/day, 41.947 hours/ns, 6.622 timesteps/s, 3.463 katom-step/s
89.6% CPU use with 1 MPI tasks x 1 OpenMP threads

MPI task timing breakdown:
Section |  min time  |  avg time  |  max time  |%varavg| %total
---------------------------------------------------------------
Pair    | 297.23     | 297.23     | 297.23     |   0.0 | 98.42
Neigh   | 0.14385    | 0.14385    | 0.14385    |   0.0 |  0.05
Comm    | 0.8967     | 0.8967     | 0.8967     |   0.0 |  0.30
Output  | 0.059934   | 0.059934   | 0.059934   |   0.0 |  0.02
Modify  | 3.1408     | 3.1408     | 3.1408     |   0.0 |  1.04
Other   |            | 0.5427     |            |       |  0.18

Nlocal:            523 ave         523 max         523 min
Histogram: 1 0 0 0 0 0 0 0 0 0
Nghost:           3269 ave        3269 max        3269 min
Histogram: 1 0 0 0 0 0 0 0 0 0
Neighs:              0 ave           0 max           0 min
Histogram: 1 0 0 0 0 0 0 0 0 0
FullNghs:       112506 ave      112506 max      112506 min
Histogram: 1 0 0 0 0 0 0 0 0 0

Total # of neighbors = 112506
Ave neighs/atom = 215.11663
Neighbor list builds = 111
Dangerous builds = 0
Step 4: Hold at 5 GPa (2000 steps)
Setting up Verlet run ...
  Unit style    : metal
  Current step  : 2670
  Time step     : 0.001
Per MPI rank memory allocation (min/avg/max) = 144.2 | 144.2 | 144.2 Mbytes
   Step          CPU           S/CPU           Temp          Press          PotEng         KinEng         TotEng         Volume        Density          Fmax          Fnorm     
      2670   0              0              530.77621      38828.034     -2809.0053      35.813486     -2773.1918      5193.2854      1.2317439      3.5037219      28.190969    
      2700   3.4321352      8.7409054      524.64522      31104.435     -2808.5429      35.399804     -2773.1431      5189.8967      1.2325482      3.3092753      27.400596    
      2800   26.416604      4.3507636      524.18815      41670.279     -2807.7516      35.368964     -2772.3826      5128.5318      1.2472961      3.1212232      28.967905    
      2900   54.184026      3.6013388      542.50125      37590.219     -2807.9191      36.604619     -2771.3144      5016.6674      1.275109       3.0061945      27.190479    
      3000   83.83924       3.3720881      539.80696      46760.96      -2805.6857      36.422825     -2769.2629      4890.8205      1.3079191      3.2761847      29.065007    
      3100   141.56217      1.7324137      497.4088       56041.342     -2800.5643      33.562059     -2767.0022      4789.427       1.3356081      3.622008       28.586571    
      3200   165.04039      4.2592729      501.04772      59626.604     -2799.6859      33.807591     -2765.8783      4738.54        1.3499512      3.3459152      29.728099    
      3300   197.05427      3.1236451      506.06358      56461.731     -2800.5365      34.146031     -2766.3905      4726.892       1.3532777      3.1269647      29.06677     
      3400   229.31135      3.1000944      485.31371      55862.76      -2800.7758      32.745958     -2768.0298      4744.3126      1.3483087      3.3853723      29.134073    
      3500   257.85994      3.5028004      493.99532      52019.019     -2803.303       33.331739     -2769.9713      4778.7928      1.3385803      3.5846887      29.894466    
      3600   272.54849      6.8080251      483.88682      44570.411     -2804.4366      32.64968      -2771.787       4819.1818      1.3273618      3.1029176      29.129821    
      3700   287.50737      6.6849928      497.87648      47670.233     -2806.6805      33.593616     -2773.0869      4845.0316      1.3202799      3.4688157      28.340162    
      3800   302.47126      6.6827547      482.76293      45298.367     -2806.3131      32.573847     -2773.7392      4848.5189      1.3193303      2.9440419      29.800949    
      3900   317.35329      6.7195097      469.45266      52679.402     -2805.3165      31.675753     -2773.6407      4833.1284      1.3235315      3.2683173      29.583439    
      4000   332.3295       6.6772566      466.1103       51830.763     -2804.3951      31.450231     -2772.9449      4817.268       1.3278891      4.5116348      29.583777    
      4100   347.23716      6.7079614      511.7565       51691.281     -2805.7795      34.530154     -2771.2494      4802.4637      1.3319825      3.4748053      31.325245    
      4200   361.72671      6.9015281      528.38577      46525.173     -2804.9028      35.652194     -2769.2506      4781.2398      1.3378952      3.7303034      31.35207     
      4300   385.65087      4.1798751      510.07386      51512.721     -2802.4705      34.416619     -2768.0539      4766.9272      1.3419122      3.703842       31.320996    
      4400   413.07477      3.6464542      487.95884      45231.251     -2800.7676      32.924435     -2767.8432      4760.0932      1.3438388      4.04298        32.173766    
      4500   445.48009      3.0859126      524.26737      59964.092     -2804.0313      35.37431      -2768.657       4761.956       1.3433131      3.8841543      32.915487    
      4600   473.68111      3.5459709      497.4811       54274.033     -2804.1117      33.566938     -2770.5447      4773.2182      1.3401436      3.4222553      32.344822    
      4670   483.49782      7.1306995      511.9672       56323.136     -2806.3087      34.54437      -2771.7643      4778.4022      1.3386897      3.2366536      31.368203    
Loop time of 483.499 on 1 procs for 2000 steps with 523 atoms

Performance: 0.357 ns/day, 67.153 hours/ns, 4.137 timesteps/s, 2.163 katom-step/s
95.4% CPU use with 1 MPI tasks x 1 OpenMP threads

MPI task timing breakdown:
Section |  min time  |  avg time  |  max time  |%varavg| %total
---------------------------------------------------------------
Pair    | 478.42     | 478.42     | 478.42     |   0.0 | 98.95
Neigh   | 0.17146    | 0.17146    | 0.17146    |   0.0 |  0.04
Comm    | 0.93616    | 0.93616    | 0.93616    |   0.0 |  0.19
Output  | 0.031529   | 0.031529   | 0.031529   |   0.0 |  0.01
Modify  | 3.3668     | 3.3668     | 3.3668     |   0.0 |  0.70
Other   |            | 0.5685     |            |       |  0.12

Nlocal:            523 ave         523 max         523 min
Histogram: 1 0 0 0 0 0 0 0 0 0
Nghost:           3315 ave        3315 max        3315 min
Histogram: 1 0 0 0 0 0 0 0 0 0
Neighs:              0 ave           0 max           0 min
Histogram: 1 0 0 0 0 0 0 0 0 0
FullNghs:       122218 ave      122218 max      122218 min
Histogram: 1 0 0 0 0 0 0 0 0 0

Total # of neighbors = 122218
Ave neighs/atom = 233.68642
Neighbor list builds = 101
Dangerous builds = 0
Density after compression: 1.33868968481044 g/cm^3
Step 5: Pressure release (1200 steps)
Setting up Verlet run ...
  Unit style    : metal
  Current step  : 4670
  Time step     : 0.001
Per MPI rank memory allocation (min/avg/max) = 154 | 154 | 154 Mbytes
   Step          CPU           S/CPU           Temp          Press          PotEng         KinEng         TotEng         Volume        Density          Fmax          Fnorm     
      4670   0              0              511.9672       56323.136     -2806.3087      34.54437      -2771.7643      4778.4022      1.3386897      3.2366536      31.368203    
      4700   4.2687262      7.0278501      503.79949      48245.257     -2805.7628      33.993264     -2771.7695      4778.9035      1.3385493      3.8498556      31.95379     
      4800   19.628982      6.5103082      493.01443      50269.817     -2805.021       33.265555     -2771.7554      4781.5289      1.3378143      4.6246076      33.421115    
      4900   35.603502      6.2599692      503.58696      49294.611     -2805.9017      33.978924     -2771.9228      4795.8248      1.3338264      3.9092658      33.31483     
      5000   52.292955      5.9918079      518.97362      40147.097     -2807.1895      35.01712      -2772.1724      4829.2175      1.3246034      3.3598436      31.789436    
      5100   68.954136      6.0019755      494.51268      47305.355     -2806.1587      33.366648     -2772.7921      4896.4836      1.3064064      4.2230876      33.926102    
      5200   85.506156      6.0415586      495.58696      36714.357     -2807.3372      33.439133     -2773.8981      5003.6305      1.2784313      5.3957009      35.036734    
      5300   101.87723      6.1083351      526.87454      32020.098     -2811.8479      35.550225     -2776.2977      5141.0894      1.2442495      4.1343124      32.693505    
      5400   118.31882      6.0821352      506.18061      31629.251     -2813.0165      34.153927     -2778.8626      5294.5081      1.2081949      4.355074       34.013848    
      5500   134.545        6.1628809      499.98859      23241.922     -2815.0483      33.736128     -2781.3121      5441.7274      1.1755087      3.8137273      33.110489    
      5600   149.92245      6.5030309      485.06093      22236.429     -2816.152       32.728902     -2783.4231      5575.3386      1.147338       4.8448482      32.810922    
      5700   165.32817      6.4910918      488.10098      14273.645     -2818.7146      32.934026     -2785.7806      5706.9594      1.1208767      3.3709536      32.491601    
      5800   180.89311      6.4246989      481.65569      16460.97      -2820.719       32.499138     -2788.2198      5844.1508      1.0945641      4.6046566      33.476055    
      5870   191.50341      6.5973585      476.22244      10920.968     -2821.7063      32.132536     -2789.5737      5958.4321      1.0735706      4.1711832      33.496034    
Loop time of 191.505 on 1 procs for 1200 steps with 523 atoms

Performance: 0.541 ns/day, 44.330 hours/ns, 6.266 timesteps/s, 3.277 katom-step/s
98.0% CPU use with 1 MPI tasks x 1 OpenMP threads

MPI task timing breakdown:
Section |  min time  |  avg time  |  max time  |%varavg| %total
---------------------------------------------------------------
Pair    | 188.39     | 188.39     | 188.39     |   0.0 | 98.37
Neigh   | 0.080368   | 0.080368   | 0.080368   |   0.0 |  0.04
Comm    | 0.57572    | 0.57572    | 0.57572    |   0.0 |  0.30
Output  | 0.024868   | 0.024868   | 0.024868   |   0.0 |  0.01
Modify  | 2.0827     | 2.0827     | 2.0827     |   0.0 |  1.09
Other   |            | 0.3489     |            |       |  0.18

Nlocal:            523 ave         523 max         523 min
Histogram: 1 0 0 0 0 0 0 0 0 0
Nghost:           2935 ave        2935 max        2935 min
Histogram: 1 0 0 0 0 0 0 0 0 0
Neighs:              0 ave           0 max           0 min
Histogram: 1 0 0 0 0 0 0 0 0 0
FullNghs:        98152 ave       98152 max       98152 min
Histogram: 1 0 0 0 0 0 0 0 0 0

Total # of neighbors = 98152
Ave neighs/atom = 187.67113
Neighbor list builds = 56
Dangerous builds = 0
Step 6: Cooling 500K -> 300K (600 steps)
Setting up Verlet run ...
  Unit style    : metal
  Current step  : 5870
  Time step     : 0.001
Per MPI rank memory allocation (min/avg/max) = 152.3 | 152.3 | 152.3 Mbytes
   Step          CPU           S/CPU           Temp          Press          PotEng         KinEng         TotEng         Volume        Density          Fmax          Fnorm     
      5870   0              0              476.22244      10920.968     -2821.7063      32.132536     -2789.5737      5958.4321      1.0735706      4.1711832      33.496034    
      5900   4.6359949      6.4710964      463.27691      10910.628     -2820.8249      31.259052     -2789.5658      5962.5341      1.0728321      3.6346417      32.770222    
      6000   20.002494      6.507663       446.05483      10513.244     -2819.7033      30.097012     -2789.6063      6025.2297      1.0616687      4.1949172      33.149066    
      6100   35.384987      6.5008969      490.58487      3029.2195     -2823.5388      33.101623     -2790.4371      6157.941       1.0387884      4.8672105      32.983734    
      6200   47.977733      7.9410801      453.78956      4425.3046     -2824.1699      30.618904     -2793.551       6335.4355      1.0096856      3.6521614      32.719178    
      6300   60.142151      8.2206968      425.54264      2889.0458     -2825.0274      28.712977     -2796.3144      6521.4968      0.98087877     3.554972       32.815923    
      6400   72.166926      8.3161641      417.2437       3486.5819     -2827.4428      28.153016     -2799.2898      6685.5046      0.95681599     3.8612234      31.078168    
      6470   80.535971      8.3641568      414.812        2158.5842     -2829.481       27.98894      -2801.4921      6783.3181      0.94301899     3.9614946      30.031055    
Loop time of 80.5373 on 1 procs for 600 steps with 523 atoms

Performance: 0.644 ns/day, 37.286 hours/ns, 7.450 timesteps/s, 3.896 katom-step/s
97.6% CPU use with 1 MPI tasks x 1 OpenMP threads

MPI task timing breakdown:
Section |  min time  |  avg time  |  max time  |%varavg| %total
---------------------------------------------------------------
Pair    | 79.034     | 79.034     | 79.034     |   0.0 | 98.13
Neigh   | 0.034105   | 0.034105   | 0.034105   |   0.0 |  0.04
Comm    | 0.27015    | 0.27015    | 0.27015    |   0.0 |  0.34
Output  | 0.016529   | 0.016529   | 0.016529   |   0.0 |  0.02
Modify  | 1.0109     | 1.0109     | 1.0109     |   0.0 |  1.26
Other   |            | 0.1721     |            |       |  0.21

Nlocal:            523 ave         523 max         523 min
Histogram: 1 0 0 0 0 0 0 0 0 0
Nghost:           2763 ave        2763 max        2763 min
Histogram: 1 0 0 0 0 0 0 0 0 0
Neighs:              0 ave           0 max           0 min
Histogram: 1 0 0 0 0 0 0 0 0 0
FullNghs:        86048 ave       86048 max       86048 min
Histogram: 1 0 0 0 0 0 0 0 0 0

Total # of neighbors = 86048
Ave neighs/atom = 164.52772
Neighbor list builds = 25
Dangerous builds = 0
Step 7: Brief equilibration (600 steps)
Setting up Verlet run ...
  Unit style    : metal
  Current step  : 6470
  Time step     : 0.001
Per MPI rank memory allocation (min/avg/max) = 152.2 | 152.2 | 152.2 Mbytes
   Step          CPU           S/CPU           Temp          Press          PotEng         KinEng         TotEng         Volume        Density          Fmax          Fnorm     
      6470   0              0              414.812        2158.5842     -2829.481       27.98894      -2801.4921      6783.3181      0.94301899     3.9614946      30.031055    
      6500   3.5482087      8.4549605      411.84921      2642.5558     -2829.5469      27.789029     -2801.7578      6784.8767      0.94280236     4.0186562      29.98524     
      6600   15.539517      8.3393732      364.13949      6692.6897     -2828.8358      24.569874     -2804.2659      6828.4041      0.9367925      4.0532338      30.104008    
      6700   28.125435      7.9453866      384.99199     -1610.5807     -2832.547       25.976871     -2806.5702      6936.4386      0.92220203     3.465357       28.625243    
      6800   40.511156      8.0738147      346.31833     -711.11186     -2832.3365      23.367412     -2808.9691      7070.341       0.90473682     3.6283302      29.021455    
      6900   52.607545      8.2669299      328.25482     -1580.6561     -2833.2453      22.148599     -2811.0967      7210.7118      0.88712432     3.4734202      28.203911    
      7000   64.488862      8.4165752      325.60192     -1989.3208     -2834.8704      21.969597     -2812.9008      7342.2308      0.87123355     3.5825543      28.236188    
      7070   72.869259      8.3528264      304.01689     -2282.8523     -2834.5424      20.513174     -2814.0292      7421.5538      0.86192164     3.5544212      27.591082    
Loop time of 72.8705 on 1 procs for 600 steps with 523 atoms

Performance: 0.711 ns/day, 33.736 hours/ns, 8.234 timesteps/s, 4.306 katom-step/s
97.4% CPU use with 1 MPI tasks x 1 OpenMP threads

MPI task timing breakdown:
Section |  min time  |  avg time  |  max time  |%varavg| %total
---------------------------------------------------------------
Pair    | 71.354     | 71.354     | 71.354     |   0.0 | 97.92
Neigh   | 0.025498   | 0.025498   | 0.025498   |   0.0 |  0.03
Comm    | 0.27536    | 0.27536    | 0.27536    |   0.0 |  0.38
Output  | 0.024714   | 0.024714   | 0.024714   |   0.0 |  0.03
Modify  | 1.0213     | 1.0213     | 1.0213     |   0.0 |  1.40
Other   |            | 0.1698     |            |       |  0.23

Nlocal:            523 ave         523 max         523 min
Histogram: 1 0 0 0 0 0 0 0 0 0
Nghost:           2662 ave        2662 max        2662 min
Histogram: 1 0 0 0 0 0 0 0 0 0
Neighs:              0 ave           0 max           0 min
Histogram: 1 0 0 0 0 0 0 0 0 0
FullNghs:        78348 ave       78348 max       78348 min
Histogram: 1 0 0 0 0 0 0 0 0 0

Total # of neighbors = 78348
Ave neighs/atom = 149.80497
Neighbor list builds = 20
Dangerous builds = 0
System init for write_data ...
WARNING: No fixes with time integration, atoms won't move
For more information see https://docs.lammps.org/err0028 (src/verlet.cpp:60)
Setting up Verlet run ...
  Unit style    : metal
  Current step  : 7070
  Time step     : 0.001
Per MPI rank memory allocation (min/avg/max) = 150.5 | 150.5 | 150.5 Mbytes
   Step          CPU           S/CPU           Temp          Press          PotEng         KinEng         TotEng         Volume        Density          Fmax          Fnorm     
      7070   0              0              304.01689     -2282.8523     -2834.5424      20.513174     -2814.0292      7421.5538      0.86192164     3.5544212      27.591082    
GPU information: NVIDIA RTX A6000, 8, 6, 45, 84, 300, 2100
Loop time of 0.000354628 on 1 procs for 0 steps with 523 atoms

99.3% CPU use with 1 MPI tasks x 1 OpenMP threads

MPI task timing breakdown:
Section |  min time  |  avg time  |  max time  |%varavg| %total
---------------------------------------------------------------
Pair    | 0          | 0          | 0          |   0.0 |  0.00
Neigh   | 0          | 0          | 0          |   0.0 |  0.00
Comm    | 0          | 0          | 0          |   0.0 |  0.00
Output  | 0          | 0          | 0          |   0.0 |  0.00
Modify  | 0          | 0          | 0          |   0.0 |  0.00
Other   |            | 0.0003546  |            |       |100.00

Nlocal:            523 ave         523 max         523 min
Histogram: 1 0 0 0 0 0 0 0 0 0
Nghost:           2660 ave        2660 max        2660 min
Histogram: 1 0 0 0 0 0 0 0 0 0
Neighs:              0 ave           0 max           0 min
Histogram: 1 0 0 0 0 0 0 0 0 0
FullNghs:        78246 ave       78246 max       78246 min
Histogram: 1 0 0 0 0 0 0 0 0 0

Total # of neighbors = 78246
Ave neighs/atom = 149.60994
Neighbor list builds = 0
Dangerous builds = 0
System init for write_restart ...
==========================================
ULTRA-FAST TEST Complete!
==========================================
  Initial density:     0.861921636686778 g/cm^3
  After compression:   0.861921636686778 g/cm^3
  Final density:       0.861921636686778 g/cm^3
  Target:              1.1 g/cm^3
  Relative error:      21.6434875739293%%
==========================================
Total: ~7000 steps (~1 hour @ 2 ts/s)
Strategy: 5 GPa aggressive compression

NOTE: This is a TEST run. If density improves,
increase step counts 10-20x for production.
==========================================
Total wall time: 0:20:31
 
Melt-quench simulation completed. 
========================================== 
Simulation completed 
Completed at: Sat 12/20/2025 10:58:08.24 
 
Output files: 
  - densified_pdms.lmpdat (LAMMPS data) 
  - densified_pdms.xyz (XYZ format) 
  - densified_pdms.restart (restart file) 
  - trajectory.xyz (full trajectory) 
  - melt_quench_log.lammps (LAMMPS log) 
========================================== 
