523
 Atoms. Timestep: 500
Si 1.82512 15.3031 1.5729
O 2.55707 14.669 0.24548
C 0.0375853 15.564 1.27227
H 21.8116 14.9146 0.432773
H 21.6012 15.2904 2.22575
H 21.9587 16.5918 0.932489
C 1.99738 14.7358 3.33645
H 1.10018 14.1976 3.65974
H 2.84784 14.056 3.45045
H 2.14046 15.5769 3.96505
Si 2.71911 13.0976 19.6419
O 3.52173 12.0851 0.601091
C 3.89904 13.4963 18.1795
H 4.3582 14.4903 18.2921
H 4.75765 12.7809 18.3196
H 3.38349 13.5528 17.2317
C 0.92523 12.601 19.3464
H 0.864767 11.7795 18.6209
H 0.66345 12.25 0.246794
H 0.353792 13.447 19.0975
Si 4.23763 10.6586 0.980793
O 3.01753 9.65057 1.44728
C 5.56464 10.851 2.30823
H 5.21773 11.305 3.25277
H 5.83603 9.81194 2.52977
H 6.3268 11.4944 1.90437
C 5.16273 9.66985 19.7103
H 6.02922 10.235 19.3916
H 5.43849 8.77016 0.110948
H 4.58344 9.46199 18.862
Si 2.74058 8.3769 2.46137
O 1.96635 7.23349 1.51062
C 1.55711 8.91917 3.74908
H 1.9897 9.48508 4.59222
H 0.769828 9.54781 3.36132
H 1.11307 8.03681 4.22297
C 4.25825 7.62364 3.30312
H 4.39037 8.11334 4.25203
H 3.98044 6.57518 3.41756
H 5.22548 7.6395 2.76398
Si 1.07039 5.89487 1.64447
O 1.7907 4.67148 0.753683
C 21.7173 6.12208 0.461696
H 0.038632 6.33609 19.5518
H 21.0513 5.1948 0.349746
H 21.0671 6.93845 0.74891
C 0.750415 5.33816 3.38868
H 21.9788 5.79562 3.89769
H 0.552005 4.26005 3.41935
H 1.668 5.46441 4.05119
Si 2.57474 3.2551 0.64234
C 2.10148 2.09081 19.3657
H 2.58202 2.43791 18.4052
H 2.4174 1.01771 19.5674
H 1.04829 2.19386 19.1879
C 4.02097 2.87259 1.70759
H 4.49967 1.93401 1.33265
H 4.76905 3.62864 1.79613
H 3.62443 2.56482 2.6916
Si 6.98397 14.5246 2.66476
O 7.11397 13.8463 1.14027
C 7.63705 16.2539 2.75327
H 8.28687 16.4557 3.63193
H 8.19382 16.547 1.80998
H 6.80685 16.9369 2.80835
C 5.16857 14.4874 2.97457
H 4.70236 13.5247 3.29129
H 4.88036 15.2114 3.69032
H 4.68919 14.7307 2.01434
Si 8.41795 13.5034 0.0840831
O 8.71742 11.9373 0.497519
C 9.80519 14.795 0.135444
H 10.169 14.7793 1.13347
H 10.6702 14.6076 19.5819
H 9.40069 15.8252 20.0471
C 7.78271 13.7137 18.4718
H 8.55555 14.0088 17.7403
H 7.28356 12.7834 18.1386
H 6.92489 14.4335 18.4707
Si 10.3011 11.3356 0.446772
O 10.156 9.69515 0.511248
C 11.4426 11.998 1.72312
H 11.1719 12.0912 2.80279
H 12.3544 11.3076 1.84279
H 11.8108 13.0244 1.37502
C 10.882 11.8224 18.8342
H 11.8935 11.5056 18.7699
H 10.2532 11.344 18.1212
H 10.9154 12.9108 18.6607
Si 10.7487 8.33142 1.26164
O 9.61453 7.06826 1.05475
C 11.1611 8.56076 3.06429
H 10.1808 8.62459 3.60017
H 11.7187 7.69877 3.54486
H 11.7398 9.49008 3.22276
C 12.2406 8.06306 0.125667
H 11.7299 7.67486 19.3392
H 12.5518 9.0872 19.9165
Si 9.40668 5.50319 1.56114
O 9.53132 4.49562 0.224896
C 7.62081 5.3137 2.20531
H 6.90026 5.6506 1.49456
H 7.48212 4.27137 2.43905
H 7.45656 5.95041 3.12983
C 10.7146 5.16359 2.79089
H 10.3108 5.77397 3.61538
H 10.7846 4.1391 3.12929
H 11.7267 5.54076 2.52618
Si 10.1902 3.48551 19.2043
C 8.7857 3.37417 17.9728
H 8.31352 4.38189 17.9917
H 9.00251 3.06609 16.951
H 8.11496 2.65248 18.5343
C 10.5284 1.82331 -0.0248731
H 9.98037 1.0789 19.469
H 11.5602 1.44257 -0.0447933
H 10.1656 1.82324 0.98935
Si 18.4964 14.6529 1.07451
O 18.3953 13.2887 0.0688801
C 19.2217 14.5563 2.8321
H 18.6087 15.1495 3.52527
H 19.2071 13.5016 3.20066
H 20.3233 14.7928 2.87577
C 19.0379 16.1377 0.169367
H 18.5852 17.0777 0.404948
H 20.1078 16.2397 0.476902
H 18.9921 15.8784 19.1783
Si 16.7349 12.9803 0.174229
O 16.5559 11.4287 0.49435
C 16.3259 14.4163 1.41022
H 15.4959 14.0156 1.95696
H 16.8263 14.7996 2.33271
H 15.9503 15.2212 0.835906
C 16.0201 13.4672 18.6577
H 16.2854 12.7468 17.9327
H 14.9135 13.6182 18.6783
H 16.5076 14.434 18.4026
Si 16.2759 10.0365 1.35365
O 15.345 9.27458 0.150003
C 17.9481 9.17417 1.66657
H 18.7136 9.90068 1.9949
H 17.94 8.39756 2.43978
H 18.2994 8.71359 0.72845
C 15.468 10.5656 2.9969
H 14.691 11.3014 2.7395
H 15.0439 9.73413 3.52041
H 16.1895 11.0242 3.67931
Si 15.1041 7.65448 19.8634
O 16.2267 6.96042 0.679661
C 13.4269 7.20857 0.516226
H 13.269 6.13358 0.290338
H 13.5962 7.2594 1.57378
C 15.3831 7.06792 18.1688
H 16.2699 6.3855 18.1722
H 14.5625 6.48094 17.7308
H 15.6037 7.78885 17.3574
Si 16.7234 5.93143 1.846
O 15.787 4.62065 1.55554
C 16.4528 6.38307 3.6422
H 15.4175 6.74491 3.84435
H 16.6084 5.37443 4.12373
H 17.1811 7.04883 4.02975
C 18.5463 5.60762 1.57696
H 19.0646 6.5065 1.60124
H 19.1118 5.00204 2.28335
H 18.6762 5.19944 0.596738
Si 15.0248 3.23163 1.09382
C 14.4136 3.15047 19.3748
H 14.4936 2.13194 19.0383
H 13.3235 3.42102 19.4059
H 14.9237 3.84924 18.7259
C 13.8567 2.5865 2.37178
H 13.6308 1.55008 2.28196
H 14.2736 2.78939 3.38809
H 12.9737 3.15952 2.16755
Si 3.53793 14.0067 9.92854
O 4.77516 13.3248 9.2636
C 3.97409 15.6838 10.7648
H 3.28117 16.44 10.2766
H 3.80629 15.8111 11.8501
H 5.04254 15.9245 10.5652
C 2.15053 14.3151 8.67046
H 2.52767 14.4503 7.65536
H 1.5403 13.4602 8.58511
H 1.50484 15.1552 8.9399
Si 6.18109 12.756 8.5874
O 6.34356 11.4567 9.60793
C 7.63376 13.882 8.82913
H 7.37096 14.611 9.61424
H 8.56226 13.3358 9.05798
H 7.90483 14.4345 7.91301
C 5.8875 12.374 6.74617
H 5.69765 11.3273 6.56313
H 5.05624 12.9932 6.39778
H 6.80509 12.7295 6.18014
Si 6.73669 9.88602 9.86755
O 5.4712 8.89293 10.2023
C 7.681 9.87836 11.4923
H 6.96399 10.2104 12.2669
H 8.13831 8.9585 11.8539
H 8.43834 10.6705 11.4852
C 7.58957 9.39098 8.26247
H 7.30202 8.43981 7.91134
H 7.47499 10.2446 7.51178
H 8.69256 9.38196 8.35688
Si 4.34276 8.13542 9.22897
O 4.83057 6.59073 8.96303
C 2.90772 8.42549 10.4273
H 1.88002 8.06852 10.0992
H 3.23275 7.97302 11.4203
H 2.75937 9.49618 10.562
C 4.13624 9.18168 7.62568
H 5.04776 9.13505 7.01378
H 3.28756 8.83151 7.04931
H 3.95712 10.1827 7.98542
Si 5.5436 5.59922 7.85985
O 6.50421 4.51209 8.73197
C 4.3 4.59597 6.86343
H 4.63296 3.58657 6.73965
H 3.2553 4.54263 7.1812
H 4.06249 5.02293 5.86472
C 6.60467 6.59989 6.63565
H 6.39745 7.6699 6.70844
H 7.64792 6.42558 6.88683
H 6.37553 6.1908 5.6329
Si 6.8308 2.97152 9.23423
C 5.37048 1.90162 8.8974
H 5.59372 0.837714 9.15547
H 4.47644 2.36456 9.34537
H 5.04822 1.8054 7.82673
C 8.50751 2.54165 8.42124
H 8.78954 1.49276 8.54838
H 9.22578 3.24334 8.97792
Si 13.6746 14.4125 4.1005
O 12.266 14.64 4.93525
C 15.0827 14.7147 5.26196
H 15.5749 13.8307 5.66971
H 15.8089 15.2857 4.62462
H 14.8135 15.3665 6.11861
C 13.7612 15.77 2.78083
H 14.7752 15.8644 2.35972
H 13.0684 15.6842 1.92955
H 13.6078 16.7038 3.39676
Si 11.5561 13.7715 6.08632
O 12.3436 12.3169 6.18056
C 11.5076 14.8312 7.6497
H 10.7787 14.3646 8.36927
H 12.5305 15.0007 8.0713
H 11.0479 15.7598 7.44977
C 9.80684 13.4157 5.71621
H 9.51603 13.1252 4.67561
H 9.39551 12.6398 6.3853
H 9.09991 14.2724 5.87809
Si 13.1416 11.2673 7.15637
O 12.2492 9.88736 7.34279
C 13.4401 11.9104 8.96603
H 12.751 12.7529 9.23945
H 13.4382 11.0882 9.6981
H 14.4798 12.2739 9.01702
C 14.697 10.9482 6.18284
H 14.6237 9.97702 5.70913
H 14.8365 11.7494 5.5106
H 15.5261 10.9943 6.8546
Si 12.6734 8.38402 7.94515
O 11.3658 7.35085 8.01986
C 13.4417 8.33643 9.67679
H 12.7573 8.6259 10.4722
H 13.8827 7.35911 9.85627
H 14.2501 9.10376 9.78293
C 13.8663 7.47896 6.82777
H 14.2618 6.65615 7.38982
H 13.3363 7.01439 5.98971
H 14.7187 8.02011 6.5393
Si 10.769 6.09256 8.8877
O 10.5651 4.83481 7.86538
C 9.16911 6.44412 9.83194
H 8.25525 6.40886 9.21858
H 9.06912 5.77747 10.706
H 9.26806 7.47195 10.226
C 11.9687 5.46686 10.2136
H 11.6977 4.43604 10.5941
H 13.0069 5.41829 9.8734
H 11.9314 6.07238 11.1349
Si 9.82098 4.21743 6.51988
C 8.58075 2.92636 6.92742
H 8.89587 2.12359 6.29792
H 7.57221 3.11551 6.44702
C 11.1979 3.40045 5.69191
H 11.8113 2.92193 6.43462
H 10.8689 2.58966 4.95197
H 11.8875 4.10415 5.17411
Si 20.353 15.8059 8.79673
O 20.5262 14.3315 9.53455
C 19.2447 15.6118 7.37141
H 19.9208 15.6356 6.40097
H 18.6794 14.7112 7.43367
H 18.664 16.5016 7.271
C 21.8403 16.9349 8.47794
H 0.262687 16.627 7.55328
H 21.5521 17.9787 8.2998
H 0.449935 16.8668 9.30188
Si 19.5081 13.1592 10.1459
O 19.8919 11.727 9.3715
C 20.1685 13.0351 11.8237
H 19.9764 12.1085 12.3663
H 21.2946 13.0874 11.6743
H 19.9206 13.867 12.517
C 17.704 13.5285 9.83819
H 17.4416 13.5633 8.70506
H 16.9855 12.8238 10.2213
H 17.3559 14.5276 10.1593
Si 19.1212 10.5006 8.647
O 20.1426 9.30062 8.07619
C 18.1148 9.58313 9.95212
H 17.137 9.98976 10.0946
H 18.0576 8.50972 9.71092
H 18.6935 9.67604 10.9358
C 18.2714 11.0509 7.09687
H 19.0176 11.5717 6.47427
H 17.9213 10.1887 6.4547
H 17.445 11.7722 7.2322
Si 19.4706 8.0788 7.12489
O 20.543 6.82299 7.28851
C 17.9045 7.22094 7.78971
H 17.7582 6.40841 7.05291
H 18.0096 6.74967 8.78741
H 16.967 7.78735 7.86825
C 19.2319 8.5917 5.34519
H 18.2747 9.08211 5.19471
H 19.9588 9.27533 4.87827
H 19.2885 7.75094 4.6695
Si 21.4066 5.44436 7.19712
O 21.2304 4.58951 8.58447
C 20.7418 4.38349 5.76906
H 21.4926 3.68681 5.39434
H 19.9627 3.72389 6.15503
H 20.3919 5.04817 4.931
C 1.04596 6.05559 7.28526
H 0.995328 7.10447 7.61525
H 1.52507 5.41278 8.03377
H 1.65739 6.01105 6.32363
Si 19.9943 3.87529 9.43256
C 19.027 2.41315 8.71823
H 19.6733 1.66301 8.29307
H 18.5134 1.9822 9.59497
H 18.2576 2.74681 8.00986
C 20.9351 3.23344 11.0083
H 21.7949 3.88277 11.2043
H 20.3116 3.19141 11.922
H 21.3781 2.23127 10.7825
Si -0.0252647 14.4264 15.6293
O 0.0485349 13.2213 14.5995
C 21.2175 16.0739 15.3582
H 21.6057 16.7218 16.1756
H 21.4568 16.5229 14.3797
H 20.1161 16.1385 15.3686
C 1.39106 14.6245 16.749
H 2.35204 15.0735 16.4232
H 1.21268 15.0682 17.7542
H 1.64774 13.5738 17.0081
Si 1.44032 12.634 13.7766
O 2.04367 11.6211 14.949
C 2.21844 14.3397 13.4719
H 2.59094 14.6963 14.4378
H 3.00718 14.3518 12.7609
H 1.40222 15.0645 13.2406
C 1.05527 11.6028 12.2477
H 1.74188 10.7938 12.2187
H 0.0670942 11.1228 12.4327
H 1.07328 12.0845 11.2941
Si 3.2287 10.5073 15.0893
O 2.34686 9.01367 14.9843
C 3.86956 10.463 16.8403
H 3.70919 11.2974 17.5052
H 3.41758 9.60324 17.327
H 4.92077 10.3482 16.7564
C 4.41007 10.7846 13.688
H 4.41466 11.8701 13.5678
H 5.45659 10.5287 13.8944
H 4.08471 10.2907 12.7573
Si 3.08089 7.53394 15.1526
O 2.75059 6.71658 13.7577
C 2.43547 6.57946 16.5961
H 1.36509 6.80583 16.8276
H 2.51571 5.48939 16.575
H 2.94018 6.90034 17.4822
C 4.97126 7.67375 15.3232
H 5.45081 6.94666 14.6747
H 5.33031 8.64471 14.9972
H 5.33234 7.51311 16.363
Si 1.90447 5.58571 12.9754
O 2.1045 4.07114 13.6078
C 0.238751 6.14934 12.6554
H 21.8064 5.78926 11.7484
H 21.7376 5.94945 13.5292
H 0.229265 7.26478 12.6064
C 2.72381 4.99392 11.1838
H 3.25806 4.28291 10.4828
H 1.69376 5.00343 10.6718
H 3.33919 5.84242 10.9244
Si 3.35517 3.72559 12.5589
C 3.30893 2.02492 11.8542
H 2.70917 1.40856 12.5643
H 2.88284 2.01441 10.8935
H 4.3763 1.62767 11.8227
C 4.97393 4.19368 13.4173
H 5.4207 3.21537 13.7624
H 4.72157 4.81873 14.2901
Si 9.89721 15.588 11.7989
O 9.07901 15.0602 13.1638
C 11.6939 16.0506 12.1153
H 12.0828 16.5869 11.2427
H 11.6772 16.6415 13.0347
H 12.3158 15.1586 12.1964
C 9.24097 17.1823 11.0234
H 8.14743 17.2189 10.9008
H 9.48234 17.976 11.7507
H 9.83404 17.3123 10.0499
Si 8.21704 13.8648 13.9475
O 9.1779 12.5008 14.0875
C 7.66783 14.7087 15.5017
H 6.98004 15.5011 15.2265
H 7.21574 13.9965 16.2116
H 8.57345 15.1369 15.9678
C 6.70231 13.5634 12.8152
H 6.57324 14.4058 12.1219
H 6.65476 12.7067 12.1571
H 5.83077 13.6517 13.44
Si 10.6264 11.86 14.4308
O 10.8602 10.2643 14.8709
C 11.3288 12.9523 15.7663
H 11.8285 13.7887 15.2577
H 10.5322 13.2531 16.5019
H 12.1577 12.3825 16.2932
C 11.6667 12.2083 12.8422
H 11.3666 13.2193 12.4818
H 12.7931 12.2585 12.9484
H 11.4714 11.5201 11.9881
Si 11.2654 8.65118 15.1652
O 10.0103 7.56094 14.9606
C 11.5955 8.35965 16.9662
H 10.7284 8.55456 17.5807
H 11.9306 7.35338 17.2151
H 12.4284 8.98235 17.2941
C 12.7898 8.397 14.1396
H 12.4714 7.96146 13.1699
H 13.2073 9.40205 13.8423
Si 9.19202 6.50783 15.8784
O 8.03665 5.66029 14.9746
C 8.16801 7.37641 17.181
H 7.99384 8.35486 16.7604
H 7.22004 6.96283 17.4074
H 8.63352 7.55552 18.1421
C 10.5602 5.23635 16.4314
H 10.4331 4.21214 15.9558
H 11.5778 5.5948 16.143
H 10.4603 5.10793 17.5336
Si 7.80912 4.93347 13.4805
C 6.13741 4.91975 12.7279
H 6.34071 4.35998 11.8047
H 5.87335 5.92441 12.3135
C 8.49864 3.18235 13.4844
H 8.29758 2.81957 12.4825
H 9.57849 3.13354 13.6661
H 8.00732 2.54255 14.2491
Si 17.4216 15.3796 13.2873
O 18.0997 13.9494 13.8368
C 18.7346 16.3409 12.3701
H 18.6468 17.3255 12.8763
H 19.7545 16.0175 12.3069
H 18.3011 16.5868 11.3948
C 15.8458 16.4609 13.3585
H 15.1444 16.2244 14.1755
H 16.1331 17.5241 13.5085
H 15.2489 16.3206 12.4451
Si 17.8807 13.1718 15.3734
O 17.3523 11.6023 15.3255
C 19.391 13.0643 16.4152
H 19.5669 11.9993 16.707
H 20.2071 13.3589 15.7128
H 19.2756 13.6957 17.3168
C 16.5777 14.4511 15.8614
H 16.1435 14.7108 14.8986
H 15.7416 14.2207 16.4718
H 17.1448 15.3337 16.2134
Si 15.857 10.8467 15.2976
O 16.0375 9.28497 14.852
C 14.9905 10.7842 16.977
H 14.97 11.7736 17.4538
H 13.8783 10.452 16.9616
H 15.4994 10.0976 17.6522
C 14.9244 11.8084 14.0494
H 15.2129 11.5687 13.0318
H 13.8859 11.4252 14.1858
H 14.9292 12.8736 14.1633
Si 15.5987 7.90987 14.043
O 16.5225 6.6108 14.4888
C 13.9068 7.56609 14.8388
H 13.6372 6.50016 14.7864
H 13.9857 7.80798 15.8865
C 15.7886 8.23274 12.1688
H 16.8641 8.254 11.8499
H 15.3898 7.37793 11.6553
H 15.2856 9.17072 11.8307
Si 17.668 5.56928 13.8819
O 17.348 4.09719 14.6672
C 17.3925 5.33514 12.0302
H 17.8318 4.37012 11.7937
H 16.3254 5.30447 11.8105
H 17.8451 6.11296 11.4422
C 19.3303 6.17831 14.4214
H 19.3155 6.37537 15.4908
H 20.0577 5.38515 14.1707
H 19.6043 7.04648 13.8946
Si 16.7812 2.57937 14.6984
C 15.4 2.17386 13.488
H 14.5496 2.8283 13.7674
H 15.6235 2.28685 12.4115
H 15.1197 1.08416 13.6321
C 18.1055 1.37294 15.1669
H 18.0226 1.15797 16.2303
H 18.008 0.4229 14.6971
H 19.0898 1.73502 14.9495
523
 Atoms. Timestep: 1000
Si 2.23427 14.5856 3.02452
O 3.03512 13.4047 2.28597
C 0.718647 15.3445 2.3069
H 0.639306 16.2713 2.83909
H 0.705348 15.53 1.24164
H 22.0837 14.6675 2.52919
C 3.12391 15.1687 4.52589
H 2.48758 15.1701 5.39704
H 3.88136 14.4562 4.76654
H 3.5604 16.1391 4.25711
Si 3.31969 12.9036 0.620097
O 4.27899 11.6223 0.66111
C 4.28152 14.4019 20.1336
H 5.37707 14.2702 0.0786463
H 4.23111 14.5986 19.0602
H 3.90929 15.3366 0.393769
C 1.75904 12.4111 20.0072
H 1.66362 11.3747 0.15012
H 0.876006 12.9765 0.0273803
H 1.91151 12.4204 18.8956
Si 4.61975 9.91261 0.747011
O 3.27367 9.1271 1.20395
C 5.8534 9.32304 2.01233
H 6.30377 10.2291 2.44628
H 5.2455 8.82897 2.79285
H 6.53854 8.55742 1.61213
C 5.22555 9.66867 19.1852
H 5.05616 8.68093 18.7967
H 4.79218 10.4128 18.5408
H 6.27321 9.86801 19.2341
Si 2.03399 8.41339 1.97923
O 1.1522 7.72727 0.887008
C 1.33211 9.99015 2.78795
H 2.14503 10.3144 3.44472
H 1.37865 10.7433 1.96798
H 0.379785 10.0138 3.31295
C 2.81829 7.02183 2.96571
H 3.87028 7.17471 3.10961
H 2.43305 6.83636 3.95482
H 2.71976 6.16006 2.28716
Si 0.35854 6.45101 0.321733
O 1.52129 5.32862 19.8431
C 21.3467 6.89279 19.18
H 20.4406 6.38402 19.5899
H 21.1949 7.94696 19.034
H 21.4275 6.53612 18.1089
C 21.5001 5.81616 1.72683
H 21.3165 6.64414 2.47402
H 20.5547 5.47825 1.36872
H 21.9093 4.93459 2.31112
Si 1.76293 4.81357 18.315
C 0.192161 4.05592 17.6806
H 22.0812 4.61855 16.8596
H 0.450311 3.07582 17.2682
H 21.5999 3.88614 18.4596
C 3.34438 3.92001 17.8639
H 3.29765 2.90712 17.4101
H 3.80813 4.53484 17.0901
H 4.02153 3.87452 18.6824
Si 8.45651 15.4104 3.07802
O 8.70162 14.1157 2.18124
C 9.80733 16.6926 2.83139
H 10.8078 16.3387 2.98082
H 9.74413 17.1162 1.80144
H 9.61134 17.5033 3.5214
C 6.67135 16.0353 2.78785
H 6.68746 16.5878 1.82111
H 6.06792 15.0851 2.79819
H 6.30225 16.6766 3.58506
Si 9.49803 13.1418 1.07666
O 10.8357 12.3574 1.67266
C 9.64088 14.3492 19.8859
H 10.1077 15.3036 -0.095912
H 10.1644 13.8464 19.0606
H 8.55447 14.5451 19.638
C 8.49626 11.7235 0.349069
H 8.01621 11.0122 1.02415
H 7.66518 12.0699 19.8758
H 9.19088 11.1602 19.9599
Si 11.9297 11.1069 1.21452
O 11.0828 9.67291 1.29327
C 13.3769 11.6292 2.32323
H 13.0862 11.5776 3.42554
H 14.3124 11.0605 2.19488
H 13.4786 12.7317 2.06521
C 12.5104 11.2353 19.6501
H 12.7625 10.2868 19.2578
H 11.7727 11.7166 19.0283
H 13.3619 11.9159 19.7496
Si 11.2066 8.15462 1.8736
O 9.85987 7.35175 1.4612
C 11.1106 8.23543 3.72896
H 10.166 7.86795 4.14363
H 11.9113 7.65233 4.19853
H 11.1653 9.27488 4.07512
C 12.6043 7.32043 0.871775
H 12.2274 7.42723 20.0494
H 13.4352 8.14781 0.86183
Si 9.29411 5.83433 1.30354
O 9.10336 5.45011 19.9538
C 7.62126 5.76785 2.27
H 7.86865 6.29922 3.15909
H 6.73671 6.26291 1.85687
H 7.34111 4.75973 2.55692
C 10.4059 4.48044 2.12888
H 11.081 4.85403 2.92475
H 9.83028 3.61188 2.4783
H 10.9884 4.00721 1.33904
Si 8.5471 4.49315 18.7359
C 7.06407 3.4583 19.1382
H 7.36844 2.6306 19.7927
H 6.32893 4.16561 19.5955
H 6.67185 2.99283 18.2034
C 9.96707 3.77336 17.7744
H 9.63834 3.0652 17.0232
H 10.6459 4.50966 17.3678
H 10.5745 3.2244 18.5233
Si 18.5718 13.0151 1.71967
O 18.7872 11.5268 0.932273
C 19.8777 13.2523 2.99051
H 20.1607 12.199 3.27455
H 20.7468 13.5946 2.40605
H 19.538 13.7366 3.89172
C 18.3452 14.456 0.49953
H 18.2884 15.3507 1.15025
H 19.1565 14.5944 20.0025
H 17.4296 14.3223 -0.0469199
Si 17.144 11.1273 1.02807
O 16.6508 9.85776 1.83704
C 16.7613 12.6261 2.35847
H 16.739 12.0742 3.34731
H 16.7306 13.7315 2.56519
H 15.6582 12.6586 2.01421
C 16.1802 11.0258 19.73
H 15.15 11.161 20.0132
H 16.4082 11.7558 18.998
H 16.2954 9.99527 19.3656
Si 16.4837 8.37777 2.54968
O 15.3542 7.43784 1.88392
C 18.1871 7.54974 2.59622
H 18.9001 8.34045 2.8182
H 18.2555 6.68454 3.28486
H 18.4352 7.22288 1.57224
C 15.9911 8.85866 4.24542
H 16.8604 8.98821 4.86864
H 15.5212 9.83453 4.29113
H 15.311 8.11985 4.67211
Si 15.0847 6.02701 0.997384
O 16.2031 4.95018 1.66177
C 13.2177 5.89375 1.09059
H 12.7845 5.18686 0.348705
H 12.9989 5.508 2.12301
C 15.6473 6.07755 19.4048
H 15.4787 5.05495 19.0189
H 15.2331 6.81634 18.7005
H 16.7433 6.27015 19.4353
Si 16.5472 3.42347 1.03655
O 15.1273 3.169 0.123279
C 17.0639 1.85097 1.96525
H 17.4486 2.06877 2.97229
H 16.2207 1.19673 2.06399
H 17.9002 1.41595 1.33929
C 18.1627 3.73269 0.220254
H 18.1919 4.65146 19.9154
H 18.8373 3.73829 1.10551
H 18.5896 2.99849 19.797
Si 14.6006 1.6231 19.7441
C 13.6996 2.28748 18.2093
H 13.0916 3.04857 18.65
H 14.4274 2.92836 17.7019
H 13.0828 1.71209 17.5391
C 13.8538 0.557236 0.892118
H 12.7904 0.268351 0.630133
H 14.4432 18.8406 1.00311
H 13.8912 1.05653 1.89393
Si 2.73983 13.1513 8.00886
O 4.10201 13.4377 7.22286
C 1.96437 14.1235 9.38691
H 0.920016 13.8591 9.44103
H 2.5069 14.0518 10.3671
H 2.04494 15.1645 9.08266
C 1.60485 11.879 7.05377
H 1.18802 11.0589 7.67252
H 0.72467 12.4053 6.60258
H 2.23897 11.4375 6.24905
Si 5.67182 13.0848 6.8328
O 6.2844 11.9708 7.82491
C 6.60776 14.7251 7.01502
H 7.35809 14.8669 6.22966
H 5.9033 15.5468 6.79488
H 6.9493 14.9217 8.02458
C 5.88183 12.2891 5.15503
H 6.41115 12.928 4.43905
H 6.4374 11.3462 5.30779
H 4.87875 12.0879 4.76965
Si 6.25125 10.798 9.02514
O 5.62221 9.45059 8.31655
C 4.92196 11.475 10.1163
H 4.09012 10.7698 10.0251
H 5.14498 11.61 11.1788
H 4.6727 12.4423 9.68544
C 7.97007 10.7555 9.60291
H 8.35016 11.7557 9.96156
H 8.11102 9.98095 10.4908
H 8.71771 10.532 8.82983
Si 4.92259 8.34333 7.33833
O 5.91176 7.04654 7.08246
C 3.52629 7.67262 8.33379
H 3.82847 6.86628 9.03236
H 3.02044 8.41397 8.9519
H 2.62885 7.34359 7.70962
C 4.45701 9.1048 5.67965
H 5.40001 9.40957 5.17924
H 3.92458 8.3472 5.10625
H 3.75557 9.93306 5.82274
Si 5.78495 5.39505 6.96524
O 6.9266 4.8783 8.05371
C 4.14899 4.54819 7.11113
H 4.14179 3.51041 6.82054
H 3.66791 4.55867 8.10795
H 3.45734 4.92849 6.2973
C 6.58863 5.03203 5.27525
H 6.21333 5.84935 4.65874
H 7.71945 4.92707 5.33592
H 6.17476 4.10232 4.8642
Si 6.96423 3.93735 9.41071
C 5.6386 2.54201 9.30564
H 5.87112 1.76177 10.0384
H 4.61683 2.8769 9.58769
H 5.5452 2.16218 8.26894
C 8.68064 3.33484 9.66113
H 8.40648 2.23585 9.83252
H 9.13982 3.57562 10.5808
Si 12.9005 15.7541 4.68851
O 11.8905 15.6211 6.03876
C 14.6985 15.1786 5.0777
H 14.9059 15.07 6.16125
H 14.8856 14.2396 4.51853
H 15.3714 15.9088 4.62247
C 13.0566 17.6621 4.46864
H 13.6757 18.0801 5.33375
H 13.5511 17.9899 3.50788
H 12.1032 18.1622 4.4126
Si 11.053 14.2735 6.57795
O 12.1266 13.0882 6.99138
C 10.0495 14.7993 7.9618
H 9.42594 13.9224 8.34356
H 10.596 15.093 8.84572
H 9.40933 15.6108 7.70461
C 10.1847 13.4912 5.12195
H 9.9217 12.4364 5.45827
H 9.16399 13.8339 4.89374
H 10.7431 13.5459 4.16741
Si 12.9295 12.3088 8.21773
O 12.6727 10.648 8.2338
C 12.6746 13.2265 9.86303
H 13.4575 13.9916 9.9312
H 11.7109 13.7815 9.90033
H 12.8289 12.6548 10.803
C 14.7251 12.2479 7.69717
H 14.6872 11.9702 6.65545
H 15.2 13.1834 7.80678
H 15.2588 11.5373 8.34264
Si 12.4551 9.04694 7.74973
O 12.6892 7.97724 8.93184
C 13.7851 8.73229 6.50112
H 14.7403 9.13393 6.72466
H 13.9676 7.62031 6.34504
H 13.5895 9.12857 5.47946
C 10.6798 8.68211 7.21484
H 10.5218 7.73303 6.65996
H 9.94667 8.80815 8.00525
H 10.5104 9.47937 6.49892
Si 12.0858 6.71516 9.8055
O 11.5806 5.45849 8.86462
C 10.6539 7.22684 10.8897
H 9.77925 7.56992 10.3266
H 10.2697 6.43568 11.5765
H 11.0336 8.05144 11.529
C 13.5582 6.37533 10.9047
H 13.5173 5.47777 11.5707
H 14.4681 6.31236 10.2901
H 13.6688 7.21102 11.5927
Si 10.3835 5.07445 7.79594
C 9.58869 3.39925 8.39034
H 10.3961 2.64188 8.35751
H 8.94016 2.95735 7.5029
C 10.875 4.91792 5.9554
H 10.2376 5.57544 5.37952
H 11.9233 5.03507 5.65928
H 10.5431 3.91543 5.76739
Si 21.1556 14.8745 7.68518
O 19.9184 13.7439 7.86706
C 21.5217 15.3407 5.85868
H 0.122766 16.0932 5.83401
H 21.8013 14.6023 5.12037
H 20.5827 15.8726 5.50155
C 20.3516 16.4811 8.36615
H 20.9798 17.0463 9.06134
H 20.0688 17.1488 7.52948
H 19.4873 16.1158 8.95959
Si 19.9153 12.5833 9.04712
O 19.8086 11.0588 8.41132
C 21.4237 12.4203 10.1354
H 21.1433 11.8618 11.0602
H -0.0279923 11.8588 9.60385
H 21.8 13.4353 10.3994
C 18.4353 12.4172 10.1269
H 17.4928 12.2149 9.52862
H 18.5786 11.5377 10.7363
H 18.1489 13.2056 10.8845
Si 19.2636 9.77526 7.72759
O 20.1959 8.36218 7.83022
C 17.7055 9.25737 8.66209
H 17.3365 10.09 9.34918
H 16.9046 8.98973 7.97231
H 17.8974 8.40302 9.32699
C 18.861 10.2441 5.95802
H 19.7145 10.7862 5.43624
H 18.7053 9.34095 5.36565
H 17.9217 10.8275 5.90442
Si 19.8863 6.94944 7.03201
O 20.8508 5.78453 7.73055
C 18.1537 6.40005 7.07817
H 18.0785 5.38748 6.69523
H 17.633 6.33473 8.03829
H 17.6099 7.12728 6.43638
C 20.5821 7.18426 5.29792
H 20.2092 8.05423 4.74112
H 21.646 7.2911 5.27062
H 20.437 6.31236 4.63995
Si 21.4594 4.36135 7.07783
O 0.438239 3.85484 8.1567
C 20.0435 3.2364 6.56838
H 20.4518 2.29039 6.20934
H 19.3614 3.19781 7.41019
H 19.4283 3.55475 5.67282
C 0.42722 4.40865 5.63811
H 0.58002 3.35148 5.3511
H 0.0425409 5.00409 4.74914
H 1.36616 4.78629 6.02502
Si 0.456909 4.15755 9.75332
C 0.959409 5.89186 10.2215
H 0.817029 6.61349 9.38183
H 0.315474 6.21344 11.0756
H 2.00322 6.08214 10.5671
C 20.9083 3.84235 10.3604
H 20.2507 4.42923 9.70838
H 20.6967 2.84474 10.1167
H 20.7295 3.94368 11.4308
Si 2.62249 14.5943 16.793
O 2.03722 13.5904 15.5659
C 1.08095 15.8166 17.1316
H 0.425267 15.3073 17.8321
H 1.55756 16.7025 17.5733
H 0.524263 15.981 16.2035
C 4.17221 15.7166 16.4261
H 4.14502 16.0371 15.3937
H 4.09212 16.5425 17.1694
H 5.03527 15.0855 16.568
Si 0.984321 12.9538 14.4479
O 1.45874 11.4945 13.7985
C 0.798311 14.216 13.0755
H 1.33434 13.893 12.1843
H 21.9712 14.2431 12.8343
H 1.09611 15.2403 13.4128
C 21.6436 12.7922 15.4621
H 21.4178 11.8096 15.8746
H 21.7855 13.4579 16.299
H 20.7451 13.1782 14.9957
Si 2.15846 10.0828 13.5442
O 2.02278 8.88903 14.6434
C 4.00493 10.4385 13.4664
H 4.3627 11.15 14.2266
H 4.63551 9.54294 13.516
H 4.18106 10.849 12.4342
C 1.77489 9.26857 11.9152
H 0.895489 8.65342 11.7687
H 1.89438 10.0394 11.1195
H 2.69429 8.62497 11.8145
Si 1.31419 7.34039 14.9825
O 1.69608 6.25701 13.7333
C 21.7134 7.47593 15.0512
H 21.2725 6.69391 15.6737
H 21.3834 8.37001 15.6221
H 21.1328 7.51475 14.0546
C 1.98495 6.51467 16.5409
H 1.69982 5.46252 16.3331
H 3.11616 6.54922 16.5671
H 1.58111 6.91791 17.5027
Si 2.21949 4.62697 13.8547
O 3.52693 4.49569 14.8848
C 0.6953 3.64809 14.3798
H 0.137299 4.16064 15.1204
H 0.129859 3.50528 13.4223
H 0.992157 2.64009 14.6535
C 3.06589 3.89259 12.3266
H 3.17221 2.78323 12.1066
H 2.09646 3.90804 11.6239
H 3.85617 4.43799 11.8266
Si 4.15297 3.14564 13.996
C 3.68658 1.3315 14.1344
H 4.15719 0.824392 13.3291
H 4.06974 0.909805 15.1204
H 2.62865 1.22842 13.973
C 6.01445 3.34277 14.1958
H 6.48803 2.34668 14.2967
H 6.22208 3.85852 15.1424
Si 9.24825 15.6891 11.4229
O 9.13855 14.8924 12.8791
C 10.4362 17.1934 11.1698
H 9.91833 18.152 11.2946
H 11.3292 17.3228 11.7957
H 10.6888 17.1798 10.0941
C 7.59755 16.3212 10.9504
H 7.33549 16.2667 9.82752
H 6.69764 15.9538 11.3973
H 7.58505 17.3936 11.0872
Si 7.91501 14.0332 13.6542
O 8.50869 12.4987 14.0192
C 7.48291 14.8521 15.3082
H 6.51091 14.3927 15.5287
H 8.14218 14.4227 16.0929
H 7.48915 15.9393 15.332
C 6.51102 14.017 12.496
H 6.83772 13.75 11.4923
H 5.71505 13.3817 12.8411
H 5.95415 14.9935 12.5033
Si 10.0666 11.9109 14.1397
O 9.83428 10.2492 14.6028
C 10.8061 13.0818 15.3996
H 10.2423 12.8366 16.3378
H 11.8892 13.1209 15.5393
H 10.5553 14.0434 14.9697
C 10.6305 11.7415 12.3399
H 11.6761 11.4006 12.2303
H 9.89641 11.024 11.9013
H 10.5684 12.6812 11.8277
Si 10.6519 8.89651 15.2615
O 9.46266 7.74206 15.7179
C 11.3212 9.2724 16.9587
H 10.6065 9.38355 17.7458
H 11.9236 8.40366 17.219
H 11.9338 10.1841 17.0037
C 11.9897 8.20526 14.1138
H 11.5533 7.45259 13.482
H 12.1559 9.09067 13.4563
Si 7.98828 6.8749 15.623
O 7.95354 5.79474 14.4463
C 6.43901 7.75357 15.2583
H 5.77512 8.04169 16.0601
H 6.6233 8.65726 14.6771
H 5.87789 7.17747 14.4839
C 8.05036 5.9212 17.2148
H 8.47556 4.9771 16.7263
H 8.75802 6.47468 17.8281
H 7.00561 5.92097 17.5001
Si 8.41077 4.7039 13.1844
C 6.65595 4.06592 12.9558
H 6.62084 3.33958 12.1297
H 6.00979 4.95008 12.7206
C 10.0399 3.98761 13.8157
H 10.6725 3.69833 12.9812
H 10.5669 4.81019 14.2933
H 9.98826 3.21165 14.5599
Si 17.5512 15.8329 13.246
O 17.7718 14.5791 14.2478
C 18.8017 16.0474 11.8584
H 19.8498 16.2193 12.2442
H 18.8545 15.1387 11.2363
H 18.537 16.9705 11.3602
C 16.9409 17.2542 14.3845
H 16.2507 17.8128 13.761
H 16.4497 16.7573 15.2158
H 17.6712 17.958 14.8235
Si 17.1542 13.5764 15.5249
O 16.4466 12.1416 14.9497
C 18.6269 12.9078 16.5011
H 19.273 13.6697 16.8791
H 18.3311 12.2532 17.3789
H 19.2019 12.2924 15.8409
C 15.9295 14.4568 16.5252
H 15.1919 14.8573 15.8301
H 15.4576 13.6935 17.1885
H 16.328 15.2963 17.1021
Si 14.9778 11.7321 14.2312
O 15.0242 10.1861 13.5854
C 13.7868 11.6023 15.66
H 13.6607 12.4438 16.309
H 12.798 11.345 15.1919
H 13.9329 10.6857 16.3022
C 14.4667 12.637 12.7036
H 14.4265 11.925 11.8963
H 13.5208 13.1984 12.776
H 15.2337 13.3477 12.4733
Si 15.0069 8.55008 14.0283
O 15.8758 8.47947 15.4776
C 13.4155 7.63436 14.6093
H 13.4851 6.60041 14.2234
H 13.4559 7.61634 15.7162
C 16.0792 7.73809 12.6647
H 17.0874 8.1367 12.7893
H 16.1312 6.59344 12.7074
H 15.6703 8.11949 11.7124
Si 17.4286 8.52844 16.0657
O 17.8081 7.0698 16.7713
C 18.6688 8.86983 14.6103
H 19.5666 9.28276 15.0794
H 18.9092 7.9254 14.1198
H 18.2804 9.63464 13.9643
C 17.8013 9.67081 17.5542
H 17.1067 10.4903 17.5431
H 17.6912 9.04169 18.4466
H 18.7914 10.0718 17.534
Si 17.2359 5.61041 17.1479
C 16.1299 4.83928 15.8387
H 15.1173 5.2969 15.8087
H 16.5108 5.09187 14.8561
H 15.9561 3.74529 15.8853
C 18.7463 4.56606 17.2733
H 19.3445 4.58361 18.1776
H 18.345 3.55742 17.0244
H 19.3354 4.9759 16.3675
523
 Atoms. Timestep: 1500
Si 2.5503 15.7913 4.1963
O 2.72426 15.232 2.59382
C 0.851515 16.4489 4.47508
H 0.431722 17.2555 3.88104
H 0.11981 15.6054 4.37085
H 1.02324 16.8672 5.51697
C 4.05626 16.6527 4.76918
H 3.8234 17.5047 5.3905
H 4.55879 15.9749 5.41032
H 4.78302 17.0775 3.98323
Si 2.5599 13.8612 1.61012
O 3.22925 12.3512 1.82649
C 2.99062 14.6087 19.9343
H 2.60408 15.5968 19.7585
H 4.07074 14.6552 19.8075
H 2.67834 14.0093 19.0985
C 0.689438 13.568 1.78155
H 0.301717 12.5783 2.07891
H 0.293531 14.4313 2.30918
H 0.226294 13.5565 0.792126
Si 4.22658 10.9988 1.58797
O 3.19198 9.73925 1.51393
C 5.52144 10.9391 2.8678
H 5.11037 10.6155 3.85653
H 6.29198 10.2416 2.49223
H 5.80129 11.9986 2.97964
C 4.85674 11.1357 19.8241
H 5.80251 11.5851 19.6917
H 4.86424 10.159 19.3176
H 4.07782 11.7485 19.3776
Si 2.64977 8.34003 2.1309
O 1.64708 7.68316 1.00482
C 1.73215 8.57633 3.70041
H 2.30596 7.86125 4.31803
H 1.74613 9.57029 4.12905
H 0.707159 8.20827 3.51648
C 4.15418 7.29585 2.51553
H 4.73067 7.94174 3.18424
H 3.98582 6.33785 2.96436
H 4.79717 7.14582 1.66737
Si 0.745767 6.44252 0.573964
O 1.58111 5.16113 19.7051
C 21.3896 7.02158 19.286
H 21.8921 7.85194 18.6964
H 21.2535 6.26563 18.5363
H 20.4334 7.45795 19.739
C 21.8646 5.54973 1.96938
H 21.6899 6.14179 2.89227
H 20.8525 5.19341 1.63218
H 0.552737 4.70125 2.22896
Si 2.73924 4.69355 18.5854
C 2.28223 3.12424 17.6782
H 1.24458 2.97472 17.4323
H 2.98024 2.98103 16.878
H 2.62541 2.29175 18.3966
C 4.19443 4.32408 19.7136
H 4.92522 3.82182 19.0198
H 4.7573 5.15547 0.293229
H 3.87042 3.56513 0.461706
Si 11.2399 15.8276 0.193853
O 10.267 14.5329 0.374804
C 12.538 16.0541 1.59262
H 13.0933 16.9874 1.33348
H 12.0274 16.1354 2.53628
H 13.3036 15.2568 1.59153
C 11.6478 16.2371 18.3522
H 11.3826 15.3731 17.7097
H 11.3704 17.1923 17.8996
H 12.7559 16.2188 18.1974
Si 9.59896 13.0573 19.9406
O 10.386 11.9122 0.924799
C 9.9603 12.6478 18.1314
H 10.7627 11.8385 18.2161
H 9.0742 12.2621 17.6166
H 10.3511 13.5028 17.5692
C 7.86299 12.9102 0.542853
H 7.73341 13.49 1.47386
H 7.05015 13.143 19.8628
H 7.7506 11.8722 0.926073
Si 11.3197 10.6961 1.30373
O 10.5764 9.47371 2.13428
C 12.7281 11.192 2.49297
H 12.6133 10.7813 3.53924
H 13.6667 10.7323 2.09037
H 12.9 12.3051 2.50939
C 11.8576 9.90484 19.6218
H 12.5455 9.10467 19.9569
H 10.9785 9.4973 19.1148
H 12.3337 10.6213 18.9984
Si 10.5485 7.90964 2.36865
O 9.21522 7.3658 1.62776
C 10.0258 7.42771 4.11812
H 10.7206 6.79558 4.68225
H 9.79534 8.32529 4.6827
H 8.97957 6.96179 4.01823
C 12.0917 7.20459 1.44713
H 11.9787 7.5112 0.39765
H 12.9702 7.72725 1.77159
Si 8.15317 6.39517 0.815118
O 8.89917 5.20695 19.9828
C 7.19988 7.52304 19.672
H 7.10481 8.47141 0.309403
H 7.78431 7.71196 18.8056
H 6.22551 7.19339 19.3751
C 7.21155 5.43291 2.14924
H 6.14842 5.49992 2.02238
H 7.54573 4.3835 2.10017
H 7.3736 5.77865 3.19883
Si 9.03629 4.19247 18.6325
C 9.24809 2.40691 19.2823
H 10.3174 2.27365 19.5425
H 8.60537 2.32768 0.244009
H 9.01051 1.60717 18.553
C 10.434 4.70326 17.6202
H 10.4085 4.00595 16.7622
H 10.3102 5.71796 17.2778
H 11.4694 4.71906 18.0145
Si 19.5806 10.4622 2.23327
O 18.2763 9.48961 2.26289
C 20.7245 9.94985 3.54068
H 20.7516 8.86764 3.79232
H 21.7501 10.2266 3.16025
H 20.6302 10.6892 4.38024
C 20.2929 10.2413 0.474426
H 21.2352 9.67232 0.504563
H 19.5685 9.73353 19.7394
H 20.6035 11.1968 19.9686
Si 16.6544 10.0639 2.59331
O 16.0989 8.46733 2.56768
C 16.6023 11.0775 4.15555
H 17.1787 11.9962 3.93115
H 15.6004 11.4023 4.41223
H 17.1551 10.6113 4.93649
C 16.0033 11.1659 1.18172
H 15.7977 12.1716 1.59019
H 16.8137 11.2468 0.463314
H 15.0835 10.8523 0.725466
Si 16.0232 6.84461 2.62851
O 15.1153 6.17 1.43683
C 17.7142 6.05773 2.21044
H 18.1942 6.9426 1.69662
H 18.3321 5.8056 3.09195
H 17.6058 5.24322 1.49053
C 15.1262 6.41482 4.22519
H 14.4273 5.5976 3.99698
H 15.7638 6.07722 5.03941
H 14.4874 7.17547 4.64207
Si 14.066 5.06333 0.874693
O 14.2454 3.832 1.94929
C 12.3302 5.68479 1.45546
H 11.629 5.30384 0.681314
H 12.0715 5.23091 2.40665
C 13.9423 4.52282 18.9807
H 13.0305 3.91262 19.0069
H 13.8141 5.38006 18.3082
H 14.8251 3.96465 18.6034
Si 13.9574 2.36128 2.56503
O 14.5098 1.0905 1.63663
C 12.1611 1.99426 2.59584
H 11.7299 2.24543 3.56396
H 11.6336 2.69876 1.89012
H 11.9893 0.900239 2.41327
C 14.8802 2.21586 4.19196
H 15.4411 3.09312 4.59953
H 14.1244 1.84713 4.9062
H 15.6304 1.49996 3.95083
Si 15.7919 0.741065 0.775479
C 15.1613 0.512736 18.9917
H 14.4437 18.6542 18.8491
H 14.6451 1.40367 18.5667
H 16.0776 0.235855 18.4045
C 16.7157 18.2329 1.31745
H 16.9062 17.6746 0.403929
H 17.6793 18.4997 1.76458
H 16.2247 17.6361 2.10659
Si 2.31411 13.986 5.71099
O 3.71105 13.8138 6.90774
C 1.13901 14.4058 7.20488
H 1.70284 14.7941 8.06709
H 0.503538 15.2821 6.99152
H 0.583932 13.5074 7.45795
C 1.71116 12.3954 4.77438
H 2.55887 11.8617 4.24509
H 1.22213 11.5889 5.4076
H 0.928764 12.6587 4.03308
Si 5.31543 13.3292 6.68269
O 5.4624 11.6904 7.3131
C 6.41303 14.5701 7.72699
H 6.83375 14.0595 8.62532
H 7.25664 14.9062 7.11858
H 5.86296 15.4631 8.04472
C 5.72004 13.5045 4.87004
H 6.40345 14.379 4.91465
H 6.31977 12.6649 4.47646
H 4.89064 13.8445 4.25074
Si 6.6309 11.166 8.41217
O 6.65189 9.52819 8.18395
C 5.77137 11.3494 10.0228
H 5.84737 10.3933 10.5225
H 6.23406 12.1321 10.6211
H 4.70297 11.5643 9.94601
C 8.32338 11.8191 7.89514
H 8.76953 12.5195 8.63353
H 9.01072 10.9149 7.99044
H 8.33425 12.3098 6.93843
Si 5.68638 8.17551 7.76408
O 6.42513 6.64002 7.63115
C 4.81652 7.77254 9.29977
H 5.53454 7.83324 10.1184
H 4.12354 8.52696 9.68307
H 4.4421 6.70999 9.42374
C 4.98239 8.35525 6.05626
H 5.46804 7.5174 5.50806
H 3.88988 8.31561 5.84331
H 5.32174 9.33663 5.63823
Si 6.96036 5.09051 8.11205
O 8.21663 5.22178 9.17951
C 5.39215 4.26437 8.63219
H 5.0741 3.63942 7.76251
H 5.44325 3.60746 9.55045
H 4.67805 5.05816 8.79409
C 7.25654 4.44854 6.43321
H 6.31389 4.35498 5.91771
H 7.83141 5.1504 5.77986
H 7.75247 3.44785 6.49609
Si 9.14001 4.02065 9.97843
C 8.30958 2.46125 9.30784
H 7.43821 2.57971 8.645
H 9.08059 1.85806 8.85472
H 7.90804 1.94192 10.1739
C 10.9374 4.2905 9.45786
H 11.6104 3.77421 10.29
H 11.0709 5.40331 9.53314
Si 13.9843 17.5723 7.35949
O 13.2445 16.1458 7.08561
C 15.6762 17.9274 6.65824
H 15.8735 19.0022 6.72821
H 16.3481 17.408 7.37101
H 15.9514 17.5339 5.66329
C 12.8466 18.9283 7.58452
H 13.3685 0.799787 7.8825
H 12.3296 0.170997 6.68318
H 12.0542 18.6771 8.29412
Si 11.793 15.2643 7.28982
O 12.1195 13.7032 7.58628
C 10.6946 15.8221 8.70894
H 9.591 15.5848 8.42277
H 10.9937 15.2995 9.60279
H 10.5568 16.8898 8.96674
C 11.1037 15.2735 5.5618
H 12.0006 15.4157 4.838
H 10.6256 14.3387 5.29145
H 10.4436 16.1044 5.27439
Si 13.4948 12.8467 7.85566
O 13.1522 11.2486 8.08939
C 14.2184 13.0052 9.57544
H 13.8899 13.8799 10.1403
H 13.8002 12.1137 10.0967
H 15.2879 12.9337 9.85308
C 14.2489 13.0826 6.14434
H 13.7562 12.3902 5.47783
H 13.8993 14.0941 5.85334
H 15.3294 13.0041 5.94627
Si 12.603 10.0322 7.14822
O 12.1615 8.84454 8.22372
C 13.8212 9.41121 5.90695
H 14.5158 10.1881 5.58705
H 14.4748 8.50118 6.05487
H 13.2438 9.12299 5.00073
C 11.1384 10.6403 6.24283
H 10.6843 9.7246 5.80495
H 10.4004 11.1068 6.87462
H 11.3968 11.2641 5.38657
Si 12.7719 7.58453 9.11558
O 13.0261 6.12927 8.3181
C 11.8226 7.71288 10.7731
H 12.2952 7.38765 11.7113
H 11.5669 8.80507 10.8475
H 10.8586 7.23083 10.6203
C 14.5315 7.77633 9.65622
H 14.8213 6.95181 10.3103
H 15.0996 7.57098 8.75967
H 14.8573 8.75592 10.0555
Si 12.8417 4.61227 7.66129
C 11.2505 3.68816 8.08863
H 11.3472 2.55971 8.23916
H 10.4713 3.90751 7.43046
C 14.3458 3.59656 8.10215
H 14.1189 2.7142 8.80404
H 14.6882 3.2168 7.09252
H 15.1581 4.18917 8.52656
Si 17.9328 13.2701 7.54626
O 18.0933 12.0457 8.5831
C 19.0514 13.2186 6.10819
H 18.9825 14.0727 5.42727
H 20.1391 13.2451 6.43207
H 18.8453 12.3741 5.45245
C 17.2759 14.8449 8.2888
H 18.0015 15.653 8.07555
H 16.2683 15.1032 7.94476
H 17.206 14.6738 9.35924
Si 19.3803 11.2153 9.43702
O 19.1535 9.61692 9.07073
C 21.0765 11.8586 8.95138
H 21.9297 11.6456 9.68156
H 21.248 11.5905 7.90154
H 20.8722 12.9239 8.93322
C 18.5921 12.0499 10.9925
H 18.0527 12.9647 10.6942
H 17.7492 11.3896 11.4246
H 19.131 12.3338 11.9207
Si 18.0475 8.39969 8.91353
O 18.9195 7.13794 8.34126
C 17.5823 8.22562 10.652
H 16.8647 7.39673 10.8346
H 18.5612 7.96758 11.18
H 17.226 9.18556 11.0407
C 16.7298 8.66158 7.55761
H 17.1274 9.45659 6.86857
H 16.5442 7.79248 6.93284
H 15.7621 8.89887 7.94626
Si 19.2384 5.98933 7.25615
O 20.199 4.82808 7.90927
C 17.7135 5.02037 6.89027
H 17.8364 4.43129 5.98367
H 17.399 4.41631 7.7574
H 16.9012 5.76102 6.69973
C 20.1382 6.78635 5.80292
H 21.0411 6.26725 5.42836
H 19.4153 6.89893 5.00963
H 20.5372 7.75565 6.01691
Si 21.5654 3.22224 7.15287
O 21.9161 3.34971 8.784
C 20.1773 2.3818 6.36677
H 19.304 2.23685 7.03052
H 19.7342 3.07194 5.62485
H 20.5043 1.50117 5.82881
C 1.08059 3.64816 6.14664
H 1.91277 3.87663 6.86531
H 1.28128 2.81684 5.51498
H 0.94032 4.55273 5.49632
Si 21.1789 4.80063 9.27341
C 0.279076 6.33867 9.14272
H 0.632093 6.55026 8.09464
H 21.4153 7.07339 9.37708
H 1.0545 6.46649 9.92585
C 20.4204 4.86718 10.9428
H 19.8831 4.00264 11.2704
H 21.3073 5.06809 11.5848
H 19.7457 5.6846 11.0121
Si 1.41494 13.354 16.3737
O 1.22806 12.9809 14.8287
C 0.167735 12.1879 17.165
H 21.6888 12.641 18.0778
H 21.3521 11.9796 16.4029
H 0.604417 11.2341 17.4644
C 1.40681 15.1502 16.6158
H 1.15805 15.4082 17.6518
H 2.18391 15.7833 16.2467
H 0.4214 15.4318 16.153
Si 1.0793 11.9803 13.4961
O 1.99415 10.6511 13.681
C 1.66526 13.1225 12.1401
H 1.385 12.6078 11.2139
H 1.09315 14.0668 12.0712
H 2.741 13.2904 12.1646
C 21.2419 11.7714 13.1624
H 20.6773 12.4961 13.7635
H 21.2186 12.1129 12.1355
H 20.7213 10.8149 13.1733
Si 2.50851 9.19017 12.9835
O 1.94102 7.7539 13.6444
C 4.32056 9.40223 12.8237
H 4.72389 9.55307 11.7828
H 4.62669 10.2125 13.5592
H 4.77517 8.49974 13.1835
C 1.87507 9.09435 11.2035
H 0.873668 9.5251 11.2901
H 2.47797 9.73991 10.5411
H 1.71044 8.09079 10.8111
Si 1.21896 6.32441 14.1555
O 1.61979 5.30613 12.9078
C 21.3704 6.80353 13.7364
H 21.5338 7.86253 13.3156
H 20.8713 6.22779 12.9429
H 20.7165 7.2467 14.5618
C 1.77075 5.97505 15.8891
H 1.79815 4.91895 16.0876
H 2.78253 6.32517 15.996
H 0.997499 6.49947 16.5065
Si 2.91427 4.31575 12.4572
O 3.83992 4.00398 13.768
C 2.19978 2.72061 11.833
H 3.08832 2.02884 11.7986
H 1.65276 2.42037 12.6916
H 1.73605 2.73502 10.8513
C 3.78855 5.29578 11.2062
H 2.9509 5.46353 10.4857
H 3.95964 6.33439 11.581
H 4.66667 4.80452 10.8034
Si 5.03553 4.1553 14.9396
C 5.48069 2.39665 15.5528
H 5.26469 1.76379 14.7435
H 6.44311 2.34693 16.0226
H 4.67851 2.05146 16.2535
C 6.43871 4.82531 13.9361
H 7.23113 4.76822 14.6922
H 6.37566 5.894 13.6843
Si 7.45757 15.8909 11.4082
O 6.65105 15.0082 12.477
C 8.87175 17.0268 12.0325
H 8.68876 17.4149 13.06
H 9.84591 16.5076 11.9541
H 8.99731 17.8314 11.2982
C 6.1196 16.9842 10.5875
H 5.84319 16.6861 9.59363
H 5.16646 16.7929 11.1821
H 6.434 18.067 10.7329
Si 6.57461 13.9835 13.764
O 7.97474 13.1031 13.8022
C 6.26035 14.987 15.2982
H 7.20544 15.5637 15.4729
H 5.32159 15.5327 15.2117
H 6.14945 14.2681 16.1244
C 5.24019 12.8026 13.5189
H 4.27937 13.2515 13.253
H 5.48941 12.1317 12.6536
H 5.05206 12.3143 14.452
Si 9.5252 12.6178 13.3983
O 9.62321 10.9503 13.6824
C 10.5593 13.651 14.525
H 9.90609 14.4633 14.869
H 10.8776 13.0463 15.3643
H 11.385 14.0083 13.9255
C 9.80377 13.0386 11.5922
H 9.14181 12.4007 10.9694
H 9.55732 14.0908 11.4195
H 10.8606 12.9424 11.2712
Si 10.6058 9.69418 14.2225
O 10.0995 8.34397 13.4302
C 10.4239 9.2387 16.0481
H 10.5687 10.0917 16.6798
H 9.37972 8.95877 16.2084
H 11.0187 8.43631 16.5191
C 12.463 9.79015 14.0325
H 12.8719 8.84572 14.4866
H 12.7462 9.73447 12.9454
Si 8.82462 7.37336 13.8264
O 8.89396 6.05494 12.7194
C 7.13756 8.28422 13.8788
H 6.98619 8.87084 14.7913
H 7.09648 9.02636 12.9746
H 6.41998 7.51944 13.6418
C 7.48527 4.52656 17.4336
H 7.55711 3.82641 16.5327
H 7.46121 5.57489 17.1163
H 6.54263 4.22809 17.9494
Si 8.6465 4.3447 12.3821
C 6.80211 4.04749 12.7073
H 6.70939 3.01176 12.9929
H 6.22689 4.30407 11.7947
C 9.72719 3.59018 13.8071
H 10.7496 3.89803 13.5067
H 9.43909 4.10502 14.7369
H 9.65634 2.51743 13.9142
Si 18.4135 16.7615 13.7444
O 17.8415 15.9027 15.0757
C 16.93 17.2235 12.6444
H 15.9726 16.9428 13.1468
H 16.8634 18.3333 12.4493
H 17.0199 16.6637 11.7178
C 19.63 15.6312 12.8835
H 19.452 14.6126 13.2601
H 19.4656 15.5996 11.8022
H 20.6564 15.8408 13.169
Si 17.9373 15.6266 16.6639
O 17.0391 14.2419 16.9092
C 19.6684 15.1196 17.1126
H 20.5798 15.6753 16.8287
H 19.7029 14.6599 18.1135
H 19.7402 14.2451 16.4783
C 17.1437 17.148 17.5478
H 17.2145 18.1237 16.9784
H 16.0505 17.0144 17.5718
H 17.5675 17.302 18.5474
Si 15.4568 13.7706 16.7638
O 15.296 12.1767 16.1336
C 14.7978 13.8571 18.4787
H 14.6625 14.9212 18.743
H 13.814 13.3878 18.7881
H 15.7023 13.6213 19.1577
C 14.5802 15.06 15.7367
H 14.979 15.045 14.7161
H 13.501 14.9802 15.638
H 14.7879 16.0852 16.1319
Si 14.8743 11.3195 14.8492
O 15.6813 9.81259 14.9494
C 12.9936 10.995 14.7934
H 12.6929 11.0241 15.8404
H 12.5955 11.9256 14.3382
C 15.0239 12.218 13.1724
H 16.0287 12.7478 13.1031
H 14.7267 11.5873 12.3249
H 14.3856 13.1355 13.2262
Si 16.8889 8.69182 15.0374
O 16.5999 7.26156 14.1297
C 18.3809 9.51636 14.2387
H 19.3265 8.96022 14.3877
H 18.1175 9.65453 13.2022
H 18.4842 10.4935 14.7033
C 16.8402 7.97311 16.7763
H 16.5243 8.72897 17.5282
H 16.0622 7.22955 16.8334
H 17.7471 7.41032 17.035
Si 16.6483 5.63661 14.1257
C 16.5939 4.70589 12.4351
H 15.6102 4.89904 11.9002
H 17.4117 4.95491 11.728
H 16.5124 3.65471 12.7505
C 18.2669 5.11381 14.9834
H 18.0428 4.80298 16.0084
H 18.6174 4.18985 14.4252
H 19.1968 5.76846 14.8653
523
 Atoms. Timestep: 2000
Si 2.90845 14.8176 4.04673
O 3.21478 13.5611 2.98774
C 1.70206 16.2127 3.44071
H 1.79835 17.1185 4.0811
H 1.88972 16.5361 2.38192
H 0.650017 15.9899 3.29138
C 4.68773 15.5576 3.76682
H 4.69763 16.5249 3.35565
H 5.16724 15.8689 4.73247
H 5.32872 14.9116 3.15292
Si 2.5194 13.0989 1.45167
O 3.30292 11.7635 1.02269
C 2.64902 14.2168 19.281
H 1.86824 14.9719 19.4549
H 3.50068 14.736 18.8985
H 2.3972 13.708 18.3496
C 0.691703 12.9388 1.51999
H 0.451255 12.5733 2.57016
H 21.4851 13.9943 1.39822
H 21.3972 12.1129 0.939344
Si 4.2172 10.5073 0.533508
O 3.87672 9.04147 1.27881
C 5.96953 10.9087 0.888765
H 5.91095 11.2392 1.94778
H 6.66904 10.1011 0.648384
H 6.23899 11.7463 19.4737
C 3.92233 10.0259 18.0359
H 4.70895 9.29898 17.796
H 2.98202 9.50984 18.0667
H 3.89267 10.809 17.3313
Si 3.59625 7.80978 2.27439
O 2.85163 6.64594 1.32978
C 2.79389 8.60321 3.71197
H 3.57244 9.2576 4.1273
H 1.87291 9.13842 3.37497
H 2.50015 7.86786 4.49021
C 5.09137 6.60084 2.90794
H 6.11532 6.95375 3.08286
H 4.66009 6.17958 3.79875
H 5.05921 5.84011 2.11754
Si 1.96319 5.21027 1.64202
O 3.03731 3.98503 1.5529
C 0.71796 5.42031 19.5674
H 0.603477 4.55834 18.9091
H 20.9568 5.72694 0.943365
H 0.951223 6.34362 19.0476
C 1.02268 5.05868 3.30826
H 1.56661 5.19097 4.20422
H 21.4714 5.92214 3.28814
H 0.426276 4.10716 3.38175
Si 4.39743 3.03818 1.75247
C 4.96619 2.93046 19.2202
H 5.37907 3.80796 18.737
H 5.6003 2.0919 19.0652
H 4.02905 2.61967 18.6104
C 3.38723 1.60589 2.28222
H 2.56152 1.84496 1.61393
H 3.7905 0.625664 2.19844
H 3.05278 1.71643 3.32833
Si 9.87317 16.0214 18.4375
O 9.52832 14.5119 18.9186
C 11.1267 17.0364 19.3813
H 10.5986 17.2906 1.07218
H 11.9979 16.5154 0.493023
H 11.3772 18.0343 18.9291
C 8.60943 17.1775 17.6543
H 8.16162 16.6151 16.8126
H 7.86783 17.4444 18.366
H 9.09845 18.0981 17.3456
Si 9.12432 12.9805 19.4315
O 10.5882 12.3204 19.3571
C 8.0272 12.0216 18.2291
H 8.55414 11.9421 17.295
H 8.00234 10.9602 18.645
H 7.0092 12.316 17.9806
C 8.5004 13.0513 1.8909
H 9.2687 13.2281 2.65882
H 7.73088 13.7974 2.06642
H 8.00641 12.083 2.11457
Si 11.4622 11.0569 0.775914
O 10.7101 9.69742 0.400827
C 11.2465 11.2942 2.60253
H 10.4162 10.678 2.99248
H 12.2007 10.9491 3.09554
H 11.0337 12.3806 2.85852
C 13.1281 11.3651 19.3741
H 13.7254 10.5237 0.57435
H 13.0255 11.3795 18.2602
H 13.5798 12.3075 0.412663
Si 10.2349 8.12427 0.706195
O 9.54712 7.5133 18.5783
C 9.06266 8.1776 2.2117
H 9.4818 8.34785 3.19424
H 8.33913 8.9786 1.86237
H 8.47899 7.28181 2.36567
C 11.7109 7.09401 1.31847
H 12.5701 7.3483 0.674001
H 12.1499 7.47424 2.26719
Si 8.48732 6.24751 18.2414
O 9.32557 4.85091 18.1115
C 8.00928 6.63888 16.4239
H 7.78314 7.74767 16.2285
H 8.86073 6.35546 15.7403
H 7.13813 6.09264 16.0891
C 6.96116 6.44383 19.2056
H 6.91005 7.32573 0.59082
H 6.10416 6.5669 18.4427
H 6.69442 5.61488 0.649131
Si 9.07535 3.15366 17.9993
C 8.89409 2.96527 0.533748
H 8.70598 1.95488 0.984852
H 9.81791 3.28722 1.06781
H 8.08991 3.58462 0.964967
C 10.4439 2.66222 16.7741
H 10.3207 3.32114 15.9197
H 11.4753 2.73691 17.1908
H 10.2496 1.6499 16.3581
Si 19.0367 9.48057 1.72677
O 18.0259 8.10781 1.91417
C 20.3853 9.40169 3.07484
H 21.1539 10.1101 2.84625
H 20.0178 9.56518 4.13447
H 20.9126 8.47036 3.1681
C 19.9236 8.97792 19.4344
H 19.3154 8.35626 18.7777
H 20.296 9.86978 18.8506
H 20.8135 8.4277 0.554085
Si 16.4878 8.46009 2.33487
O 15.789 7.04309 2.78024
C 16.3755 9.78163 3.65673
H 15.5726 9.55465 4.34632
H 17.3564 9.76293 4.17772
H 16.1835 10.8307 3.27341
C 15.9046 9.30102 0.810604
H 15.397 8.66192 19.3166
H 15.0488 9.85768 1.23704
H 16.5821 10.0868 19.6463
Si 15.5913 5.38789 2.86243
O 14.3225 4.91416 1.88826
C 17.2033 4.78207 2.11935
H 17.9672 5.57964 2.24172
H 17.474 3.76269 2.44514
H 17.0579 4.66462 1.01873
C 15.1734 4.79422 4.58373
H 14.4095 4.02362 4.54008
H 15.9858 4.18346 5.03008
H 14.8804 5.579 5.30378
Si 12.8421 4.38344 1.52877
O 12.3781 3.21838 2.6402
C 11.426 5.61274 1.39497
H 10.8401 5.29925 0.513731
H 10.8243 5.48207 2.30074
C 13.1567 3.70296 19.0006
H 12.3384 3.28101 18.4386
H 13.4642 4.61009 18.4739
H 13.9306 2.93254 19.1377
Si 12.5882 1.91314 3.66066
O 13.9938 1.11081 3.62938
C 11.0528 0.915386 3.3505
H 10.248 1.70212 3.43234
H 10.9222 0.325782 2.40336
H 10.9374 18.5853 4.18096
C 12.4918 2.52983 5.48191
H 13.253 2.1361 6.21218
H 12.5645 3.63779 5.44254
H 11.4652 2.35735 5.83088
Si 15.3868 1.24611 2.79344
C 15.4146 18.1009 1.61805
H 15.4999 17.159 2.22484
H 14.5749 18.1141 0.948589
H 16.2641 18.2869 0.938754
C 16.7697 1.12393 4.03677
H 16.2776 0.995841 4.96814
H 17.2697 18.4883 3.95179
H 17.4967 1.89595 4.07313
Si 2.96527 14.4904 6.40134
O 4.55375 13.9443 6.68436
C 3.10967 16.4537 6.94534
H 2.64063 17.0296 6.15364
H 2.63193 16.8559 7.82312
H 4.20895 16.4855 6.8135
C 1.82926 13.2104 7.07715
H 0.859996 13.3972 7.54656
H 1.46085 12.5969 6.23238
H 2.58601 12.6326 7.56552
Si 5.50097 13.8595 7.99894
O 5.93107 12.4169 8.49954
C 4.35512 14.5563 9.41238
H 3.42796 14.9574 9.07156
H 4.16135 13.8031 10.1691
H 4.86316 15.3475 10.0374
C 7.1772 14.5778 7.71149
H 7.65467 13.9732 6.89477
H 7.03474 15.6275 7.45731
H 7.67246 14.4884 8.6587
Si 6.33415 11.0916 9.31121
O 5.60159 9.90571 8.2991
C 5.55827 11.3671 10.9531
H 5.74352 10.5276 11.6023
H 6.03339 12.1721 11.5122
H 4.51285 11.5926 10.7082
C 8.10483 10.6818 9.51995
H 8.54933 11.4712 10.0883
H 8.07414 9.8441 10.2068
H 8.81662 10.3016 8.7466
Si 6.09784 8.86863 7.13207
O 7.44557 7.98157 7.59714
C 4.89183 7.47129 6.99779
H 4.80961 7.10243 5.95585
H 5.28302 6.50381 7.43642
H 3.86289 7.6051 7.40854
C 6.16538 9.80654 5.47313
H 5.56775 10.7204 5.68769
H 7.12371 10.1408 5.03214
H 5.58137 9.29479 4.68
Si 8.29365 6.55814 7.32163
O 9.17634 6.17668 8.64137
C 7.58289 4.95359 6.52904
H 7.72224 5.20017 5.43633
H 8.31611 4.1613 6.77233
H 6.516 4.859 6.74635
C 9.79845 7.07499 6.16259
H 9.47732 7.84568 5.44034
H 10.4613 7.55369 6.86836
H 10.1515 6.17977 5.58616
Si 9.6439 5.30954 10.0132
C 8.95657 3.62908 9.75314
H 9.47317 2.95002 9.07703
H 8.87455 3.20983 10.7538
H 7.90151 3.65289 9.44537
C 11.5446 5.2755 10.0457
H 12.0059 4.49653 10.7237
H 11.8186 6.22686 10.5041
Si 13.6436 16.7441 9.42684
O 12.4266 17.2947 8.52129
C 15.2722 17.2925 8.65903
H 15.1507 18.3511 8.28235
H 16.1711 17.2415 9.28542
H 15.397 16.6689 7.76783
C 13.1902 16.2076 11.2328
H 12.1536 15.767 11.2237
H 13.9361 15.5892 11.6582
H 13.1078 17.13 11.899
Si 11.2556 16.1904 7.90317
O 12.102 14.8357 7.53288
C 10.1762 15.7876 9.36762
H 10.6495 15.0647 10.0606
H 9.75659 16.6688 9.98931
H 9.23077 15.2809 9.14451
C 10.3281 16.9769 6.46935
H 10.6256 16.5331 5.52358
H 9.24271 16.7825 6.5739
H 10.3332 18.1141 6.37221
Si 13.1331 13.613 7.16678
O 12.3493 12.243 7.40815
C 14.6493 13.8697 8.18504
H 14.721 14.8625 8.71569
H 14.7389 13.2355 9.0859
H 15.629 13.7885 7.67852
C 13.6039 13.498 5.28718
H 12.7598 13.0859 4.77747
H 13.7893 14.4602 4.71715
H 14.4869 12.8364 5.07428
Si 11.5843 10.9879 6.67287
O 11.4701 10.0962 8.08646
C 12.6839 9.99221 5.61575
H 13.4455 10.5752 5.0101
H 13.1665 9.22395 6.19823
H 12.1909 9.47651 4.77684
C 9.88423 11.6453 5.86205
H 9.73427 11.2187 4.87858
H 8.96159 11.5277 6.52641
H 9.9452 12.7269 5.7467
Si 12.6355 9.28721 8.83184
O 12.7901 7.76497 8.22819
C 12.2417 9.48034 10.6032
H 11.2998 9.022 10.8986
H 13.085 9.30112 11.2897
H 12.0775 10.5782 10.6688
C 14.3043 10.1047 8.58999
H 14.6111 10.6355 9.50062
H 15.1437 9.43603 8.28323
H 14.2107 10.8578 7.80518
Si 13.5077 6.34946 8.46361
C 12.1442 4.98782 8.64766
H 12.6105 4.10924 8.73709
H 11.3737 5.02571 7.83274
C 14.6072 6.35311 10.0408
H 14.071 5.82841 10.7712
H 15.554 5.7887 9.99019
H 14.7049 7.38732 10.5187
Si 18.4216 12.7054 5.5253
O 18.8216 11.3142 6.22969
C 19.3354 12.49 3.86752
H 19.5669 13.4886 3.48367
H 20.3442 12.0378 4.10994
H 18.7762 11.7692 3.14432
C 18.4472 14.2512 6.63324
H 17.5083 14.8281 6.64905
H 18.68 14.0334 7.68421
H 19.2394 14.9242 6.24952
Si 19.2172 10.5057 7.66193
O 19.1741 8.90143 7.35082
C 20.9234 10.7582 8.40276
H 20.8987 10.1349 9.29754
H 0.651445 10.4618 7.76544
H 20.9875 11.7821 8.81618
C 18.0703 10.9141 9.00364
H 17.993 10.2531 9.86193
H 18.3568 11.9575 9.35866
H 16.9987 10.9467 8.71367
Si 18.572 7.59807 8.03723
O 19.4189 6.35055 7.44138
C 18.4918 7.82662 10.0062
H 18.5678 7.00248 10.7308
H 19.2681 8.59287 10.3329
H 17.448 8.21018 10.0792
C 16.8486 7.42401 7.49195
H 16.2176 7.0444 8.31321
H 16.3754 8.35865 7.11626
H 16.6921 6.77047 6.62722
Si 19.4578 4.71351 7.08313
O 20.6319 3.94778 8.04296
C 17.6637 4.14274 7.39753
H 17.458 3.16711 6.9116
H 17.2774 4.0587 8.4178
H 16.9757 4.82879 6.8856
C 19.8103 4.953 5.37522
H 19.3854 4.14546 4.78122
H 19.2794 5.83459 5.0382
H 20.8479 5.24714 5.15832
Si 1.31365 3.15414 7.92372
O 0.822849 2.39573 9.31879
C 1.1005 2.07159 6.37793
H 21.3172 2.24773 5.93344
H 1.96955 2.19251 5.70694
H 1.13444 0.974141 6.65592
C 2.75881 4.33658 8.07035
H 3.65282 3.83096 8.36995
H 2.94402 4.77145 7.02892
H 2.5684 5.0495 8.87577
Si 20.5735 3.18075 9.59004
C 21.0607 4.29172 10.9502
H 0.560379 5.07367 10.5633
H 20.2706 4.76188 11.6041
H 0.623299 3.77186 11.5833
C 19.0746 2.23527 9.75426
H 18.227 2.77099 10.1892
H 18.777 1.72658 8.79364
H 19.2681 1.53845 10.5762
Si 1.67848 12.8896 15.3584
O 1.14652 12.3362 13.9129
C 0.506446 12.1073 16.7245
H 0.853904 12.27 17.7435
H 20.6245 12.4016 16.5303
H 0.557713 11.05 16.4147
C 2.0778 14.6396 15.1751
H 2.33489 15.0013 16.2043
H 3.04486 14.7775 14.6703
H 1.23541 15.2374 14.7975
Si 1.10287 11.0687 12.8079
O 2.40855 10.0382 12.792
C 1.10605 12.2272 11.3321
H 21.5645 13.0456 11.5884
H 2.05893 12.731 11.3353
H 0.881243 11.8028 10.3432
C 20.567 10.2278 12.9637
H 20.6655 9.63248 13.8664
H 19.7485 10.9008 13.0244
H 20.3333 9.46386 12.2133
Si 2.69876 8.41808 12.5082
O 1.59827 7.65577 13.5837
C 4.54241 8.24268 12.7219
H 4.80405 8.62185 13.7336
H 4.82588 7.19489 12.8146
H 5.09555 8.71204 11.9479
C 2.0873 7.85442 10.8651
H 1.93888 8.65289 10.1324
H 2.46845 6.93097 10.4357
H 1.02598 7.71639 11.161
Si 1.85799 6.37547 14.7507
O 1.88302 4.79542 14.0094
C 21.2905 6.58805 15.4081
H 20.9011 7.4556 14.803
H 20.573 5.76813 15.1904
H 21.2699 7.13749 16.2852
C 3.34427 6.57522 15.8782
H 2.98967 7.21982 16.7098
H 3.71134 5.60839 16.1317
H 4.07986 7.26169 15.4412
Si 2.83241 3.43739 14.0351
O 4.04981 3.49568 12.8739
C 3.48262 3.00667 15.6688
H 3.73421 1.91795 15.6757
H 4.32781 3.59637 16.0232
H 2.63365 3.11853 16.3275
C 1.76449 1.91467 13.575
H 2.56995 1.14899 13.8152
H 0.94299 1.97156 14.3206
H 1.48031 1.98362 12.5344
Si 5.35445 3.26493 11.7229
C 4.78572 4.07121 10.0951
H 3.74746 3.79689 9.968
H 4.66354 5.20012 10.0517
H 5.47136 3.73943 9.29445
C 6.98367 4.1076 12.3266
H 7.89979 3.71796 11.9048
H 6.98339 3.74966 13.4006
Si 6.18847 16.7364 13.3035
O 6.02128 15.1614 13.6649
C 7.08213 18.0406 14.3327
H 6.38159 18.4806 15.0769
H 7.96858 17.6655 14.8781
H 7.40567 0.554108 13.7184
C 4.43943 17.3943 12.8552
H 4.15968 18.4403 13.0725
H 4.26404 17.0897 11.7799
H 3.91542 16.7809 13.5736
Si 6.52501 14.1634 14.9888
O 8.17596 14.1495 14.8226
C 5.92753 14.9211 16.5687
H 6.65794 15.6991 16.7231
H 4.9251 15.3667 16.3734
H 5.84385 14.1999 17.3895
C 5.63031 12.6114 14.5617
H 4.8381 12.9613 13.8334
H 6.20356 11.8559 14.0052
H 5.0539 12.1554 15.3655
Si 9.55335 14.1995 13.9334
O 10.2546 12.7158 14.1124
C 10.5727 15.354 15.0119
H 10.0149 16.1593 15.4038
H 10.9921 14.7205 15.8144
H 11.3668 15.7141 14.35
C 9.47056 14.5719 12.142
H 9.68227 13.7349 11.4405
H 8.54955 14.996 11.799
H 10.2687 15.3153 11.9147
Si 11.1944 11.3582 14.2208
O 10.3939 10.1602 13.1932
C 11.6226 10.9571 16.0333
H 12.0054 9.96402 16.2705
H 12.3977 11.6295 16.3911
H 10.7545 11.1169 16.7079
C 12.6821 11.708 13.1533
H 13.1111 10.771 12.7347
H 12.1891 12.2198 12.3227
Si 9.31015 8.94793 13.5464
O 9.01059 7.9061 12.1012
C 7.39193 9.5454 13.727
H 6.92635 8.75346 13.0774
H 6.97272 9.50027 14.7627
H 7.14648 10.5455 13.2881
C 7.65951 2.5643 17.0059
H 8.07872 2.26177 15.9773
H 6.94319 3.35585 16.7939
H 7.03031 1.71572 17.3404
Si 8.75058 6.26596 12.0452
C 6.90051 5.64448 12.3317
H 6.463 5.94262 11.3318
H 6.26969 6.0884 13.1353
C 9.84112 5.37352 13.3668
H 10.4173 4.48928 13.1196
H 10.5565 6.15076 13.6498
H 9.15643 5.20736 14.2091
Si 20.017 16.4352 14.2566
O 18.453 16.8004 14.8844
C 20.8117 18.1138 14.4725
H 21.4195 18.0071 15.3776
H 21.4577 18.542 13.7212
H 20.015 0.523921 14.7242
C 19.9214 15.475 12.581
H 18.8672 15.5538 12.2558
H 20.5251 15.8861 11.7484
H 20.1065 14.4004 12.7192
Si 17.8772 16.3478 16.4228
O 17.3451 14.818 16.3444
C 19.1766 16.4004 17.7027
H 18.8838 15.9071 18.6389
H 20.1215 16.0263 17.3839
H 19.3738 17.4775 17.9434
C 16.5336 17.6979 16.5139
H 17.019 18.6018 16.1192
H 15.7473 17.3426 15.8071
H 16.0039 17.9329 17.4769
Si 16.0159 13.8686 16.921
O 15.5858 12.947 15.6247
C 16.9702 12.6666 18.0409
H 17.6144 12.0778 17.36
H 17.6317 13.1709 18.6858
H 16.3342 12.0904 18.8097
C 14.9254 14.8586 18.0096
H 14.0492 14.4071 18.505
H 15.4954 15.3425 18.8072
H 14.5205 15.7157 17.3935
Si 15.5677 11.8492 14.3235
O 15.2769 10.1718 14.6715
C 13.9908 12.475 13.484
H 13.7414 13.3789 14.0529
H 14.3828 12.863 12.5357
C 17.1644 12.418 13.2501
H 18.0402 11.772 13.5619
H 16.981 12.1588 12.1891
H 17.341 13.4924 13.2916
Si 15.6601 8.60358 15.0399
O 14.8775 7.28295 14.3953
C 17.3959 8.06816 15.5861
H 17.6253 8.63315 16.4823
H 17.3904 6.99775 15.7922
H 18.2183 8.36621 14.9249
C 14.569 8.59901 16.5801
H 14.2612 8.03681 17.4821
H 14.9664 9.42369 17.1211
H 13.5931 8.97475 16.2601
Si 14.3464 6.58537 15.7581
C 12.5346 6.32603 15.7198
H 12.0309 7.31235 15.5756
H 12.2814 5.86233 14.706
H 12.0798 5.85615 16.6084
C 15.4813 5.35302 16.5871
H 14.9415 4.76309 17.3999
H 15.912 4.74221 15.7661
H 16.3505 5.89071 17.0444
523
 Atoms. Timestep: 2500
Si 3.15554 14.3664 3.18984
O 3.32766 12.88 2.3502
C 1.49223 15.0151 3.02203
H 1.3662 16.1258 2.96386
H 0.809969 14.5306 2.29722
H 0.958942 14.8564 3.96212
C 4.58088 15.2201 2.38536
H 4.43356 15.5247 1.39744
H 4.96102 16.0972 3.01457
H 5.47929 14.5548 2.50269
Si 2.47076 11.5093 2.06903
O 3.22606 10.2655 2.90711
C 1.98778 11.6134 18.6664
H 2.71786 11.5218 17.9009
H 1.49946 10.6681 18.462
H 1.26118 12.4132 18.4432
C 21.1383 11.6187 2.88579
H 21.1292 12.4117 3.6737
H 20.2938 11.7274 2.15178
H 20.8738 10.5858 3.20649
Si 4.36916 9.08519 2.54328
O 3.94477 7.59841 2.99072
C 5.94604 9.39732 3.45428
H 6.7137 9.66991 2.71856
H 5.91598 10.2613 4.11442
H 6.2966 8.54243 4.03101
C 4.35272 8.99473 19.1683
H 5.32261 8.60068 18.8246
H 3.55602 8.25409 19.0453
H 4.21683 9.83918 18.5829
Si 3.99006 5.93362 2.85406
O 2.44451 5.5207 2.19777
C 4.00296 5.37896 4.68918
H 4.82931 5.88253 5.22589
H 3.07275 5.77931 5.15584
H 4.04417 4.27062 4.77202
C 5.26988 5.65062 1.65238
H 5.05043 4.74703 1.08126
H 5.25677 6.54897 1.07286
H 6.22621 5.6291 2.1219
Si 2.21857 3.88284 2.0359
O 3.74347 3.06829 2.35147
C 1.9575 3.34623 18.7636
H 2.48698 2.38608 18.8507
H 0.858927 3.16675 18.5368
H 2.38059 3.9328 17.9096
C 1.07238 3.32567 3.32557
H 1.172 2.28703 3.42736
H 1.22783 3.75404 4.32094
H 20.3548 3.62808 3.04492
Si 4.66918 1.76713 2.68742
C 4.52174 17.964 1.49146
H 5.20693 17.3173 2.04004
H 3.63857 17.3385 1.32924
H 5.20796 18.1929 19.1024
C 5.97686 1.24021 3.94891
H 6.33064 17.996 3.41718
H 6.8703 1.87308 4.00651
H 5.74699 0.958898 4.96884
Si 10.4472 16.1625 18.5446
O 9.87956 14.8842 0.978602
C 11.9221 15.6485 17.5841
H 11.9074 14.5574 17.6043
H 12.0052 16.1727 16.6287
H 12.8189 15.9742 18.1603
C 10.6911 17.4474 1.45409
H 9.73462 18.019 1.68085
H 10.8492 17.0188 2.45382
H 11.4656 18.2598 1.21428
Si 9.25835 13.5154 1.86084
O 10.3036 12.1442 1.63515
C 7.64058 13.4049 0.850573
H 7.91495 13.7847 18.3646
H 7.29503 12.3769 0.847257
H 6.83617 14.1542 1.2049
C 9.5698 13.7448 3.76119
H 10.6283 13.7809 3.92077
H 9.10668 14.6001 4.2872
H 9.17848 12.9179 4.31142
Si 11.0812 10.7208 1.60949
O 10.4056 9.18792 1.27677
C 11.6573 10.4891 3.38584
H 11.95 11.3821 3.97136
H 10.7231 10.1926 3.92048
H 12.4251 9.65079 3.63032
C 12.3682 10.7874 18.7234
H 12.5557 9.73957 18.4809
H 12.001 11.2392 17.8104
H 13.332 11.4018 18.9351
Si 10.3263 7.56466 1.25805
O 9.29155 7.18028 18.5008
C 9.38668 7.09138 2.94401
H 8.33899 7.12607 2.63227
H 9.55348 6.13357 3.51898
H 9.40394 7.96165 3.58378
C 11.93 6.68054 19.2288
H 12.1368 7.14313 18.2877
H 12.7433 6.93871 1.49628
Si 9.04741 6.58579 17.0292
O 9.47656 5.01606 17.0047
C 9.81996 7.77291 15.8337
H 9.17016 8.6325 15.6734
H 10.8341 7.94791 16.357
H 10.0489 7.38549 14.8249
C 7.19594 7.00489 16.6166
H 6.53463 6.16523 16.7877
H 6.76359 7.85162 17.2004
H 7.03752 7.2403 15.5534
Si 9.08151 3.42113 17.5655
C 8.50556 3.31275 0.86028
H 7.55708 2.77844 0.976955
H 9.25544 2.67728 1.36447
H 8.52732 4.27492 1.36613
C 10.2839 2.12537 17.1152
H 10.7989 2.34994 16.1833
H 11.1025 2.07919 17.8072
H 9.795 1.10823 17.0286
Si 18.804 8.60848 0.922814
O 17.5321 8.7105 1.9385
C 20.496 8.11397 1.614
H 0.807522 8.34374 0.721218
H 20.7272 8.89042 2.42463
H 20.7547 7.08575 1.95423
C 18.6045 7.54374 17.8309
H 18.9525 6.53771 18.1312
H 17.6364 7.45169 17.3344
H 19.3501 7.83627 16.9974
Si 16.1132 7.76542 2.08055
O 16.5521 6.32661 1.49211
C 15.515 7.69391 3.83084
H 16.2936 8.20898 4.38656
H 14.6448 8.34673 3.93649
H 15.262 6.72783 4.33987
C 15.0135 8.29054 19.257
H 14.4743 7.39292 18.8681
H 14.3252 9.12722 1.03793
H 15.7822 8.59618 18.5228
Si 16.1291 4.76962 1.45989
O 14.4738 4.64438 1.49387
C 16.7361 3.86176 18.4749
H 16.7984 2.78057 18.6415
H 15.96 4.07879 17.705
H 17.6834 4.22263 17.9935
C 16.6518 4.23736 3.13648
H 17.7643 4.21602 3.22479
H 16.1538 4.96694 3.7544
H 16.3101 3.24493 3.4541
Si 13.1941 3.8539 0.972597
O 12.3916 3.03031 2.13681
C 11.8052 5.12484 18.9935
H 11.3553 4.92196 18.024
H 11.1013 4.8589 1.28495
C 13.7409 2.90093 17.9436
H 14.6569 2.34389 18.1008
H 12.9892 2.14857 17.6088
H 13.946 3.61393 17.1182
Si 12.3065 2.5628 3.73071
O 12.9402 1.00866 3.95478
C 10.5719 2.68409 4.20986
H 9.98383 2.94481 3.32796
H 10.1884 1.74858 4.62612
H 10.3265 3.46356 5.0072
C 13.3494 3.89946 4.59049
H 13.349 4.05517 5.71915
H 14.3918 3.84944 4.36856
H 13.0107 4.86716 4.14581
Si 14.5047 1.24642 4.44725
C 15.5312 17.7971 3.37492
H 15.2878 18.0074 2.31761
H 16.628 17.9564 3.44272
H 15.2942 16.7568 3.62401
C 14.8536 1.14455 6.26711
H 14.2919 17.8477 6.54838
H 15.9381 0.89404 6.19034
H 14.6686 2.04403 6.95278
Si 3.32935 14.6 5.47205
O 4.6366 14.0442 6.31959
C 2.94404 16.3943 5.75004
H 1.87257 16.7235 5.73324
H 3.12131 16.3759 6.82379
H 3.48029 17.321 5.38201
C 2.03616 13.535 6.15817
H 2.02413 13.7655 7.22909
H 1.0965 13.8635 5.64125
H 2.35927 12.5036 6.00171
Si 5.97386 14.5309 7.19727
O 5.95004 13.9449 8.69153
C 6.42048 16.2877 7.17858
H 6.0165 16.958 7.97461
H 7.54472 16.2963 7.3102
H 6.25586 16.7787 6.22658
C 7.2723 13.502 6.20224
H 6.77538 12.602 5.84349
H 7.24395 14.135 5.27911
H 8.23351 13.3935 6.66397
Si 5.95373 12.642 9.67952
O 5.00589 11.5387 8.80444
C 5.29384 12.8785 11.4219
H 6.20591 13.0472 12.0114
H 4.51928 13.6015 11.6701
H 5.04592 11.8402 11.6786
C 7.73752 12.0442 9.89702
H 8.19515 11.9116 8.91869
H 8.31333 12.8153 10.3785
H 7.85394 11.1323 10.4812
Si 4.73706 10.1917 7.90503
O 6.29892 9.6152 7.79002
C 3.80699 8.93897 8.85247
H 2.93564 9.19662 9.49644
H 3.41188 8.02239 8.29227
H 4.46048 8.59355 9.58794
C 4.38494 10.7608 6.25436
H 3.71938 10.0561 5.72213
H 3.89038 11.7681 6.15582
H 5.29716 10.8944 5.66054
Si 7.48544 8.67093 7.24536
O 8.38434 8.07051 8.40636
C 6.87369 7.06992 6.3689
H 5.8205 7.25377 6.23774
H 7.34861 6.80705 5.4201
H 7.1376 6.25372 7.08072
C 8.51857 9.77133 6.20342
H 7.91485 10.685 6.09869
H 9.37803 9.99115 6.76766
H 8.7914 9.40415 5.1651
Si 9.50678 7.15576 9.10141
C 9.48179 5.56932 8.13748
H 9.29757 5.76921 7.07776
H 10.4768 5.09974 8.0779
H 8.68346 4.97506 8.56447
C 11.1762 8.06401 8.82491
H 11.323 8.92254 9.54288
H 11.072 8.5897 7.91082
Si 13.5006 18.2908 10.9703
O 13.736 17.4764 9.46874
C 14.6852 2.02424 11.3061
H 14.4992 2.13759 12.4064
H 15.7429 1.80765 11.2605
H 14.3616 3.0002 10.9429
C 13.9346 17.1663 12.4051
H 13.4477 16.1976 12.4873
H 14.9847 16.9261 12.306
H 13.7894 17.8253 13.301
Si 12.5552 16.7384 8.50376
O 13.2937 15.9524 7.23644
C 11.453 15.5769 9.32764
H 11.0561 14.8633 8.56494
H 12.0836 14.9054 9.93547
H 10.6593 16.0965 9.87106
C 12.0033 18.3177 7.4685
H 12.1014 18.1337 6.43652
H 10.9769 1.02928 7.62366
H 12.8091 1.40225 7.67747
Si 13.9165 14.5416 6.53298
O 13.241 13.4242 7.58197
C 15.757 14.7102 6.66379
H 16.4443 13.9564 6.20693
H 16.0132 15.661 6.18286
H 16.0677 14.832 7.72401
C 13.337 14.3736 4.73625
H 12.9059 13.3829 4.45359
H 12.7827 15.1868 4.29773
H 14.3118 14.3984 4.17175
Si 12.8791 11.7891 7.8178
O 13.9097 10.91 8.80557
C 12.729 10.7138 6.3155
H 11.7233 10.6814 5.89336
H 13.3936 10.8179 5.47786
H 12.943 9.65342 6.69657
C 11.3118 11.9114 8.85809
H 11.4541 12.2174 9.93324
H 10.6634 12.6338 8.16394
H 10.73 10.9908 8.92081
Si 14.614 10.1516 10.1172
O 15.0665 8.50472 9.68072
C 13.1767 9.66802 11.2455
H 12.6821 8.70909 11.0135
H 13.5833 9.48128 12.2291
H 12.3512 10.3718 11.3695
C 16.0668 11.1175 10.6378
H 16.9796 10.8307 10.1067
H 15.7367 12.1334 10.3594
H 16.3184 11.116 11.6686
Si 14.0253 7.23933 9.3423
C 12.2962 7.02137 8.60963
H 12.2277 6.01623 9.1941
H 12.3928 6.72216 7.5887
C 14.4759 5.69739 10.3496
H 14.5453 5.88081 11.4039
H 13.8875 4.7725 9.98569
H 15.4674 5.32845 9.96725
Si 18.4289 10.9259 4.95952
O 18.7332 9.35349 4.93281
C 17.7001 11.4689 3.27299
H 18.4937 11.6649 2.59375
H 16.9907 10.6956 2.87253
H 17.1395 12.3347 3.4348
C 18.8313 12.0414 6.37513
H 17.934 12.6084 6.70171
H 19.3241 11.4681 7.17623
H 19.5543 12.8197 6.02486
Si 19.2942 8.19198 6.05074
O 17.8111 7.27547 6.14442
C 20.617 7.36778 5.0229
H 1.03611 6.87226 5.58908
H 20.238 6.61289 4.33816
H 21.0718 8.26421 4.48414
C 19.7753 9.02212 7.64607
H 20.4981 8.41931 8.27678
H 20.44 9.90769 7.4113
H 18.9582 9.38987 8.26217
Si 17.2257 6.25342 7.32632
O 17.9963 4.85066 7.21432
C 17.7281 6.84354 9.07323
H 17.169 7.75427 9.42499
H 17.5437 5.99304 9.80016
H 18.7819 7.09804 9.0907
C 15.4199 6.55618 7.00064
H 15.1863 7.55073 6.69659
H 15.0265 5.85797 6.26674
H 14.7774 6.09342 7.83572
Si 18.6394 3.36082 7.39278
O 20.1534 3.47808 8.11211
C 17.2631 2.49529 8.44238
H 16.7868 1.78825 7.73317
H 17.7243 1.95809 9.27295
H 16.5066 3.16192 8.87357
C 18.8711 2.2371 5.86161
H 19.9466 2.33502 5.58331
H 18.6261 1.19191 6.01319
H 18.4015 2.53228 4.93609
Si 1.44408 3.66067 8.20691
O 1.59157 3.19007 9.83693
C 2.15367 2.17459 7.11252
H 3.22129 1.99617 7.33498
H 1.63485 1.21914 7.29671
H 2.09724 2.26104 6.00447
C 1.97042 5.31822 7.56877
H 2.17271 5.36415 6.4967
H 1.05499 5.91327 7.73731
H 2.86731 5.80749 7.93188
Si 21.1586 2.51332 11.0999
C 19.3818 3.04385 11.5635
H 19.1363 2.39256 12.4175
H 19.096 4.06255 11.752
H 18.867 2.79847 10.6165
C 1.16803 18.2977 11.1087
H 21.0379 17.7329 11.9369
H 0.965853 17.7986 10.0896
H 2.26362 18.1659 11.2514
Si 2.33161 12.0071 13.4083
O 0.855451 11.1025 13.2024
C 3.18562 11.2027 14.8876
H 3.15351 11.9815 15.6614
H 2.76527 10.2668 15.2545
H 4.2786 11.0737 14.8129
C 1.86607 13.7548 14.2577
H 2.07871 14.7089 13.7195
H 21.1802 13.6972 14.5929
H 2.53771 13.9915 15.1363
Si 20.7469 10.2653 11.8116
O 1.08821 8.73444 11.9038
C 0.947236 11.1837 10.2803
H 0.725305 12.2512 10.39
H 2.0442 10.9932 10.1936
H 20.8249 10.8963 9.33643
C 18.8678 9.98699 11.5888
H 18.4733 9.01091 11.4988
H 18.5196 10.4892 12.5062
H 18.4802 10.565 10.8109
Si 1.92382 7.62017 12.833
O 1.10407 7.13073 14.122
C 3.595 8.37434 13.3134
H 3.6353 8.42785 14.3946
H 4.2819 7.58295 13.0315
H 3.80544 9.38784 12.9916
C 1.89121 6.07465 11.6774
H 1.93175 6.65931 10.7439
H 2.78396 5.44364 11.6668
H 0.920723 5.62026 11.7726
Si 1.29316 6.09077 15.4316
O 2.68049 5.16089 15.3857
C 20.1455 4.90624 15.2014
H 19.9188 4.53772 16.254
H 19.2812 5.47926 14.8415
H 20.4101 4.08732 14.4635
C 1.43872 7.1581 16.9998
H 0.86399 8.0926 17.0386
H 1.30764 6.43269 17.8332
H 2.47784 7.52024 16.9502
Si 3.5757 3.98918 14.694
O 4.4762 4.83132 13.5289
C 4.64329 3.37115 15.932
H 5.63723 3.33827 15.4731
H 4.6111 4.06907 16.8139
H 4.31351 2.35965 16.1591
C 2.98872 2.41184 13.6625
H 2.20589 1.83193 14.1169
H 2.68048 2.60529 12.6288
H 3.69348 1.59511 13.5733
Si 5.71465 3.94492 12.6945
C 5.2843 3.73928 10.8243
H 4.21145 3.83783 10.7246
H 5.91476 4.54308 10.3292
H 5.60195 2.74422 10.4366
C 7.47759 4.4837 12.6231
H 8.28606 3.8674 12.1935
H 7.82762 4.44955 13.65
Si 5.47915 16.1813 11.8178
O 5.37832 15.9587 13.4346
C 6.14634 17.8798 11.6833
H 7.13693 17.8526 11.1822
H 5.59733 1.04427 11.1623
H 6.37074 18.1782 12.7176
C 4.12614 15.6805 10.6244
H 3.94446 14.6063 10.2546
H 3.27067 16.2114 11.1477
H 4.11304 16.2244 9.68447
Si 6.47701 15.5762 14.6317
O 7.67491 14.536 14.0264
C 7.46217 17.0135 15.1035
H 7.99824 17.2428 14.1941
H 6.86973 17.8951 15.3546
H 8.14949 16.6937 15.886
C 5.41293 14.4429 15.7034
H 5.68113 14.2737 16.7861
H 4.47321 14.9609 15.6976
H 5.21028 13.4687 15.2075
Si 9.29722 14.7378 13.8409
O 9.99216 13.341 13.2438
C 10.2683 15.0691 15.4057
H 11.2995 15.04 15.1096
H 10.0355 16.0759 15.7636
H 10.0655 14.2637 16.1582
C 9.42779 16.1547 12.6586
H 10.267 16.1363 11.9293
H 8.53563 16.2155 12.0652
H 9.59684 17.1039 13.1691
Si 10.4223 11.8525 13.7637
O 10.1551 10.8477 12.3915
C 9.45209 11.4517 15.354
H 8.95265 12.4023 15.6336
H 8.7188 10.699 15.2667
H 10.2501 11.1735 16.0558
C 12.3296 11.844 13.8086
H 12.6849 10.9285 14.282
H 12.6088 11.7051 12.7375
Si 9.0877 9.65673 12.7486
O 9.5244 8.16339 12.2985
C 7.13665 9.9488 12.9068
H 6.59923 10.3519 12.0198
H 6.69235 9.00825 13.2146
H 6.85638 10.6572 13.7364
C 7.84488 3.03486 16.2
H 7.3059 3.95108 16.0123
H 7.19849 2.21733 16.1433
H 8.4317 2.97877 15.2572
Si 9.11718 6.76439 11.4119
C 7.51612 6.0688 12.2674
H 6.72568 6.35625 11.571
H 7.2907 6.64554 13.1538
C 10.5946 5.68787 11.9819
H 10.9855 5.11099 11.1351
H 11.3816 6.36041 12.3544
H 10.3392 4.89099 12.705
Si 19.5958 16.4198 15.7122
O 18.0413 16.7725 16.3211
C 20.6716 17.9986 15.8433
H 0.94179 18.1373 16.731
H 1.03644 17.8576 14.9892
H 19.9915 1.23765 15.6299
C 19.3748 16.2216 13.8697
H 19.3014 15.1882 13.5433
H 18.4834 16.7581 13.5181
H 20.2595 16.7612 13.4704
Si 16.4529 16.7815 16.8845
O 15.4391 15.35 16.8749
C 16.8534 17.2444 18.7196
H 16.148 16.9723 0.987785
H 17.8236 16.7501 18.9928
H 17.0532 18.2719 18.91
C 15.5552 17.7706 15.7046
H 14.448 17.8607 15.8661
H 15.9612 1.15413 15.8436
H 15.808 17.4619 14.6584
Si 15.8303 13.7833 17.3705
O 15.0172 12.8506 16.247
C 17.6927 13.556 17.102
H 18.2415 13.9408 17.9904
H 18.0273 12.5155 17.0017
H 18.0681 14.1951 16.2556
C 15.3186 13.6003 19.1033
H 14.5937 12.7524 0.900974
H 16.2147 13.4877 1.26119
H 14.837 14.4421 1.08685
Si 14.9857 13.0161 14.6831
O 15.6542 11.4752 14.309
C 13.1366 13.0771 14.4607
H 12.864 13.1854 15.5406
H 12.8016 14.0651 14.1469
C 15.9331 14.3599 13.6566
H 17.0249 14.1273 13.5401
H 15.4842 14.108 12.685
H 15.8304 15.3974 13.9348
Si 16.3656 10.0031 14.5254
O 15.9066 8.82578 13.4497
C 18.1126 10.154 15.2363
H 18.0999 10.6888 16.2064
H 18.6241 9.16043 15.3128
H 18.8083 10.6338 14.5788
C 14.9679 9.20915 16.1042
H 15.0757 8.4432 16.9147
H 15.8595 9.75789 16.4394
H 14.1621 9.92739 16.2245
Si 15.0947 7.8343 14.6721
C 13.4478 7.05502 14.101
H 13.5883 6.29053 13.3277
H 13.013 6.59444 14.9444
H 12.7874 7.79685 13.6146
C 16.2261 6.44664 15.0265
H 16.2204 6.28805 16.1026
H 15.8365 5.59278 14.4111
H 17.1908 6.70502 14.4806
523
 Atoms. Timestep: 3000
Si 2.53718 14.0206 3.08983
O 2.44723 12.4639 2.62977
C 1.29524 15.1764 2.05341
H 20.6449 16.0055 2.64056
H 1.93672 15.614 1.28999
H 20.2874 14.7012 1.44669
C 4.40922 14.6072 2.90515
H 4.63596 14.4702 1.82768
H 4.46394 15.7121 3.25247
H 4.84646 13.8336 3.5121
Si 1.96462 10.8756 2.80995
O 3.17832 9.83959 2.75453
C 20.5948 10.8914 1.33244
H 1.1702 10.9467 18.3222
H 19.8608 10.1136 1.27252
H 19.9373 11.8152 1.43514
C 20.5377 10.5744 4.21033
H 20.0691 11.5488 4.60974
H 19.6482 10.0059 3.82604
H 1.22898 10.0551 5.06038
Si 4.50971 9.17138 2.07664
O 4.15417 7.59544 2.21241
C 5.85365 10.0082 3.12791
H 6.15638 9.7605 4.14118
H 6.80428 9.98336 2.5893
H 5.51227 11.0431 3.17688
C 4.79191 9.69757 18.2898
H 5.85048 9.60177 18.1906
H 4.40361 8.93831 17.5924
H 4.53657 10.6916 18.0094
Si 4.74719 6.22802 2.8032
O 3.64918 5.17988 2.07354
C 5.18002 6.65334 4.61783
H 5.72077 5.77653 5.06985
H 5.76998 7.53928 4.86072
H 4.22585 6.75893 5.14614
C 6.30808 5.49518 1.95269
H 6.19907 5.91497 18.9472
H 7.29842 5.5778 2.39852
H 6.19121 4.42162 1.78586
Si 3.71575 3.56062 1.79235
O 4.57168 2.98098 18.5146
C 1.94812 2.91927 1.61979
H 1.23779 3.1956 2.43909
H 1.51753 3.26314 18.6705
H 2.1293 1.8237 1.55332
C 4.45145 2.79717 3.38841
H 3.85437 3.26856 4.22297
H 4.41793 1.72504 3.4071
H 5.52519 2.96491 3.56383
Si 5.24465 1.94039 17.495
C 4.27877 17.5668 18.0578
H 3.84087 17.9612 18.9607
H 3.50537 17.4035 17.2877
H 4.58081 16.5214 18.3809
C 7.08728 2.04009 17.9952
H 7.38681 3.09376 17.8478
H 7.16447 1.90129 1.15433
H 7.8154 1.31848 17.5253
Si 10.9095 14.2811 1.28326
O 9.36394 13.867 1.33281
C 11.5611 13.7813 3.03934
H 12.6296 13.6272 2.9995
H 11.3654 14.4839 3.85346
H 11.1651 12.8194 3.33545
C 11.4546 16.0388 18.7794
H 11.8142 16.2132 17.7792
H 10.6351 16.7368 18.9869
H 12.3564 16.1602 1.39322
Si 8.62955 12.3647 1.56448
O 9.697 11.2111 1.36418
C 7.15612 12.0814 18.4352
H 6.32442 11.8521 1.19429
H 6.95738 12.9506 17.8276
H 7.39923 11.2716 17.7345
C 8.00126 12.8572 3.2302
H 8.31608 12.3342 4.10102
H 8.18472 13.908 3.39845
H 6.90407 12.6638 3.28302
Si 11.0335 10.1152 1.39039
O 10.257 8.7512 1.17923
C 11.5691 9.9649 3.2511
H 11.523 10.8978 3.85764
H 10.9761 9.23391 3.81983
H 12.6436 9.55783 3.23477
C 12.3567 10.6768 18.2221
H 13.028 11.4079 18.7788
H 12.9335 9.71209 17.9716
H 11.924 11.0915 17.2791
Si 10.3764 7.08915 1.54777
O 9.44 6.63586 18.1502
C 9.55061 6.887 3.25114
H 9.6368 5.7691 3.4358
H 10.1127 7.2673 4.10546
H 8.46742 7.20705 3.25719
C 12.0466 6.40688 1.2531
H 12.563 7.09046 18.4582
H 12.6535 6.40235 2.23553
Si 9.4721 6.92076 16.5299
O 9.74982 5.36975 15.8218
C 10.9216 7.92299 16.0245
H 11.0891 8.75504 16.7954
H 11.883 7.31775 16.2263
H 10.8878 8.57062 15.1016
C 7.89804 7.80102 16.1126
H 7.04172 7.33477 16.5578
H 7.96154 8.82482 16.5141
H 7.79605 7.89927 15.023
Si 10.4914 3.98075 15.3818
C 10.5271 2.52113 16.5826
H 9.71954 2.63726 17.3162
H 10.5543 1.51288 16.1601
H 11.4354 2.61384 17.1688
C 12.2551 4.42161 14.852
H 13.0861 4.38513 15.5423
H 12.4032 3.7612 13.9746
H 12.1305 5.41029 14.4229
Si 18.3335 7.7785 18.9957
O 17.4114 7.19115 2.36031
C 20.1097 7.44604 1.30448
H 20.86 7.94371 18.683
H 20.4627 7.82637 2.28418
H 20.3092 6.36237 1.24366
C 17.8713 7.23736 17.2638
H 18.0139 6.11877 17.2146
H 16.8326 7.38771 16.9728
H 18.572 7.88638 16.688
Si 15.6857 7.07914 2.27919
O 15.3977 6.08323 18.9576
C 14.8995 6.83501 3.9522
H 13.8307 6.44418 3.92953
H 15.493 6.1402 4.63406
H 14.9108 7.80598 4.47637
C 15.3435 8.88842 1.74724
H 15.7378 9.06972 18.7355
H 14.2304 9.00708 1.61895
H 15.752 9.54202 2.54649
Si 15.4233 4.53569 18.2984
O 14.2441 3.54565 18.8911
C 15.3494 4.56055 16.4269
H 15.5143 3.50198 16.0847
H 14.4892 4.96659 15.8824
H 16.2287 5.11171 16.0378
C 17.0931 3.95477 18.7873
H 17.7624 3.94989 17.9336
H 17.4606 4.65304 1.5622
H 17.1464 2.97066 1.25606
Si 12.781 3.67273 1.77
O 12.954 4.17942 3.31955
C 11.9023 4.99353 18.7679
H 12.3868 4.89259 17.7904
H 10.8615 4.6709 18.5971
C 12.0605 2.05461 1.87809
H 11.8436 1.64932 18.8584
H 12.7024 1.30641 2.34946
H 11.2178 1.99763 2.53857
Si 12.3525 3.80265 4.80969
O 13.3838 2.60246 5.30753
C 10.4927 3.44138 4.66476
H 9.85372 4.11439 5.2276
H 10.2465 3.75128 3.61269
H 10.1174 2.44251 4.87945
C 12.6321 4.96317 6.16426
H 12.4404 4.34487 7.05786
H 13.6081 5.30445 6.23592
H 12.0727 5.92756 6.23735
Si 14.9437 2.67965 5.9577
C 16.0954 1.7256 4.86676
H 15.7747 2.05844 3.88042
H 17.1129 2.11819 5.08917
H 16.1707 17.8016 4.90523
C 14.789 2.596 7.79601
H 13.7242 2.29321 8.17132
H 15.4976 1.77048 8.07069
H 14.9478 3.52555 8.40577
Si 2.35896 14.5213 5.27784
O 3.67989 13.914 6.23855
C 2.38955 16.314 5.1966
H 1.37064 16.7552 5.01169
H 2.67408 16.5935 6.18641
H 2.94335 16.795 4.24367
C 20.5769 13.9885 6.28137
H 19.7253 14.4785 5.79992
H 20.3003 13.0274 5.79743
H 20.5695 14.1147 7.31221
Si 5.21312 14.2908 6.90082
O 5.33369 13.8172 8.53324
C 5.33224 16.1871 6.78813
H 5.04853 16.6402 7.73082
H 6.34157 16.6425 6.54685
H 4.59608 16.6365 6.10035
C 6.72763 13.4738 5.98191
H 6.44697 13.0008 5.02956
H 7.55036 14.1663 5.79974
H 7.09886 12.6666 6.63084
Si 6.09676 12.7628 9.46737
O 6.37283 11.1695 8.93865
C 5.10325 12.5958 11.0733
H 4.41216 13.4026 11.2707
H 4.51557 11.6556 10.9935
H 5.75845 12.3502 11.9304
C 7.79843 13.3072 9.8123
H 8.31833 12.5129 10.3963
H 8.4237 13.4403 8.90393
H 7.80831 14.3053 10.3804
Si 5.75627 9.87605 7.99547
O 6.94091 8.91964 7.50193
C 4.97579 8.81277 9.28524
H 3.91539 8.71429 9.33509
H 5.39118 7.80041 9.39364
H 5.19175 9.1032 10.2964
C 4.90648 10.2724 6.40446
H 4.17196 11.1211 6.38214
H 5.76662 10.7487 5.88791
H 4.51459 9.47701 5.7183
Si 8.4301 8.63395 6.95845
O 9.44904 8.53035 8.26378
C 8.15154 6.92004 6.34085
H 7.44783 6.77055 5.55182
H 9.07448 6.38773 6.2435
H 7.61726 6.57663 7.25455
C 9.15471 9.8143 5.75539
H 8.95461 10.7489 6.24209
H 10.2208 9.61407 5.68733
H 8.84733 9.82444 4.68855
Si 10.0335 7.62877 9.57087
C 10.1609 5.69439 9.21844
H 11.1925 5.52687 8.93307
H 9.9037 5.06491 10.1134
H 9.47107 5.29284 8.44449
C 11.8751 8.14344 9.95032
H 11.8144 8.1311 11.0682
H 11.9962 9.23395 9.75752
Si 12.2558 1.11557 10.887
O 11.7775 17.2812 9.72932
C 11.9912 2.97436 10.6602
H 12.1758 3.13323 9.55505
H 10.9106 3.20854 10.7625
H 12.7265 3.59358 11.2141
C 13.7838 17.7536 11.7612
H 13.895 0.995497 12.7311
H 13.7496 16.6652 11.7537
H 14.6548 17.884 11.0582
Si 11.2734 16.7126 8.24582
O 12.3675 15.5889 7.71444
C 9.60939 15.8657 8.26563
H 8.97861 16.5408 8.88978
H 9.14847 15.6957 7.35399
H 9.81906 14.8694 8.74042
C 11.3825 18.0829 7.02475
H 10.9755 17.6643 6.06435
H 10.603 1.74729 7.37012
H 12.2698 1.44557 6.89052
Si 13.9655 15.2663 7.81796
O 14.0598 13.8361 7.03339
C 14.4999 14.8787 9.60271
H 14.8093 13.8905 9.89422
H 15.1111 15.6824 10.0394
H 13.5879 15.0032 10.2476
C 15.0852 16.4279 6.99702
H 16.1469 15.9806 6.9681
H 14.8382 16.5885 5.97533
H 15.2094 17.3099 7.57202
Si 13.946 12.2011 7.12003
O 14.905 11.4115 8.26455
C 14.1583 11.4858 5.39178
H 13.2868 10.9776 4.98445
H 14.4862 12.2674 4.77999
H 14.9216 10.7194 5.30169
C 12.111 12.2251 7.58987
H 12.0176 13.0199 8.35732
H 11.624 12.7659 6.68843
H 11.5788 11.2822 7.76113
Si 14.9184 11.2097 10.0296
O 14.9038 9.52127 9.98329
C 13.4221 11.995 10.9127
H 13.4067 13.0896 10.903
H 12.4453 11.7826 10.4337
H 13.4828 11.6953 11.9722
C 16.3424 12.2153 10.5571
H 16.0986 13.2256 10.2367
H 16.5175 12.1512 11.641
H 17.2368 11.9145 9.93466
Si 14.8051 7.89302 10.2319
C 13.1683 7.35862 9.64738
H 13.2387 6.24108 9.85621
H 13.2245 7.31543 8.60141
C 16.1474 6.91718 9.54019
H 17.0662 7.44578 9.24772
H 16.3388 5.98121 10.2239
H 15.786 6.46977 8.56371
Si 18.964 9.10426 6.708
O 19.696 7.63852 7.27342
C 17.045 8.98672 6.63967
H 16.5404 9.68151 6.05014
H 16.8205 7.98253 6.2761
H 16.6347 9.19973 7.67777
C 19.5528 10.506 7.70257
H 19.0721 11.4485 7.38453
H 19.2293 10.2946 8.74421
H 20.6523 10.6586 7.62324
Si 20.7285 6.70235 6.34234
O 20.3748 5.12136 6.78639
C 20.4072 6.91167 4.50577
H 1.36604 6.34216 3.95009
H 19.3672 6.67258 4.28483
H 20.5159 7.95922 4.1059
C 2.62117 7.00468 7.18748
H 3.1727 7.9157 6.80105
H 2.52262 7.18763 8.2734
H 3.32442 6.22079 7.07104
Si 18.9474 4.48205 7.32434
O 19.1182 2.82525 6.93185
C 18.8099 5.08112 9.02413
H 18.7013 6.21448 9.00386
H 17.9239 4.64306 9.39672
H 19.6394 4.82601 9.70615
C 17.591 5.11932 6.13729
H 18.0233 5.14753 5.15161
H 16.7101 4.46276 6.12368
H 17.2272 6.11206 6.35756
Si 19.6539 1.35679 6.43286
O 1.14218 17.9623 7.34172
C 18.5981 16.9509 6.77041
H 18.2328 17.0972 7.79385
H 17.8553 16.5886 6.04287
H 19.3582 16.1609 6.95461
C 19.9262 1.61419 4.58292
H 19.4785 18.0567 3.9321
H 19.367 2.53216 4.38124
H 1.14828 1.70317 4.1644
Si 2.15985 18.0649 8.56453
O 1.1097 1.92282 9.50393
C 2.33457 16.3705 9.47306
H 1.56178 16.2184 10.2583
H 2.33558 15.5309 8.76377
H 3.24206 16.4257 10.1294
C 3.63604 1.66667 7.7511
H 4.60007 1.57768 8.28753
H 3.80979 1.11526 6.79298
H 3.32179 2.6517 7.38232
Si 19.7326 1.62964 10.6711
C 17.9876 18.0943 10.471
H 17.4571 1.15943 9.55466
H 18.1284 16.9766 10.5262
H 17.345 1.17142 11.3094
C 19.7672 2.89024 12.0082
H 20.6727 3.23594 12.5407
H 19.1524 3.70536 11.5485
H 19.0168 2.60126 12.7878
Si 2.80457 13.3624 15.0664
O 2.2138 13.1267 13.5853
C 4.07286 12.2055 15.4934
H 3.64852 11.5176 16.2326
H 4.32206 11.6041 14.6069
H 4.98013 12.6211 15.9369
C 1.77399 14.1257 16.4398
H 2.38162 14.6495 17.1484
H 20.6539 14.6688 16.1021
H 1.31012 13.2628 17.0331
Si 20.5092 12.3167 13.3084
O 20.5409 10.6446 13.5844
C 20.111 12.6267 11.5642
H 19.9544 13.6611 11.2388
H 20.8626 12.2236 10.8549
H 19.1651 12.0729 11.5064
C 19.0527 12.7771 14.3394
H 19.239 12.4398 15.3336
H 18.9926 13.8364 14.3687
H 18.1423 12.3227 13.9652
Si 1.29445 9.1462 13.1713
O 20.8337 8.099 14.4393
C 3.10545 9.35686 12.7337
H 3.06341 10.0385 11.8558
H 3.66086 9.97607 13.4468
H 3.7155 8.44851 12.4001
C 19.9808 8.53215 11.7359
H 19.571 9.24444 11.0444
H 20.3616 7.63494 11.1603
H 19.2399 7.93826 12.2599
Si 1.57733 6.59597 14.9649
O 2.75854 6.29733 13.9224
C 19.7345 5.5402 14.7729
H 19.0675 6.21869 15.3708
H 19.3857 5.40639 13.7459
H 19.8912 4.58529 15.2993
C 2.35736 6.70351 16.6565
H 1.99112 6.07236 17.506
H 3.46368 6.71002 16.4699
H 2.10008 7.72807 16.936
Si 3.75418 5.0341 14.4951
O 4.34792 4.57076 12.9574
C 5.25947 5.7553 15.3504
H 5.16365 6.8728 15.3117
H 5.49594 5.23632 16.3509
H 6.14355 5.47937 14.6965
C 3.1416 3.49039 15.0327
H 3.95534 2.81567 14.9491
H 2.58076 3.25621 15.9683
H 2.44913 3.04795 14.3263
Si 4.71815 5.54214 11.678
C 3.43551 5.48646 10.3353
H 3.23148 6.41162 9.87165
H 3.53271 4.76522 9.50292
H 2.62502 5.12211 11.0022
C 5.82595 6.93625 12.0369
H 5.86814 6.8019 13.1162
H 5.47765 7.97254 11.8979
Si 4.62762 16.2456 11.9958
O 5.96759 16.1779 12.9123
C 4.88444 17.7602 11.0312
H 5.78899 17.6445 10.3799
H 4.00609 0.953514 10.4614
H 5.16954 1.41549 11.7328
C 3.07427 16.3541 13.0365
H 3.13814 16.4083 14.1286
H 2.549 17.2779 12.6326
H 2.58181 15.3957 12.9884
Si 6.5478 16.2059 14.4763
O 7.89797 15.2247 14.4454
C 7.0307 18.0624 14.5981
H 7.31095 1.21897 15.605
H 7.79348 1.17387 13.8332
H 6.07978 1.28767 14.1973
C 5.4693 15.3171 15.6601
H 6.21656 14.7184 16.2223
H 5.01096 15.9772 16.4483
H 4.80674 14.5927 15.1836
Si 9.38459 15.2731 13.7652
O 9.68407 13.7161 13.2301
C 10.4226 16.0251 15.1545
H 11.4056 15.7175 15.4673
H 10.502 17.098 14.9545
H 9.60856 15.9538 15.951
C 9.7564 16.3205 12.2806
H 10.7583 15.9936 11.963
H 9.11792 16.2222 11.4503
H 9.80182 17.4127 12.4236
Si 9.55695 12.2281 13.9599
O 8.83269 11.2294 12.9073
C 8.59884 12.3929 15.5516
H 8.74542 11.5823 16.2318
H 8.64199 13.3822 16.0339
H 7.52549 12.3647 15.3195
C 11.3725 11.5804 14.1404
H 11.42 10.5641 14.6385
H 11.843 11.4124 13.2067
Si 7.98776 9.85762 13.1182
O 8.24598 9.16205 11.5643
C 6.34893 9.98409 14.0501
H 6.42118 10.5555 15.0144
H 5.61432 10.4156 13.3971
H 6.09242 8.97542 14.3464
C 9.89523 3.04883 13.8118
H 8.83985 2.83507 13.8712
H 10.5024 2.14873 13.978
H 10.0565 3.4541 12.8351
Si 8.73043 7.66069 11.5445
C 7.11354 6.61234 11.2926
H 7.37703 5.52684 11.4305
H 7.08846 6.56099 10.1412
C 10.0394 7.14139 12.832
H 10.9409 7.13861 12.1877
H 10.4126 7.84907 13.5583
H 10.0398 6.05128 13.1416
Si 18.8588 16.6231 15.5689
O 17.2758 16.7934 16.2397
C 19.793 1.04774 16.0248
H 19.6722 1.34821 17.0758
H 20.8442 1.07275 15.7337
H 19.4452 1.82948 15.3853
C 18.5113 16.3477 13.7778
H 18.1684 15.3438 13.508
H 17.6703 17.0084 13.5424
H 19.4178 16.5213 13.1703
Si 16.4614 16.3871 17.6756
O 16.5295 14.767 17.658
C 17.0185 16.9987 1.33045
H 17.9413 16.5356 1.67306
H 17.2139 0.939649 1.36879
H 16.261 16.812 2.07822
C 14.6861 16.6737 17.5997
H 14.2353 17.5805 17.1804
H 14.4298 15.7906 16.9796
H 14.1934 16.5489 18.5849
Si 15.8516 13.2822 17.7643
O 14.9971 12.725 16.403
C 17.1506 12.0584 18.0599
H 17.5608 12.2383 1.13011
H 16.9126 11.0258 18.0776
H 18.0085 12.216 17.356
C 14.8667 13.3781 1.39023
H 13.7149 13.2714 1.42301
H 15.1607 12.4858 2.00264
H 15.0302 14.2169 2.06084
Si 14.2343 12.7679 14.8815
O 15.0282 11.5071 14.0177
C 12.3924 12.5177 14.8955
H 12.1065 12.3752 15.9425
H 12.2094 13.5956 14.669
C 14.6059 14.4191 14.1489
H 13.8769 15.1976 14.3318
H 15.6207 14.7554 14.3501
H 14.5696 14.1378 13.0836
Si 15.6299 9.93718 14.3852
O 15.3156 9.00056 13.0562
C 17.5404 9.90301 14.6055
H 18.2954 9.64746 13.798
H 17.7109 10.8627 15.1538
H 17.4681 9.12843 15.4775
C 15.2458 9.54398 16.1787
H 16.0638 9.80306 16.8151
H 14.3197 10.0418 16.4556
H 14.7293 8.60396 16.3126
Si 14.9627 7.51546 12.4541
C 13.3219 7.0397 13.2323
H 13.6387 6.51735 14.1383
H 12.6055 7.77756 13.5545
H 12.8158 6.20886 12.7766
C 16.2918 6.39143 12.8243
H 17.1268 6.47154 12.1324
H 16.6247 6.70232 13.83
H 16.1096 5.27749 12.957
523
 Atoms. Timestep: 3500
Si 3.88105 13.4515 3.44117
O 3.46095 11.8442 3.34762
C 3.31111 14.332 1.85881
H 2.44075 14.9261 2.02392
H 4.12726 15.0072 1.57693
H 3.21306 13.4883 18.4794
C 5.68399 13.7456 3.34307
H 5.92315 13.5346 2.30944
H 5.93851 14.8439 3.54096
H 6.48467 13.1582 3.96594
Si 2.65681 10.6071 2.57862
O 3.77907 9.34592 2.55364
C 2.37838 11.0618 18.0992
H 2.36987 10.2608 17.3905
H 1.48082 11.6729 17.7366
H 3.35098 11.563 17.7936
C 20.307 10.005 3.79529
H 1.77281 9.3586 4.53051
H 20.0431 10.8983 4.35863
H 19.4467 9.50101 3.37464
Si 4.8538 8.49822 1.52602
O 4.28012 6.87592 1.7765
C 6.53645 8.43604 2.10906
H 7.04084 7.63143 18.8974
H 7.08499 9.39019 1.95576
H 6.86573 8.18521 3.11141
C 4.72244 8.95109 16.9929
H 5.6651 8.57134 16.6238
H 3.85297 8.49794 16.6494
H 4.73249 10.0206 16.7721
Si 4.70512 5.29159 1.97247
O 3.43038 4.22013 1.65222
C 5.58629 4.80919 3.67973
H 6.52284 4.25725 3.57105
H 5.85895 5.74365 4.20201
H 4.92686 4.22173 4.41929
C 6.04004 4.85901 17.8362
H 6.16423 5.68716 17.0877
H 7.07159 4.7048 18.2348
H 5.74922 3.91917 17.2956
Si 2.75094 2.71908 2.16447
O 4.0662 2.21872 3.09151
C 2.59922 1.62252 18.0619
H 3.35783 1.89772 17.2995
H 2.68145 17.0997 18.2921
H 1.61371 1.95303 17.719
C 20.4973 3.07017 3.35545
H 19.7227 3.87155 3.14871
H 19.8359 2.22621 3.51469
H 1.93786 3.36973 4.26655
Si 5.65772 2.40549 2.69691
C 6.28709 17.6797 1.38924
H 7.3049 17.2168 1.55475
H 5.65033 16.8269 18.5237
H 6.54045 1.73922 17.8655
C 6.77887 2.08473 4.21659
H 6.95944 17.5646 4.35806
H 7.71189 2.61288 4.02736
H 6.35698 2.55779 5.10603
Si 11.0621 14.5856 2.81839
O 9.82623 13.9144 1.82608
C 10.0527 15.8369 3.61166
H 10.1117 16.8228 3.07623
H 8.9895 15.4585 3.59829
H 10.3987 16.1723 4.62014
C 12.5807 15.0774 1.77009
H 13.5509 14.9927 2.31164
H 12.5955 14.3893 18.2101
H 12.4317 16.0471 1.30202
Si 9.30213 12.3081 2.26351
O 10.3746 11.0211 1.97066
C 7.71446 11.9388 1.33321
H 6.94597 11.4609 1.86301
H 7.47209 12.9603 18.3047
H 7.84328 11.2401 17.7814
C 9.12429 12.526 4.09063
H 8.41774 13.3693 4.19648
H 8.82671 11.5798 4.53137
H 9.96912 12.8069 4.66031
Si 11.0786 9.55571 1.48782
O 9.70963 8.53589 1.34403
C 12.5436 9.42963 2.70399
H 12.8228 10.4872 2.67878
H 12.2639 9.09247 3.69235
H 13.364 8.82364 2.29719
C 11.85 9.72082 17.0617
H 11.7032 10.6702 16.6625
H 13.0033 9.64012 17.2165
H 11.5227 9.00097 16.3286
Si 9.93136 6.86422 18.6058
O 9.23993 6.08994 17.3397
C 9.00056 6.1632 2.66026
H 9.24229 6.52264 3.68554
H 7.90457 6.10907 2.48649
H 9.391 5.11109 2.67504
C 11.7536 6.69704 18.5202
H 12.1784 7.61622 17.9696
H 12.0181 6.82723 2.27373
Si 9.49604 6.13891 15.7371
O 10.8702 5.27393 15.2802
C 9.30909 7.80858 14.9586
H 8.68358 8.51968 15.6244
H 10.1883 8.41683 14.6092
H 8.72001 7.78362 14.0623
C 8.08181 5.32707 14.7841
H 8.43449 5.02637 13.782
H 7.59978 4.59055 15.376
H 7.38829 6.12336 14.5126
Si 11.1984 3.48191 14.9751
C 10.3508 2.39437 16.351
H 9.31989 2.6102 16.6664
H 10.3167 1.39706 15.963
H 10.9423 2.49881 17.2902
C 13.0674 3.31401 15.267
H 13.3422 4.28162 15.6352
H 13.325 2.60486 16.0416
H 13.5234 3.04376 14.3278
Si 19.4878 7.72394 1.75796
O 18.4251 7.71981 3.00853
C 20.2418 6.03497 18.618
H 19.5053 5.43978 18.1494
H 1.96198 6.19305 17.8647
H 1.73818 5.5422 2.12835
C 18.8365 9.09355 17.9295
H 17.761 8.79347 17.9819
H 19.0157 10.0559 18.3399
H 19.2124 8.92778 16.874
Si 16.7156 7.88804 3.2188
O 16.1132 6.79645 2.04946
C 16.0666 7.25624 4.92804
H 15.878 6.17538 4.96266
H 16.7639 7.4693 5.83099
H 15.1119 7.79886 5.11864
C 16.0837 9.55933 2.56975
H 16.9481 9.92911 1.99158
H 15.1252 9.49269 2.07728
H 16.0146 10.3191 3.37869
Si 15.8698 5.13379 1.77799
O 14.5585 4.70153 2.57734
C 15.633 4.4405 17.4132
H 15.0041 3.53508 17.5858
H 15.0114 5.03036 16.7166
H 16.4875 4.1016 16.8186
C 17.1698 4.17085 2.64832
H 18.0877 4.19308 2.10126
H 17.4912 4.58096 3.61705
H 16.8083 3.17274 2.85599
Si 13.0122 4.36219 2.12478
O 11.7345 4.46973 3.32592
C 12.377 5.45852 18.0183
H 13.1155 5.87031 17.3195
H 11.8073 4.77246 17.3203
C 13.046 2.59014 1.98153
H 13.1497 2.05893 2.91067
H 12.0452 2.31003 1.66471
H 13.8531 2.16283 18.6654
Si 11.5844 4.65561 4.93455
O 12.3077 3.32264 5.66422
C 9.85317 4.61422 5.65063
H 9.95407 4.34118 6.70708
H 9.58288 5.64879 5.67391
H 9.06311 4.08139 5.15588
C 12.128 6.42554 5.52713
H 11.3842 7.17495 5.20415
H 12.0855 6.35047 6.60592
H 13.1356 6.81241 5.27218
Si 13.7174 2.67378 6.19365
C 14.9473 2.77023 4.803
H 14.3556 2.45301 3.93579
H 15.3442 3.73767 4.65294
H 15.8097 2.11859 5.00511
C 14.0653 3.91924 7.59639
H 14.869 4.57073 7.26393
H 13.1407 4.42289 7.91187
H 14.3941 3.35391 8.54714
Si 3.17825 14.5449 5.35658
O 4.19639 14.7431 6.74537
C 2.89191 16.2732 4.76183
H 3.23831 16.2705 3.6915
H 1.8135 16.3858 4.73821
H 3.43053 17.0733 5.40249
C 1.63071 13.7303 5.88048
H 19.9406 14.0855 5.2206
H 2.01812 12.6644 5.74837
H 1.21506 14.0073 6.88599
Si 5.64744 15.3823 7.33259
O 6.27786 14.3935 8.57344
C 5.07783 17.2456 7.48596
H 5.36105 17.6901 6.49627
H 4.01181 17.3759 7.66517
H 5.63172 1.35165 8.18377
C 7.04357 15.2849 6.07723
H 7.96399 14.8857 6.45635
H 6.65251 14.5571 5.35517
H 7.22964 16.2343 5.64628
Si 6.03352 12.8121 8.8994
O 5.88956 11.8606 7.63167
C 4.69081 12.6317 10.1833
H 3.65394 12.7866 9.85802
H 4.86718 11.5806 10.5624
H 4.97095 13.2978 10.9929
C 7.73454 12.3263 9.62931
H 8.3334 11.9464 8.7717
H 8.2148 13.0654 10.2335
H 7.67144 11.3576 10.1946
Si 5.91007 10.3818 7.04258
O 7.46606 10.2332 6.5138
C 5.74116 8.85196 8.14129
H 6.58877 8.32839 8.53627
H 5.08201 8.82417 9.04889
H 5.17033 8.03886 7.6308
C 4.66672 10.2254 5.58692
H 4.28473 9.1663 5.55037
H 3.81112 10.9315 5.63145
H 5.31908 10.3993 4.72285
Si 8.56128 9.05899 6.66704
O 8.95287 8.86361 8.25173
C 7.75535 7.45712 6.12032
H 6.68939 7.57138 5.93591
H 8.19313 7.10441 5.194
H 7.89737 6.7637 6.93717
C 10.0425 9.38944 5.69029
H 10.0387 9.06127 4.63435
H 10.2598 10.4403 5.48792
H 10.9744 9.02439 6.13308
Si 9.91202 8.02983 9.28754
C 10.7005 6.59373 8.40328
H 11.7731 6.48327 8.61279
H 10.1009 5.70468 8.52741
H 10.5882 6.7854 7.34713
C 11.2499 9.25592 9.6944
H 11.6899 8.82049 10.619
H 10.6199 10.2446 10.0154
Si 10.7178 1.52175 10.6627
O 11.2187 17.21 9.37027
C 9.06569 2.46297 10.5849
H 9.18249 3.55229 10.7882
H 8.67042 2.45681 9.57465
H 8.3099 2.05023 11.2801
C 12.028 2.91993 10.7974
H 11.7133 3.8684 11.1865
H 12.9624 2.57384 11.2623
H 12.2727 3.01641 9.67943
Si 10.2737 16.2402 8.35533
O 11.5266 15.3013 7.75043
C 9.41294 14.9626 9.38267
H 9.36543 14.1917 8.63362
H 9.93276 14.4274 10.2493
H 8.38421 15.092 9.62247
C 9.43561 17.3186 7.05151
H 8.77976 16.8831 6.3395
H 8.65896 1.61254 7.4628
H 10.1577 1.38465 6.50546
Si 13.1285 15.5655 7.82356
O 13.8169 14.5213 6.77908
C 13.8703 15.7914 9.49283
H 13.5944 15.2947 10.4449
H 14.9569 15.613 9.52335
H 13.8667 16.8961 9.68738
C 13.4226 17.413 6.90829
H 13.8841 16.9678 6.00137
H 12.2884 17.4814 7.08525
H 14.1389 17.6274 7.73208
Si 14.9253 13.3295 6.28954
O 14.828 11.9807 7.36651
C 16.72 13.9835 6.0516
H 17.4823 13.4495 6.63445
H 16.916 13.7257 5.05111
H 16.8653 15.065 6.12575
C 14.1858 12.4634 4.69592
H 13.5889 11.6421 5.12424
H 13.5459 13.1176 4.15373
H 14.9307 11.9401 4.24174
Si 15.3198 11.9706 8.95265
O 15.2349 10.3261 9.28197
C 14.1045 12.9235 10.1083
H 14.5383 13.7068 10.7468
H 13.2909 13.2576 9.41854
H 13.6238 12.1909 10.7966
C 17.1028 12.6653 9.17871
H 17.1315 13.1026 10.2182
H 17.7233 11.804 8.93353
H 17.2062 13.5423 8.54392
Si 14.2119 9.03661 9.5451
C 12.519 9.7733 8.99846
H 12.4768 9.15537 8.02271
H 12.3863 10.7829 8.68633
C 14.7884 7.95181 8.1106
H 15.2431 8.50646 7.30682
H 15.6598 7.25551 8.25378
H 13.9606 7.46253 7.60887
Si 1.98858 8.8075 7.37398
O 2.5507 7.23704 7.34098
C 19.2385 9.45164 7.32072
H 18.3539 8.87722 6.80676
H 18.8427 9.50538 8.31447
H 19.2352 10.4495 6.81569
C 2.80676 9.9505 8.60334
H 2.52528 10.9398 8.17096
H 2.28362 10.0587 9.54768
H 3.85169 9.903 8.81814
Si 2.89883 5.64897 6.89372
O 1.73539 4.91173 7.70433
C 2.61128 5.78657 5.10439
H 1.67796 5.2471 4.95401
H 2.64084 6.78072 4.74241
H 3.23047 5.14926 4.49786
C 4.51791 4.80747 7.45345
H 5.47835 5.32766 7.40853
H 4.47904 4.6413 8.54194
H 4.67598 3.87126 6.91705
Si 19.3176 4.35464 8.29207
O 19.0968 2.72702 8.07385
C 19.535 4.9154 10.0798
H 19.5951 6.06501 9.89302
H 18.8738 4.69199 10.8846
H 20.5569 4.69316 10.419
C 18.1417 5.47113 7.32128
H 17.9904 5.03477 6.28708
H 17.1881 5.40568 7.83786
H 18.4756 6.49715 7.05607
Si 18.3715 1.36765 7.69034
O 18.99 16.7326 8.7517
C 16.5096 17.7124 8.05952
H 16.0542 16.7124 8.25628
H 16.3884 1.75298 8.99349
H 15.9374 1.73748 7.27965
C 18.8953 17.2698 6.01209
H 19.1836 1.55818 5.34397
H 19.6928 16.5375 6.19885
H 18.1697 16.817 5.38906
Si 19.9543 16.81 10.1167
O 19.0758 16.7742 11.5464
C 1.98756 15.4058 9.51224
H 2.72498 14.8943 10.1759
H 20.2729 14.635 9.2346
H 2.48444 15.7305 8.61075
C 2.02305 1.6905 10.2529
H 1.69293 2.68824 10.4698
H 2.87275 1.37343 10.8854
H 2.42493 1.79928 9.17655
Si 17.6378 16.6751 12.4512
C 16.3634 15.2132 12.0822
H 16.5707 14.935 11.0399
H 16.422 14.572 12.9457
H 15.4232 15.8217 12.1665
C 16.9749 1.85503 12.368
H 16.9386 2.2878 13.398
H 17.6053 2.40371 11.6793
H 15.9547 1.84893 12.1253
Si 3.71155 13.7246 14.2846
O 2.56628 12.6263 14.6505
C 5.35719 12.8544 14.1644
H 5.15018 12.0316 13.4946
H 5.99571 13.6451 13.7541
H 5.62821 12.4916 15.1793
C 3.85447 14.9537 15.6763
H 4.06295 14.2644 16.4965
H 4.60868 15.7881 15.6289
H 2.78373 15.2047 15.8155
Si 19.9022 12.6814 14.153
O 19.6232 11.1702 13.5039
C 19.7124 13.8148 12.6992
H 20.1613 14.7918 12.9528
H 20.3502 13.3973 11.8915
H 18.6749 13.9063 12.3449
C 19.027 13.3156 15.6444
H 17.9948 13.5587 15.629
H 19.1198 12.458 16.3075
H 19.6034 14.1442 16.0768
Si 20.0912 9.93564 12.4445
O 19.5306 8.40101 13.0509
C 2.79237 9.55783 12.5822
H 3.27951 10.3602 11.9211
H 3.28067 9.8348 13.4989
H 3.08811 8.54565 12.3417
C 19.1892 10.4613 10.9248
H 18.0741 10.3734 11.1054
H 19.5374 11.466 10.7325
H 19.2934 9.75056 10.0521
Si 20.2572 7.21337 14.0131
O 2.40671 6.34841 13.2963
C 18.7575 6.07481 14.1137
H 18.2353 6.06779 15.0494
H 18.0803 6.60004 13.513
H 18.9375 5.02903 13.8856
C 2.07732 8.15756 15.5029
H 2.20619 9.20697 15.2619
H 20.5048 8.1593 16.4307
H 3.03332 7.68481 15.8275
Si 2.96435 4.88378 13.7333
O 4.57005 4.65227 13.1811
C 3.28612 4.69464 15.573
H 4.19994 4.01992 15.5716
H 3.65179 5.62576 16.1198
H 2.64198 4.05058 16.2561
C 1.81754 3.48401 13.0322
H 2.0566 2.97702 12.0882
H 1.74938 2.58916 13.7702
H 19.8481 3.7155 12.8335
Si 5.10398 4.89291 11.6287
C 3.92776 5.99199 10.6627
H 3.33349 5.46256 9.92024
H 3.4552 6.66365 11.3773
H 4.57266 6.66757 10.1262
C 6.91477 5.44821 11.3739
H 7.19988 5.17612 10.3271
H 7.4779 4.68074 11.9127
Si 4.87429 16.1958 12.2348
O 6.43177 16.3141 12.9539
C 5.15755 17.2773 10.7334
H 4.90655 1.7973 10.9844
H 6.17785 17.2015 10.3625
H 4.59271 16.9163 9.87267
C 3.39831 16.7208 13.2582
H 2.79649 15.8349 13.4352
H 3.77487 17.0381 14.2265
H 2.98232 17.63 12.7925
Si 7.33983 16.6098 14.3801
O 8.88957 16.6081 13.987
C 7.03008 1.90527 14.7764
H 6.39903 2.25966 15.6276
H 7.97289 2.49347 14.8235
H 6.43855 2.25408 13.9317
C 7.24882 15.4757 15.8995
H 7.102 14.4029 15.7101
H 8.20463 15.5368 16.395
H 6.41515 15.8352 16.4778
Si 10.1774 15.8097 13.7222
O 9.76204 14.3255 13.2107
C 11.2827 15.7969 15.2406
H 10.6517 16.2159 16.0501
H 11.331 14.7156 15.5905
H 12.2841 16.1964 15.3946
C 10.6034 16.6324 12.033
H 11.5869 16.1408 11.8622
H 9.71094 16.1558 11.6093
H 10.5716 17.5191 12.6532
Si 9.73541 12.7815 13.6534
O 8.67346 11.7918 12.6499
C 8.92224 12.558 15.3304
H 9.19778 11.6786 15.8388
H 8.93093 13.4039 16.0238
H 7.85566 12.5316 15.0859
C 11.3576 11.9135 13.3658
H 11.3263 10.9242 13.8277
H 11.3227 11.7278 12.2904
Si 8.22878 10.3922 12.0083
O 9.02404 9.00078 12.2439
C 6.5163 9.94651 12.2959
H 6.05113 9.51711 11.3673
H 6.41625 9.26708 13.1476
H 5.94884 10.818 12.719
C 10.5511 2.99762 13.2586
H 9.92368 3.89656 12.9621
H 9.76672 2.23546 13.3245
H 11.3813 2.88654 12.6226
Si 9.10324 7.57924 11.438
C 7.29789 6.91026 11.5593
H 6.70245 7.47477 10.9015
H 7.03992 7.34203 12.5684
C 10.194 6.18894 11.9274
H 9.57188 5.39288 11.4605
H 11.2565 6.30377 11.7376
H 10.3901 6.00806 12.9994
Si 17.3878 16.805 15.5502
O 17.4654 16.4105 17.1771
C 18.3036 1.91016 15.6073
H 19.1378 1.97944 16.3535
H 18.6339 2.25062 14.6263
H 17.4949 2.6012 15.9236
C 15.612 17.4624 15.2489
H 15.7493 1.9764 14.8731
H 15.0822 16.8824 14.4876
H 14.982 17.5257 16.1438
Si 16.9148 15.4125 18.3975
O 15.5216 14.5419 17.9125
C 18.3561 14.3828 1.72876
H 18.7426 13.9189 18.0839
H 19.1564 15.0462 2.19757
H 18.3135 13.4785 2.38805
C 16.3901 16.5136 2.47901
H 16.4618 15.8671 3.34466
H 17.0683 17.366 2.52632
H 15.4312 16.9991 2.37574
Si 15.1388 12.9143 17.2355
O 14.5122 12.8434 15.7144
C 16.7466 11.9953 17.1023
H 17.4981 12.7849 17.0979
H 17.027 11.4872 17.9766
H 16.9589 11.3461 16.2424
C 13.9578 12.2643 18.5781
H 13.1239 12.8384 1.58756
H 13.6756 11.2031 18.411
H 14.6618 12.1161 2.08573
Si 14.1027 11.8542 14.4123
O 13.9445 10.421 15.2885
C 12.5839 12.7116 13.6672
H 12.3014 13.5711 14.3352
H 13.0019 13.2081 12.7476
C 15.5577 11.828 13.3498
H 16.3048 11.0588 13.1118
H 15.0282 12.1507 12.4378
H 16.2335 12.5372 13.7921
Si 14.6698 8.90793 14.6285
O 14.1733 8.60333 13.1188
C 16.556 8.96303 14.9268
H 16.7381 8.12547 15.6137
H 17.1059 8.85498 13.9413
H 16.768 9.92003 15.4288
C 13.8545 7.52221 15.702
H 12.7853 7.63084 16.1097
H 13.6733 6.71147 14.974
H 14.6089 7.38371 16.5152
Si 14.468 7.7626 11.5761
C 13.6607 5.87624 11.2937
H 12.901 5.77578 10.5133
H 14.5889 5.21602 11.1052
H 13.2447 5.44001 12.1843
C 16.2562 7.24444 11.8006
H 17.0474 7.90049 12.1698
H 16.3459 6.5177 12.5773
H 16.5462 6.76036 10.8408
523
 Atoms. Timestep: 4000
Si 3.63031 13.5098 4.12395
O 2.88539 12.0654 4.38887
C 2.9535 14.4389 2.70654
H 3.17667 13.8763 1.76202
H 1.96076 14.8768 2.86899
H 3.61683 15.2953 2.53669
C 5.45536 13.2996 4.09143
H 5.96777 14.0313 4.66574
H 5.51998 12.3924 4.76984
H 5.7005 13.0178 3.06954
Si 2.17068 10.7525 3.61339
O 3.40393 10.1269 2.72219
C 19.1848 11.4598 2.86817
H 19.3955 12.1199 2.07805
H 18.5426 10.7639 2.29238
H 18.4389 11.7835 3.53175
C 20.2028 9.39806 4.88065
H 2.25259 8.53358 4.6654
H 1.90307 9.82974 5.83146
H 19.1427 9.24207 4.70023
Si 4.66641 9.30569 1.94612
O 4.23536 7.65382 1.87879
C 6.16186 9.81074 2.78088
H 7.1561 9.8489 2.2894
H 6.00869 10.9133 2.8178
H 6.189 9.30569 3.77954
C 4.86712 10.0065 17.062
H 5.53699 9.43323 16.4429
H 3.93857 10.3526 16.5749
H 5.35907 10.9607 17.2695
Si 4.88815 6.20734 2.3084
O 4.00728 4.74368 2.36325
C 5.75633 6.26702 4.01912
H 6.6571 5.5752 3.92454
H 6.1803 7.22602 4.28781
H 5.14886 6.0302 4.87892
C 6.32168 5.86452 17.9447
H 6.23062 6.5848 17.104
H 7.15338 6.2451 1.63834
H 6.51714 4.86301 17.6433
Si 3.75924 3.0887 2.52422
O 4.60532 2.99247 4.2136
C 4.64433 2.11899 18.11
H 5.36674 2.79605 17.5601
H 5.04499 17.259 1.62743
H 3.93138 1.87758 17.3324
C 2.03414 2.59406 2.59176
H 20.1147 2.64441 3.55225
H 20.0343 3.11283 1.81106
H 2.1532 1.52332 2.29495
Si 6.17992 3.33978 4.29786
C 7.31271 3.14195 2.90227
H 8.32017 2.61556 3.1822
H 6.91535 2.48632 2.03108
H 7.96275 3.99169 2.70997
C 7.11426 3.44357 6.05899
H 7.7449 4.28119 5.8331
H 6.47526 3.69858 6.89559
H 7.71002 2.6003 6.32007
Si 9.4696 15.3649 2.97551
O 10.0561 14.0319 3.60644
C 7.80268 16.1936 2.90749
H 7.59773 16.6907 3.83434
H 8.07504 16.9473 2.17802
H 7.03724 15.4609 2.58123
C 10.8536 16.5473 2.92717
H 11.7734 16.2291 3.53542
H 11.1815 16.8862 1.96822
H 10.5307 17.43 3.51712
Si 9.25495 12.3845 3.5821
O 10.6267 11.4824 3.65305
C 8.3216 12.3574 1.99998
H 7.21823 12.6927 2.15053
H 8.777 13.0318 18.177
H 8.33796 11.319 1.62342
C 8.47659 12.3612 5.24438
H 8.53818 11.3814 5.64087
H 8.83417 13.0783 5.99298
H 7.43393 12.6694 5.15062
Si 11.4874 10.5658 2.67532
O 10.7638 9.11833 2.44556
C 13.1828 10.1867 3.42911
H 13.9417 10.982 3.3942
H 13.1133 9.78358 4.41162
H 13.5756 9.43 2.74562
C 11.8155 11.2998 17.8026
H 11.7793 10.5248 16.9789
H 11.1809 12.0896 17.5372
H 12.7928 11.7163 17.904
Si 10.6203 7.59464 1.93638
O 9.53393 7.5244 17.624
C 9.74385 6.31816 3.15834
H 10.1236 6.58319 4.16123
H 8.63237 6.32356 3.0588
H 10.1294 5.34808 2.88891
C 12.1591 6.59495 1.57589
H 12.8528 7.00735 17.7533
H 12.7354 6.414 2.44952
Si 9.53659 7.45519 15.9126
O 9.85775 5.87013 15.384
C 11.0688 8.26304 15.418
H 11.8946 8.52676 16.106
H 11.6005 7.66363 14.5906
H 10.7548 9.18086 14.9225
C 8.06804 8.5307 15.5058
H 8.45184 9.57412 15.4962
H 7.44512 8.22649 14.6452
H 7.38784 8.49726 16.3869
Si 9.5989 4.19588 15.0448
C 9.04799 3.07774 16.5262
H 9.88678 2.97956 17.226
H 8.22242 3.54873 17.0865
H 8.68932 2.15706 16.0924
C 11.3897 3.71437 14.5306
H 11.9433 4.60564 14.2424
H 11.8483 3.29677 15.4117
H 11.4285 2.92589 13.7688
Si 19.1794 7.73495 18.1483
O 18.1312 7.58087 2.51305
C 19.6383 6.11781 17.3996
H 18.9062 5.72268 16.652
H 2.06394 6.07593 17.0283
H 19.5435 5.40936 18.1537
C 18.4514 8.85718 16.7832
H 18.0839 9.80827 17.188
H 19.1841 9.10066 15.9307
H 17.6752 8.30253 16.2392
Si 16.526 7.50124 3.17701
O 15.5273 6.79852 2.12452
C 16.2983 6.29608 4.62053
H 17.2464 6.34253 5.26922
H 15.4735 6.35985 5.3431
H 16.3191 5.25598 4.23029
C 16.2652 9.1697 3.91305
H 15.4084 9.10724 4.59492
H 17.1565 9.44088 4.52593
H 15.9416 9.96279 3.25252
Si 15.4098 5.34341 18.0904
O 13.9773 4.73635 18.2157
C 15.4596 6.06277 16.3778
H 14.4161 6.43259 16.3055
H 15.9567 7.04902 16.3519
H 15.5868 5.39652 15.5119
C 16.773 4.28022 2.04714
H 16.8889 4.24007 3.15354
H 16.5234 3.24286 1.84228
H 17.7123 4.69581 1.71668
Si 12.6441 3.86396 1.58574
O 12.4732 3.12281 3.07938
C 11.529 5.36391 17.859
H 11.6859 5.2086 16.7877
H 10.4972 5.10431 18.1332
C 12.7985 2.39197 17.4544
H 13.523 1.88687 18.15
H 11.8854 1.76634 17.4714
H 13.2806 2.47606 16.4954
Si 11.7705 3.63507 4.5569
O 12.5459 2.71354 5.69776
C 9.97975 3.38863 4.88608
H 9.81418 3.43524 5.94267
H 9.29597 4.21566 4.55682
H 9.59834 2.42864 4.4573
C 12.4532 5.41063 4.86909
H 13.2931 5.4638 5.56239
H 12.864 5.92062 3.95847
H 11.6806 6.00411 5.33986
Si 13.9441 2.33636 6.53162
C 15.0486 17.5318 5.30319
H 14.89 1.54518 4.25508
H 16.1295 1.63807 5.53924
H 14.8677 16.4709 5.59923
C 14.2689 4.01078 7.42494
H 15.0789 4.0094 8.08197
H 14.3199 4.86288 6.77475
H 13.4208 3.95863 8.15715
Si 2.96088 14.6722 6.01453
O 3.71858 15.0255 7.38156
C 2.59351 16.3719 5.36327
H 3.22501 17.1625 5.71816
H 2.83937 16.5034 4.26947
H 20.1065 16.8038 5.47705
C 19.9601 13.869 6.44954
H 19.4386 13.6738 5.5298
H 20.1981 13.0923 7.21882
H 19.4541 14.5859 7.0364
Si 5.31195 15.2351 7.67928
O 5.98859 13.7528 7.22204
C 5.6727 15.746 9.3945
H 6.6856 15.4764 9.63386
H 5.65759 16.8435 9.48191
H 4.98475 15.2671 10.1101
C 5.91373 16.5284 6.4083
H 6.94137 16.7989 6.38376
H 5.63545 16.0821 5.44143
H 5.1974 17.3885 6.50674
Si 5.6411 12.3135 7.99395
O 5.75559 11.1042 6.80652
C 3.87134 12.0103 8.78801
H 3.88085 11.8345 9.86301
H 3.2353 12.8793 8.54708
H 3.55514 11.0746 8.2982
C 6.91506 11.7832 9.40858
H 6.41092 11.141 10.125
H 7.74893 11.1614 9.06828
H 7.26952 12.7306 9.90552
Si 6.02162 9.32591 6.82889
O 7.49063 8.88078 6.30989
C 5.55443 8.67515 8.49548
H 4.59153 8.26836 8.37745
H 6.107 7.76102 8.85617
H 5.55351 9.32248 9.4091
C 4.68667 8.90635 5.54512
H 5.00144 8.10445 4.9234
H 3.71028 8.87545 6.06376
H 4.60746 9.86934 5.06482
Si 9.00198 8.37912 6.60351
O 9.29778 9.02575 8.15239
C 8.94462 6.48084 6.64118
H 8.68207 6.11278 5.58153
H 9.92647 6.12766 6.7914
H 8.23192 6.20333 7.40841
C 10.2044 9.22413 5.52322
H 10.4618 10.2396 5.89526
H 11.0783 8.65953 5.19551
H 9.54985 9.28859 4.65805
Si 10.0474 8.45635 9.48483
C 10.8498 6.90567 8.96851
H 11.1947 6.81493 7.94264
H 11.8079 6.67087 9.41528
H 10.2941 5.95509 9.16619
C 11.1857 9.84374 10.0581
H 11.6628 9.5181 10.9648
H 10.5493 10.6429 10.6991
Si 9.89807 1.71358 10.247
O 10.1852 16.7913 8.92046
C 8.05887 2.16389 9.90058
H 7.48245 2.29674 10.836
H 8.00111 3.13841 9.46886
H 7.61929 17.4754 9.28857
C 11.325 3.00868 10.1985
H 12.214 2.62626 10.6805
H 11.5445 2.97234 9.12165
H 11.0554 4.00437 10.5006
Si 10.372 15.3804 8.18219
O 11.9407 15.0768 8.578
C 9.3446 13.9669 9.05147
H 9.47711 13.0806 8.45876
H 9.60529 13.8126 10.1454
H 8.31296 14.307 9.00907
C 9.75918 15.6258 6.40862
H 8.98474 14.9193 6.02083
H 9.49995 16.708 6.20196
H 10.6224 15.6924 5.79228
Si 13.5706 15.2243 8.46071
O 14.5026 14.3278 7.54793
C 14.0894 14.9334 10.2071
H 14.0506 13.8051 10.2458
H 15.1754 15.19 10.3968
H 13.3619 15.2986 11.0015
C 13.5459 17.1253 7.89719
H 13.9159 16.4554 7.1008
H 12.4398 17.3334 8.1481
H 14.2879 17.4097 8.6554
Si 14.4387 13.1599 6.37427
O 14.6995 11.7206 7.19126
C 15.7873 13.4158 5.1863
H 15.9328 12.4929 4.53491
H 15.3803 14.1448 4.46724
H 16.8072 13.7938 5.47429
C 12.7867 13.0526 5.58437
H 11.847 13.5754 5.90512
H 12.9975 13.1699 4.45927
H 12.6983 11.9832 5.93136
Si 16.1098 11.1179 8.07322
O 15.3278 9.66866 8.44079
C 16.4357 11.9387 9.66879
H 16.499 13.047 9.69332
H 15.9092 11.5026 10.5323
H 17.4438 11.5412 9.87557
C 17.7101 11.2214 6.99193
H 18.3872 11.3936 7.82397
H 17.8954 10.2385 6.52175
H 17.707 12.0928 6.38349
Si 13.7959 9.02167 8.87385
C 12.317 10.2272 9.17805
H 11.8084 10.454 8.22621
H 12.803 11.2612 9.54858
C 13.3356 7.71304 7.54393
H 14.2482 7.62211 7.04175
H 12.9044 6.89756 8.08266
H 12.5549 8.10033 6.8736
Si 19.7415 8.13226 6.8255
O 2.06259 6.70797 6.80936
C 17.9952 7.65473 7.04299
H 18.0619 6.60289 7.04248
H 17.6024 8.03583 7.93927
H 17.3628 8.02585 6.19658
C 1.82252 9.42081 8.03202
H 19.9443 9.39339 9.02865
H 2.92758 9.32043 8.18649
H 20.2195 10.4384 7.67954
Si 2.68408 5.37215 6.0458
O 19.9255 4.19499 6.12646
C 2.33661 6.1601 4.31025
H 2.33619 5.28566 3.57007
H 19.994 6.72711 4.34091
H 3.17157 6.83914 4.15765
C 4.19262 4.67052 6.75068
H 4.04776 3.81975 7.38692
H 4.88883 4.47533 5.96003
H 4.76582 5.37429 7.38939
Si 18.9313 3.58653 7.34647
O 19.1064 2.01048 7.62709
C 19.7318 4.52239 8.73925
H 2.17097 4.32663 8.60655
H 19.5291 5.57399 8.48158
H 19.4178 4.26818 9.75966
C 17.2495 4.24161 7.30352
H 16.4322 3.49156 7.20697
H 17.0464 4.66256 8.26198
H 17.0186 4.91004 6.46437
Si 17.946 17.3012 8.3801
O 18.7357 16.3529 9.44746
C 16.6208 2.00974 9.39368
H 16.7753 2.81703 10.1054
H 15.7279 2.10954 8.74963
H 16.3297 17.278 10.1005
C 17.348 15.8448 7.16513
H 17.9761 15.7958 6.25475
H 17.5418 14.8343 7.59781
H 16.2522 15.987 6.84332
Si 19.7445 16.4631 10.7362
O 19.0868 17.1554 12.0601
C 1.7733 14.6632 10.7872
H 2.8506 14.777 10.5658
H 20.0368 13.9799 11.5277
H 20.0387 14.1703 9.82526
C 2.75417 17.44 10.3841
H 2.53141 2.36581 10.4884
H 3.71355 17.0738 10.8193
H 2.95421 17.2413 9.31121
Si 18.0925 1.94344 13.0601
C 16.2324 1.59435 12.821
H 15.8268 17.2248 13.7152
H 15.4807 2.41927 12.6598
H 15.9392 17.036 11.9887
C 18.5878 3.77382 12.7529
H 18.3536 4.04901 11.7345
H 17.9875 4.25148 13.4637
H 19.6313 4.08662 12.8441
Si 3.10136 14.2194 14.4843
O 3.21158 12.5882 14.1605
C 3.61082 14.7745 16.1373
H 4.52594 15.3026 16.4314
H 2.91135 15.3494 16.7284
H 3.79512 13.8712 16.7531
C 20.1727 15.0974 13.9722
H 20.0733 15.752 14.9144
H 20.2052 15.7495 13.1187
H 19.3286 14.3903 13.8705
Si 20.2825 11.8119 13.8956
O 2.06052 10.2987 13.3426
C 19.1131 12.1344 12.4948
H 18.6283 13.0942 12.5831
H 19.6459 11.9233 11.5725
H 18.3865 11.3222 12.7006
C 19.2408 12.1915 15.5093
H 18.6419 11.3083 15.8863
H 19.8687 12.448 16.3438
H 18.5782 13.0156 15.5223
Si 2.52182 9.00128 12.3625
O 3.17068 7.94112 13.3436
C 4.06585 9.52181 11.436
H 4.73497 8.7542 11.0531
H 3.78331 9.98434 10.4494
H 4.60047 10.2642 12.0843
C 19.8084 8.3754 11.275
H 19.1501 7.56673 11.6894
H 19.1377 9.26324 11.1497
H 20.1683 7.96741 10.3394
Si 2.7956 6.63535 14.2312
O 3.35723 5.46287 13.3562
C 19.556 6.74397 14.2645
H 19.1551 6.55507 13.2627
H 18.8839 6.32179 15.0303
H 19.2224 7.73904 14.3051
C 3.94327 6.89728 15.6795
H 3.82407 7.94695 15.926
H 4.05769 6.32282 16.5692
H 4.98203 6.8801 15.3341
Si 4.30921 4.07449 13.5319
O 5.3927 4.18955 12.2532
C 5.56859 4.33899 14.8596
H 5.99239 5.24105 14.5202
H 5.15011 4.60261 15.8666
H 6.42776 3.55387 14.8788
C 3.02819 2.71014 13.645
H 2.97255 1.86764 14.301
H 2.13259 3.27564 13.8546
H 2.83572 2.3131 12.6156
Si 5.47659 4.81748 10.7444
C 3.9216 5.72597 10.1447
H 3.00322 5.1056 10.4308
H 3.73616 6.54413 10.7999
H 4.03778 5.91939 9.08299
C 7.22611 5.53673 10.422
H 7.339 5.64001 9.35329
H 7.91057 4.88299 10.9955
Si 5.03348 14.7593 13.1682
O 6.13186 14.5072 14.4101
C 5.57896 13.818 11.6201
H 6.55235 14.2257 11.3684
H 5.81941 12.7971 11.9056
H 4.96107 13.8514 10.7238
C 5.18656 16.5162 12.6852
H 5.69958 16.3474 11.6899
H 4.24636 17.1194 12.6101
H 5.74173 17.0859 13.4073
Si 7.1603 15.4068 15.2771
O 8.33891 15.6221 14.0702
C 6.62832 17.2021 15.5993
H 5.60625 17.5382 15.3182
H 6.61163 17.3538 16.6629
H 7.30757 1.85647 15.1844
C 7.11203 14.5556 16.9663
H 6.7513 13.5195 16.9932
H 8.14172 14.5644 17.3507
H 6.48807 15.0885 17.6673
Si 9.86149 15.3715 13.4618
O 10.036 13.8548 12.8943
C 11.4379 15.8459 14.2467
H 11.613 15.1315 15.0916
H 12.2012 15.6957 13.4456
H 11.463 16.8752 14.6491
C 9.90135 16.5133 11.8352
H 10.855 15.973 11.4653
H 8.87598 16.2583 11.4469
H 10.0344 17.469 12.4753
Si 10.2652 12.4448 13.8046
O 9.51703 11.3416 12.7206
C 9.54822 12.2532 15.5036
H 10.3998 12.6169 16.1062
H 8.71639 12.9091 15.6156
H 9.27974 11.283 15.852
C 12.0224 11.9554 13.9191
H 12.2414 12.1398 14.9884
H 12.1773 10.9012 13.7531
Si 7.9853 10.9708 12.1512
O 7.99435 9.31533 12.0217
C 6.68778 11.4148 13.6005
H 5.64239 11.0729 13.5893
H 7.21571 10.8565 14.409
H 6.62906 12.4665 13.9342
C 8.6046 3.99228 13.4129
H 9.2883 3.67751 12.6197
H 8.16525 4.94205 13.1381
H 7.81606 3.22444 13.2277
Si 8.53666 7.9405 11.2571
C 7.00664 6.83553 11.2038
H 6.27269 7.59806 10.8248
H 6.75582 6.52783 12.2024
C 9.82929 6.93202 12.2029
H 9.93596 5.909 11.9441
H 10.8377 7.37131 12.2936
H 9.66608 6.91368 13.2939
Si 17.9537 1.87534 15.4924
O 17.174 16.746 16.2909
C 19.4808 2.20415 16.4079
H 19.2913 1.73682 17.3685
H 1.87619 1.84914 16.0149
H 19.5533 3.302 16.5123
C 16.7107 3.1837 15.6597
H 16.0523 3.09368 16.5273
H 17.1395 4.18618 15.5378
H 15.9873 3.0986 14.8341
Si 16.9605 15.5872 17.6474
O 16.4107 14.2737 16.8776
C 18.4797 15.143 1.73623
H 18.2358 14.3713 2.53786
H 19.3667 14.6314 18.1166
H 18.8354 16.0242 2.29996
C 15.81 16.3576 2.0043
H 15.0515 16.9402 18.3546
H 15.4365 15.4838 2.59689
H 16.3347 17.0862 2.55132
Si 14.9486 13.5326 16.663
O 14.6571 13.21 15.0543
C 15.3809 12.0613 17.8683
H 16.3801 11.7476 17.7259
H 15.3203 12.3998 2.03159
H 14.7423 11.2335 17.7877
C 13.4755 14.4622 17.2134
H 12.6535 13.8806 17.6741
H 13.6272 15.4954 17.5712
H 12.9779 14.764 16.2648
Si 14.8119 12.91 13.5134
O 15.2951 11.4222 13.072
C 12.9528 12.7827 12.9493
H 12.6248 13.8421 12.9254
H 12.7593 12.5119 11.9127
C 16.052 14.0351 12.7808
H 16.5935 13.5642 11.9642
H 15.5608 14.9708 12.5326
H 16.6047 14.3431 13.7215
Si 15.3005 9.76376 13.1977
O 14.2931 9.0613 12.0159
C 17.105 9.38887 13.7806
H 16.929 8.50678 14.4657
H 17.9166 9.20135 13.0971
H 17.2119 10.2762 14.4542
C 14.4448 9.18757 14.7452
H 13.6821 9.9872 14.9262
H 14.0406 8.23519 14.7408
H 15.0523 9.33833 15.6893
Si 14.3187 7.80964 10.8874
C 13.3048 6.53365 11.8902
H 12.3688 6.38619 11.2933
H 13.8262 5.52419 12
H 13.0503 6.90876 12.8852
C 16.1249 7.42361 10.6198
H 16.3368 8.40106 10.1379
H 16.6724 7.30958 11.5443
H 16.2084 6.597 9.89832
523
 Atoms. Timestep: 4500
Si 3.95821 13.439 3.99463
O 3.1506 11.9508 3.96379
C 3.94251 14.3073 2.17707
H 3.89966 13.5907 17.953
H 3.09967 15.021 2.29017
H 4.85019 14.9116 2.03559
C 5.76864 12.9447 4.24165
H 6.26871 13.9003 4.27857
H 5.9897 12.3826 5.21638
H 6.06259 12.4654 3.31163
Si 1.92059 10.9193 3.72285
O 2.29631 9.40747 2.87867
C 18.6284 11.7751 3.00731
H 18.3697 12.6646 3.50289
H 18.9173 11.917 1.98784
H 17.7167 11.1775 3.14549
C 19.6727 10.2849 5.40687
H 18.784 9.6574 5.58136
H 2.35553 9.8644 5.74615
H 19.4694 11.299 5.84745
Si 3.66165 9.18311 1.91136
O 4.13974 7.55296 2.38892
C 4.94598 10.5351 1.79557
H 4.40277 11.3944 17.9623
H 5.48404 10.8012 2.75984
H 5.72934 10.3113 17.6544
C 3.16121 8.92377 16.7989
H 3.43916 9.88888 16.3194
H 3.78876 8.18658 16.3255
H 2.09455 8.80728 16.6635
Si 4.844 6.06961 2.14496
O 3.92842 4.81102 2.64795
C 6.48392 5.88148 3.16131
H 7.47294 5.64977 2.71543
H 6.49118 6.64152 4.01702
H 6.36702 4.96763 3.81058
C 5.39489 5.90149 16.8974
H 5.10764 6.81138 16.3638
H 6.4581 5.89322 16.9979
H 5.16934 5.00377 16.3065
Si 2.97107 3.49267 2.32292
O 4.25827 2.28112 2.6087
C 2.62016 3.20954 17.1177
H 3.2514 3.71264 16.3236
H 2.81866 2.16559 16.798
H 19.838 3.3477 17.011
C 19.8517 3.14054 3.4353
H 19.5939 2.06701 3.2671
H 1.98493 3.25362 4.44458
H 18.9221 3.68899 3.31133
Si 5.60886 2.41535 3.46444
C 7.21709 2.01786 2.71088
H 8.02504 1.75781 3.37294
H 6.9272 17.161 1.99656
H 7.65394 2.8786 2.23547
C 5.58061 3.10387 5.14617
H 5.07961 4.09732 5.1754
H 5.02289 2.55333 5.93668
H 6.6696 3.17083 5.41741
Si 11.8087 15.0763 2.1481
O 10.6358 13.8475 2.40776
C 10.8207 16.2648 17.7462
H 9.88524 16.4143 1.67528
H 11.2896 17.2573 17.5211
H 10.4823 15.8402 16.8237
C 12.7062 15.7089 3.72372
H 13.4122 16.5165 3.39473
H 11.9316 15.954 4.48244
H 13.2725 14.796 4.12566
Si 9.99783 12.6564 3.35507
O 11.0957 11.3964 3.31598
C 8.49396 12.1258 2.43874
H 7.89146 13.03 2.40895
H 8.54732 11.6743 18.0951
H 7.90636 11.4747 3.12003
C 9.70422 13.4072 5.02774
H 8.83689 14.05 4.92405
H 9.59935 12.5627 5.76467
H 10.5116 14.0351 5.40691
Si 11.5236 9.97552 2.66876
O 10.2176 9.09932 2.2642
C 12.6767 8.92261 3.67939
H 13.6204 9.40007 3.95282
H 12.1827 8.55736 4.54915
H 12.9866 8.15884 2.98788
C 12.2541 10.1247 17.6972
H 13.3129 9.89218 17.9045
H 11.8809 9.32367 16.9409
H 12.131 11.059 17.1945
Si 9.67666 7.64056 1.76111
O 10.6136 7.14278 17.0988
C 7.92377 8.16907 17.9692
H 7.27519 8.63006 2.08509
H 8.08657 8.83406 17.157
H 7.4192 7.37773 17.4798
C 10.0362 6.33439 3.07881
H 10.9067 6.72721 3.71528
H 9.23732 6.39616 3.92094
Si 10.7555 6.94988 15.5179
O 10.2438 5.58329 15.1642
C 12.4334 7.33967 15.1199
H 12.6842 8.36581 14.8658
H 13.0665 7.05885 15.924
H 12.8053 6.71585 14.3059
C 9.79311 8.18515 14.3659
H 10.1015 8.95039 15.1286
H 10.372 8.10137 13.4753
H 8.7649 7.75385 14.2987
Si 10.1684 3.838 15.3741
C 8.87712 3.41372 16.6568
H 9.23327 2.85136 17.5005
H 8.54259 4.31771 17.1722
H 7.9689 2.94579 16.295
C 11.8277 3.24899 15.782
H 12.0224 3.45973 16.8544
H 12.0543 2.16783 15.7236
H 12.6045 3.81892 15.284
Si 18.5753 7.83942 2.36007
O 17.6053 7.59465 3.72526
C 19.4446 6.3958 1.72023
H 18.7366 6.08434 17.4759
H 2.01869 6.6654 17.7562
H 19.4627 5.49072 2.33731
C 17.7286 9.03035 17.8888
H 16.7599 8.42899 17.7536
H 17.6091 10.0933 18.2242
H 18.1217 8.66827 16.9017
Si 15.889 7.76711 3.80678
O 15.2943 7.25429 2.34403
C 15.2709 7.02757 5.40702
H 14.5301 7.64764 5.84784
H 15.0774 5.96507 5.37477
H 16.1658 7.10749 6.068
C 15.8482 9.64387 3.77331
H 15.1636 10.145 4.43555
H 16.918 9.88742 3.95447
H 15.5621 10.1315 2.84428
Si 14.7345 5.73259 2.07915
O 13.2106 5.67309 2.70978
C 14.6365 5.10768 16.9173
H 14.8654 4.05321 16.9991
H 13.7883 5.41725 16.3013
H 15.5463 5.59782 16.5367
C 16.0951 4.62261 2.69785
H 16.6012 5.23998 3.45319
H 15.7258 3.67824 3.14783
H 16.817 4.42811 1.88255
Si 12.2169 4.40482 2.88725
O 12.0712 4.12403 4.51467
C 10.4205 4.91895 2.38376
H 10.4002 5.00614 17.9377
H 9.73909 4.19307 2.77638
C 12.8561 2.69981 2.38611
H 13.362 2.78501 18.0346
H 13.7033 2.37506 3.0041
H 12.0826 1.93704 2.45793
Si 11.1573 4.47333 5.77056
O 11.8583 3.62633 7.09486
C 9.37133 4.16505 5.78018
H 9.16702 4.77311 4.86952
H 9.00387 3.14312 5.58932
H 9.14511 4.77007 6.71128
C 11.6755 6.34653 6.0125
H 12.4553 6.58503 5.31354
H 10.8196 6.96834 5.74249
H 12.1552 6.60451 6.93346
Si 13.4179 3.16048 7.02463
C 14.5362 2.64358 5.71302
H 14.7926 3.39403 4.94025
H 15.4047 2.33757 6.26586
H 14.2579 1.74607 5.12706
C 14.3457 4.34208 8.22596
H 14.6122 5.23871 7.74712
H 13.777 4.42119 9.14629
H 15.4148 3.93698 8.27529
Si 2.99783 14.5463 5.80589
O 3.95472 14.8795 7.1281
C 2.67509 16.2468 4.99287
H 2.18679 15.9261 4.14967
H 2.01132 16.9446 5.51795
H 3.5085 16.8818 4.94819
C 19.8905 13.5603 6.41004
H 2.01433 12.5806 6.61497
H 19.5221 13.8138 7.43817
H 19.039 13.4331 5.77941
Si 5.59386 15.2365 7.18306
O 6.36033 13.9167 7.77523
C 5.73881 16.6929 8.38469
H 4.89319 16.6297 9.05716
H 6.66113 16.7843 8.93269
H 5.70075 1.71558 7.80027
C 6.19167 16.0705 5.45759
H 5.32698 16.3118 4.76737
H 6.79993 16.8917 5.72908
H 6.92497 15.3817 5.04241
Si 5.78438 12.526 8.42757
O 5.16332 11.7435 7.0985
C 4.43138 12.9174 9.53354
H 4.83976 13.66 10.242
H 3.50478 13.2505 9.04214
H 4.13359 12.0025 10.0941
C 7.13677 11.5864 9.24599
H 6.72486 10.8452 9.9605
H 7.65269 11.0275 8.42583
H 7.88679 12.1602 9.69006
Si 5.57095 10.2054 6.72196
O 7.19513 10.3027 6.66409
C 5.13933 9.0714 8.16501
H 4.57919 8.19446 7.90154
H 6.12807 8.80829 8.47692
H 4.87367 9.47342 9.15487
C 5.0585 9.49968 5.13583
H 6.03383 9.69451 4.65333
H 4.9698 8.42472 5.37066
H 4.13627 9.88769 4.68125
Si 8.56938 9.39295 6.82094
O 9.30334 9.78969 8.18554
C 8.10885 7.46418 6.8168
H 7.29709 7.25226 7.54696
H 7.76092 7.27282 5.7608
H 9.10774 6.90977 6.95559
C 9.64884 9.72674 5.39013
H 9.94836 10.7747 5.11943
H 10.5561 9.13752 5.51998
H 9.18836 9.37007 4.47676
Si 10.0802 8.99094 9.47186
C 11.2775 7.84741 8.73419
H 10.889 7.63742 7.72504
H 12.2553 8.26425 8.43021
H 11.4398 6.87679 9.22109
C 11.2268 10.1805 10.3714
H 11.5794 9.64274 11.285
H 10.6241 10.9713 10.7533
Si 10.8021 1.85432 10.7437
O 11.2752 16.8273 9.46429
C 9.16924 2.8634 10.2396
H 9.37959 3.57523 9.42832
H 8.31295 2.24055 10.081
H 8.91008 3.47057 11.1163
C 12.241 3.02511 11.3253
H 12.2095 3.11493 12.4311
H 13.1828 2.52181 11.0484
H 12.2054 4.00791 10.9369
Si 10.3363 15.9899 8.42985
O 11.2248 15.0133 7.50005
C 9.10194 14.9991 9.5209
H 8.77729 14.1196 8.92468
H 9.66228 14.5623 10.324
H 8.1729 15.3864 9.87719
C 9.51746 17.0671 7.26533
H 9.3111 2.17918 7.73794
H 10.0921 17.4084 6.34781
H 8.59259 16.6714 6.93505
Si 12.8496 14.9756 7.94854
O 13.637 14.0653 6.79029
C 13.2617 14.6302 9.59271
H 14.3212 14.7712 9.72694
H 12.6839 15.2739 10.2927
H 12.8867 13.6138 9.74225
C 13.3093 16.8241 7.54447
H 12.5198 17.3284 6.96318
H 13.7181 17.3611 8.45063
H 14.1931 16.6201 6.96213
Si 14.1022 12.5839 6.40969
O 14.9232 11.9914 7.57296
C 15.3781 12.6935 5.04841
H 14.9262 13.2732 4.16009
H 16.2983 13.2994 5.36424
H 15.8055 11.7383 4.6504
C 12.5921 11.6712 6.01353
H 11.7103 11.8736 6.63058
H 12.2382 12.0828 5.02412
H 12.8472 10.6561 5.7809
Si 16.1381 12.0275 8.68246
O 15.3863 11.0649 9.83812
C 16.5943 13.55 9.53435
H 16.7698 13.2001 10.5768
H 17.5995 13.9332 9.32161
H 15.8975 14.3557 9.54524
C 17.6453 11.4483 8.02176
H 17.8868 12.4522 7.6
H 18.3611 11.2592 8.84496
H 17.6581 10.8289 7.15912
Si 14.15 9.86894 9.70758
C 12.5268 10.7513 9.63057
H 12.1568 11.1261 8.61149
H 12.7188 11.6831 10.24
C 14.8203 8.97065 8.07871
H 14.9399 7.91707 8.20811
H 14.2234 9.22415 7.21637
H 15.7758 9.4154 7.83478
Si 19.9562 8.86713 7.59567
O 2.62895 7.47207 7.63007
C 18.2254 8.39586 7.90937
H 18.2119 7.27716 7.86584
H 17.7797 8.66168 8.87031
H 17.4172 8.6213 7.1025
C 2.51583 10.1907 8.42279
H 2.46267 11.2095 7.98235
H 2.30822 10.2009 9.4882
H 3.59313 9.98145 8.34026
Si 2.87897 6.23692 6.56356
O 1.88717 4.87277 6.84974
C 2.03614 6.85124 5.0294
H 2.13783 6.06831 4.23181
H 19.2037 7.07649 5.24044
H 2.57815 7.71586 4.65036
C 4.6145 5.64752 6.82429
H 4.64145 4.69383 7.42205
H 5.37454 5.53592 6.04007
H 4.97042 6.42994 7.51205
Si 18.7408 4.18826 7.37377
O 18.7416 2.50951 7.26589
C 17.8853 4.42523 9.01732
H 16.8665 4.79163 8.88173
H 17.6922 3.47998 9.46523
H 18.5042 4.90606 9.72857
C 17.3448 4.56221 6.23409
H 16.6723 5.13015 6.87575
H 17.4593 5.19842 5.37162
H 16.9786 3.57023 5.95954
Si 18.0505 16.8454 7.67686
O 19.0638 16.2711 8.81862
C 16.5916 17.0171 8.70254
H 16.9899 17.276 9.6624
H 15.674 1.75381 8.5621
H 16.2975 15.97 8.86785
C 17.6792 16.1363 6.09675
H 17.7685 17.0601 5.4578
H 18.4598 15.4823 5.73197
H 16.8216 15.5094 5.9503
Si 19.9402 17.0374 9.99421
O 18.725 17.3623 11.1829
C 2.68323 15.6432 10.535
H 3.33096 15.2054 9.72089
H 3.01276 15.8352 11.5869
H 1.89101 14.8477 10.8044
C 2.48548 2.79935 9.51453
H 3.45674 2.83696 10.0035
H 2.63215 2.88748 8.44321
H 20.1719 3.6059 9.90154
Si 17.3883 17.2345 12.1241
C 16.5645 15.531 12.0245
H 16.792 15.2152 10.9979
H 16.8971 14.8765 12.832
H 15.497 15.7696 12.1512
C 16.0529 2.58478 11.5157
H 15.7642 2.36756 10.5108
H 15.1368 2.30879 12.0855
H 16.1409 3.63059 11.8114
Si 3.61698 13.3153 13.7121
O 2.6009 12.3053 12.7586
C 4.35147 12.5248 15.2532
H 5.17796 11.8126 15.1854
H 4.8098 13.4789 15.6548
H 3.51005 12.3522 15.9212
C 2.55908 14.7212 14.321
H 2.96194 14.8743 15.3535
H 2.87581 15.6756 13.7914
H 19.754 14.7626 14.4368
Si 19.6269 11.459 13.293
O 2.06951 9.93174 13.6323
C 18.231 11.3392 11.9191
H 18.348 10.3397 11.4243
H 17.2349 11.3168 12.3366
H 18.322 12.1583 11.2189
C 18.9634 12.0218 14.8142
H 19.5652 12.5492 15.5742
H 17.993 12.3357 14.712
H 18.7163 11.1142 15.4006
Si 2.88498 8.88871 12.5161
O 3.00476 7.4482 13.3512
C 4.50851 9.39212 11.7484
H 4.73142 8.65143 11.0156
H 4.38038 10.4456 11.3193
H 5.49407 9.36616 12.2535
C 19.9234 8.34926 11.1716
H 19.0775 7.9397 11.748
H 19.5826 8.95325 10.3136
H 2.15272 7.50019 10.7059
Si 2.25317 5.99195 13.521
O 3.6137 5.11238 13.797
C 19.3808 5.29666 12.1872
H 18.6478 5.87668 11.7146
H 19.9402 4.62837 11.5285
H 18.7468 4.59282 12.763
C 19.6209 5.86583 15.1736
H 18.5246 6.1287 15.2018
H 19.7027 4.78633 15.3435
H 2.01343 6.26298 15.9457
Si 4.59299 3.93354 13.2014
O 5.36467 4.17415 11.7442
C 6.15392 4.05325 14.2227
H 6.46584 5.14316 14.2824
H 6.03615 3.67981 15.1708
H 6.889 3.51582 13.6077
C 3.95837 2.22713 12.9728
H 4.874 17.4535 12.8672
H 3.38119 1.65157 13.6943
H 3.43504 2.23252 11.9726
Si 5.35969 4.57999 10.1574
C 3.87272 5.74196 9.9973
H 3.27497 5.45882 10.8879
H 4.02935 6.84712 10.0543
H 3.29023 5.55024 9.11881
C 7.03186 5.52222 9.88862
H 7.15247 5.87495 8.84221
H 7.92982 4.9198 10.0019
Si 5.90392 13.7233 13.0732
O 6.61543 14.2135 14.5541
C 6.58839 12.1622 12.4045
H 6.09185 11.6059 11.5991
H 7.67102 12.2555 12.1374
H 6.5717 11.4585 13.2771
C 6.48455 15.2083 12.0227
H 7.57894 15.0642 11.9504
H 6.04036 15.243 11.042
H 6.21701 16.1928 12.5376
Si 7.41382 15.4967 15.3284
O 8.86583 15.7828 14.5643
C 6.10049 16.9016 15.3993
H 6.08657 1.95399 16.0641
H 5.85933 17.2854 14.4017
H 5.27989 16.2341 15.8226
C 7.52864 14.8795 16.9925
H 6.49005 14.7201 17.39
H 7.83771 13.8012 16.8911
H 8.12249 15.4514 17.7229
Si 10.0763 14.9997 13.7191
O 9.90061 13.3783 13.3498
C 11.597 14.9919 14.6306
H 11.4385 14.341 15.5509
H 12.3426 14.5422 13.9755
H 11.9046 16.0154 14.9395
C 10.2175 16.3792 12.3331
H 11.2202 15.9766 11.9443
H 9.32514 16.103 11.7957
H 10.3469 17.2545 12.9852
Si 10.2753 12.1117 14.1451
O 9.5858 10.9394 13.0894
C 9.76063 11.9919 15.8501
H 9.09586 11.2052 16.2233
H 10.5895 12.0176 16.5929
H 9.23906 12.9212 15.9919
C 12.0898 11.5798 13.9004
H 12.1516 10.5348 14.2885
H 12.1644 11.5886 12.8165
Si 8.71819 9.66571 13.5077
O 8.19984 8.75829 12.2272
C 7.31257 9.74849 14.7861
H 7.48786 9.31243 15.7251
H 7.12645 10.8083 14.8372
H 6.31666 9.35362 14.3733
C 9.39008 3.65399 13.7171
H 10.2195 3.81821 13.0051
H 8.72616 4.53125 13.7818
H 8.86286 2.75635 13.4032
Si 8.71688 7.66687 11.0131
C 6.99049 6.885 10.6698
H 6.38636 7.55988 10.0527
H 6.35302 6.84341 11.5756
C 9.563 6.20988 11.6692
H 9.93582 5.55195 10.8338
H 10.4477 6.37312 12.3031
H 9.0136 5.49511 12.2957
Si 17.6006 1.8606 14.4725
O 17.165 16.3099 15.2369
C 19.4795 1.98672 14.4326
H 19.9578 1.95995 13.4655
H 19.7841 2.94592 14.8783
H 19.9161 17.1021 15.1284
C 16.442 3.27336 14.8625
H 16.7596 4.08021 14.1921
H 15.4019 2.96771 14.7333
H 16.5169 3.7903 15.83
Si 17.5549 15.935 16.858
O 17.2101 14.3252 16.7075
C 19.3069 15.8833 17.2799
H 19.9518 15.3099 16.5542
H 19.6715 16.984 17.3028
H 19.5083 15.5024 18.2973
C 17.1041 17.0215 1.76836
H 17.4942 16.4723 2.64392
H 17.7914 2.00496 1.72044
H 16.0222 17.2562 1.85832
Si 15.7585 13.5661 16.5595
O 15.807 12.8305 15.0569
C 15.3716 12.3793 17.9104
H 16.287 12.0967 18.3445
H 14.7859 12.8333 2.10707
H 15.1069 11.3864 17.5899
C 14.7884 15.1423 16.733
H 15.0699 15.999 16.1086
H 13.6632 15.0923 16.5875
H 14.9702 15.4264 17.7466
Si 14.8211 12.0501 14.0033
O 15.644 10.7781 13.5383
C 13.2088 12.1056 14.7855
H 13.1899 11.4886 15.6874
H 13.0944 13.1482 15.2114
C 14.5833 13.2305 12.5833
H 13.856 13.9818 13.0069
H 15.4596 13.8427 12.3813
H 14.1226 12.6647 11.7684
Si 15.4872 9.11459 13.881
O 14.5855 8.31653 12.8211
C 16.9887 8.20235 13.979
H 17.0302 7.82516 14.9989
H 16.8932 7.22392 13.4417
H 18.0253 8.66484 13.9077
C 14.8416 9.15147 15.7724
H 13.948 9.76068 16.0561
H 14.8296 8.24886 16.395
H 15.7969 9.55961 16.1644
Si 14.4506 7.95247 11.1699
C 13.1353 6.63265 11.1908
H 13.1283 5.8913 10.38
H 13.3431 6.03982 12.0696
H 12.1957 7.22242 11.3174
C 16.2115 7.34357 10.6978
H 16.8725 8.22347 10.7764
H 16.7057 6.59783 11.3441
H 16.382 7.04893 9.67241
523
 Atoms. Timestep: 5000
Si 3.07176 13.5542 3.3564
O 3.05228 11.803 3.19023
C 2.16827 14.3988 1.79335
H 19.5181 14.749 2.24679
H 2.94294 15.1158 18.0701
H 1.95527 13.744 17.4768
C 4.81327 14.1479 3.16807
H 4.70351 15.1543 3.71928
H 5.63912 13.5285 3.61956
H 5.00209 14.4644 2.1291
Si 20.0628 10.8375 2.77235
O 2.33133 9.21702 2.78761
C 19.1018 11.2175 17.7936
H 18.7645 12.293 18.0942
H 19.71 11.2044 16.8084
H 18.3822 10.4124 17.6911
C 18.9256 10.6593 4.17112
H 18.4044 11.6398 4.29462
H 18.0827 10.1025 3.83522
H 19.4302 10.3891 5.06471
Si 3.79026 8.75108 18.1265
O 4.34015 7.46296 2.36456
C 5.06953 10.0088 17.9435
H 5.31769 10.1862 16.8603
H 4.93408 10.9548 1.97176
H 5.86315 9.49551 1.93491
C 3.09609 8.41625 16.4927
H 3.9561 8.3253 15.8012
H 2.61395 7.42223 16.3718
H 2.47828 9.14171 15.9333
Si 5.47355 6.25916 2.30621
O 4.55909 4.88065 2.37022
C 6.6766 5.98303 3.74909
H 7.36174 6.81396 3.7943
H 6.23052 5.97137 4.77595
H 7.10668 4.9327 3.81616
C 6.81831 6.58969 17.5919
H 7.71297 6.88853 18.0839
H 7.0553 5.56295 17.2063
H 6.67412 7.23642 16.7385
Si 4.06917 3.33062 2.10765
O 5.08178 2.22732 2.72784
C 3.58125 2.77984 17.0398
H 4.08942 1.9389 16.5958
H 2.56668 2.48239 17.1941
H 3.65211 3.55711 16.2256
C 2.46346 3.10841 3.02429
H 20.0893 3.86998 2.59298
H 1.98532 2.17837 2.67697
H 2.41215 3.0662 4.09651
Si 5.94781 17.1448 3.77012
C 7.73983 16.7488 3.1703
H 8.19175 17.4122 2.48094
H 8.34467 17.0784 4.07311
H 7.92455 15.6928 3.02344
C 5.88078 2.49608 5.17138
H 5.89773 3.48485 4.71993
H 4.82783 2.431 5.4585
H 6.52729 2.23617 6.00798
Si 11.5208 14.6711 1.92465
O 11.045 13.2292 2.42229
C 10.5254 15.6206 17.3174
H 9.51116 15.7499 17.7645
H 10.9063 16.6666 17.1755
H 10.5366 15.1749 16.3202
C 11.8987 15.7232 3.44598
H 12.2738 16.6559 3.07105
H 11.0525 15.997 4.0666
H 12.6581 15.2273 4.02669
Si 10.0879 12.3419 3.35061
O 10.8949 10.9282 3.73603
C 8.62729 12.0553 2.30596
H 8.12178 12.9954 2.24351
H 8.62173 11.7433 17.9206
H 8.03631 11.4625 2.99892
C 9.29859 13.2504 4.77033
H 9.49653 13.2986 5.8339
H 9.17253 14.2646 4.50115
H 8.25172 12.9196 4.75274
Si 12.0219 9.83413 3.3024
O 11.5517 8.50939 2.3462
C 12.8345 9.14433 4.83042
H 13.6175 9.72823 5.37679
H 12.1285 8.86463 5.61865
H 13.375 8.22695 4.43823
C 13.0173 10.8839 2.19486
H 14 10.4557 2.05135
H 12.7289 11.217 17.7791
H 13.094 11.9318 2.57379
Si 10.3265 7.91436 18.1049
O 10.9274 7.75304 16.6033
C 8.77885 8.85937 18.1774
H 9.07175 9.83729 17.8138
H 8.15046 8.55758 17.3198
H 8.04594 8.84369 2.41879
C 10.3357 6.1012 2.2817
H 9.96293 6.10341 3.39434
H 9.69613 5.41285 1.72178
Si 10.6253 6.88978 15.1697
O 10.3197 5.38935 15.6586
C 12.0308 7.04177 13.9856
H 11.8987 6.30565 13.2211
H 12.1887 7.90504 13.3647
H 13.0112 6.91421 14.5152
C 9.25197 8.09265 14.5882
H 9.208 8.92049 15.3153
H 9.89044 8.36449 13.6953
H 8.46763 7.36239 14.5881
Si 10.0732 3.72778 15.7163
C 9.17988 3.51466 17.3269
H 8.27217 4.14353 17.2566
H 8.97121 2.47354 17.6006
H 9.63069 3.82101 18.2507
C 11.8206 3.17995 15.6583
H 12.4694 4.05393 15.7348
H 12.1001 2.46798 16.4404
H 12.0775 2.76472 14.6703
Si 19.1958 8.00027 2.60188
O 18.4149 8.01713 4.05714
C 20.0375 6.40683 2.09492
H 20.0814 6.43969 17.5285
H 2.75782 6.31138 2.53401
H 19.2965 5.51672 2.16484
C 18.1218 8.41157 17.7755
H 17.2527 9.05904 17.9623
H 18.6018 8.87716 16.9548
H 17.819 7.39905 17.5863
Si 16.7106 7.88212 4.18657
O 16.0508 6.8911 3.00313
C 16.0296 7.49586 5.9264
H 15.2113 6.72823 5.85215
H 16.8191 7.19667 6.64558
H 15.6952 8.43624 6.36565
C 15.9122 9.57197 3.56813
H 16.3674 10.301 2.9284
H 14.9902 9.18612 3.07087
H 15.5728 10.1103 4.48203
Si 15.5784 5.43799 2.6228
O 14.303 5.07565 3.64574
C 14.9726 5.74749 17.4776
H 14.2865 5.12896 16.8582
H 14.4769 6.76395 17.5373
H 15.907 5.94141 16.8605
C 16.6991 3.95949 2.45502
H 17.6842 4.32313 2.05736
H 17.029 3.57794 3.43359
H 16.2391 3.18611 1.84648
Si 12.7338 4.40687 3.33607
O 11.816 4.05107 4.60273
C 11.7767 5.7192 2.34006
H 12.5554 6.48305 2.65494
H 12.2011 5.67695 17.8813
C 13.4633 3.0097 2.39191
H 14.3125 3.27706 1.74601
H 13.772 2.17029 3.07296
H 12.8239 2.3858 1.781
Si 11.1311 4.72594 5.93655
O 11.6603 4.06282 7.40702
C 9.29758 4.40832 5.785
H 8.74777 4.06503 6.67608
H 8.88805 5.33404 5.39672
H 9.29979 3.59899 5.02267
C 11.9002 6.40714 5.88511
H 11.1132 7.17285 5.88789
H 12.5876 6.55583 6.68591
H 12.3489 6.54577 4.85023
Si 13.1943 3.57937 7.85881
C 14.4043 4.46191 6.79072
H 15.2466 4.78577 7.43077
H 14.8065 3.72279 6.05019
H 14.1251 5.34067 6.22301
C 13.4607 4.2259 9.63955
H 14.1917 4.96129 9.47735
H 12.5064 4.69618 9.90715
H 13.6228 3.48101 10.4743
Si 2.56219 14.7838 5.3012
O 3.86452 14.7762 6.33431
C 2.12666 16.5079 4.75047
H 19.3502 16.5797 4.32476
H 2.29554 17.3124 5.40809
H 2.76302 16.5705 3.91623
C 19.5181 13.7164 6.17931
H 1.92781 12.7657 6.35018
H 19.3263 14.0048 7.23018
H 18.5095 13.4328 5.80073
Si 5.00199 15.0941 7.48931
O 4.84134 14.0899 8.81661
C 4.92707 16.8874 8.00326
H 4.42582 1.72956 7.30842
H 4.25883 16.9053 8.88319
H 5.87387 17.3844 8.34672
C 6.67372 14.477 6.73299
H 6.79552 15.1347 5.88394
H 7.40246 14.5249 7.56304
H 6.7207 13.3782 6.4391
Si 5.06704 12.4726 8.97228
O 5.3945 11.6258 7.40304
C 3.48297 11.6904 9.46344
H 3.2484 11.8918 10.5079
H 2.72029 12.1947 8.82727
H 3.49939 10.6482 9.16286
C 6.46917 12.1415 10.0922
H 6.47082 11.3161 10.7541
H 7.38841 12.1761 9.44889
H 6.51403 13.1194 10.631
Si 6.1613 10.3134 6.80125
O 7.77505 10.5915 6.93593
C 5.89861 8.7975 7.92005
H 4.96447 8.68078 8.34504
H 6.11643 7.91811 7.25828
H 6.6899 8.99695 8.66129
C 5.73952 10.2234 4.9744
H 4.99236 11.0514 5.0501
H 6.5541 10.8245 4.49408
H 5.33044 9.2756 4.66163
Si 9.28861 9.78124 6.95808
O 9.66549 8.94423 8.37122
C 8.86058 8.4464 5.55987
H 7.92384 8.78634 5.07298
H 9.64995 8.28189 4.79163
H 8.78154 7.41374 6.13611
C 10.4956 11.0804 6.77759
H 11.3894 10.7282 6.23493
H 10.119 11.9112 6.17175
H 10.8231 11.5153 7.74785
Si 10.2455 8.61124 9.92316
C 11.4015 7.21895 9.9919
H 11.7864 6.76825 10.8845
H 10.9712 6.28712 9.56135
H 12.1434 7.60389 9.26769
C 10.9293 10.0865 10.7037
H 11.3668 9.45939 11.5647
H 10.1691 10.8565 11.0246
Si 10.0327 17.0578 10.6234
O 10.8563 16.2962 9.45177
C 8.54615 2.0009 9.78051
H 8.78281 2.9624 9.39763
H 8.24492 17.2222 8.93921
H 7.64652 1.99801 10.4879
C 11.0175 2.42884 11.5981
H 11.8257 2.02098 12.2034
H 11.5148 3.07904 10.8678
H 10.4933 3.18508 12.1136
Si 10.1488 15.4187 8.09995
O 11.6047 15.0034 7.22623
C 9.30568 14.0805 9.09352
H 8.83937 13.3885 8.40062
H 10.1048 13.6521 9.65692
H 8.50204 14.5994 9.65196
C 9.54187 16.4498 6.79011
H 9.03957 17.3162 7.11696
H 10.4827 16.6983 6.19742
H 8.88385 16.0024 6.03459
Si 13.0553 15.3302 7.7819
O 14.0753 15.1831 6.38253
C 13.7125 14.7991 9.34889
H 14.5605 15.4787 9.61428
H 12.9463 14.7029 10.1629
H 14.1363 13.7873 9.31503
C 13.1794 17.4408 7.59376
H 12.7239 17.3112 6.59824
H 12.3785 17.3189 8.32078
H 14.2835 17.2239 7.81609
Si 14.7408 13.7745 5.74605
O 15.6467 12.861 6.74406
C 15.7549 14.2572 4.32181
H 15.2393 14.9734 3.64351
H 16.678 14.7669 4.71952
H 16.0239 13.4632 3.61075
C 13.3514 12.6524 5.65886
H 13.4657 11.8894 4.8937
H 13.1634 11.9107 6.39199
H 12.4091 13.233 5.48345
Si 15.8461 12.1407 8.22532
O 14.5522 11.4056 8.94134
C 16.569 13.4929 9.26495
H 17.6444 13.3613 9.32354
H 16.4388 14.5744 9.10804
H 16.3003 13.2399 10.2945
C 17.0593 10.7954 7.79822
H 18.078 11.194 7.66514
H 17.147 10.1841 8.71035
H 16.9615 10.3323 6.80465
Si 13.8777 9.96166 9.7351
C 12.2047 10.9054 10.0543
H 11.8499 11.4884 9.07426
H 12.5226 11.6878 10.7812
C 13.9494 8.75253 8.26758
H 13.1093 8.8661 7.54722
H 14.7769 9.16105 7.72902
H 14.3536 7.74466 8.54861
Si 2.18533 8.16217 7.97528
O 3.05485 6.7646 7.90545
C 18.673 7.88858 7.54911
H 18.5944 7.99414 6.42184
H 18.246 6.83643 7.74513
H 17.8812 8.54485 7.83094
C 2.86687 9.53361 6.94608
H 3.73471 9.9895 7.41716
H 3.07175 9.14116 5.92047
H 2.01376 10.2349 6.90516
Si 3.51164 5.69538 6.76102
O 2.53469 4.39228 7.03817
C 3.03529 6.40241 5.07439
H 3.47909 5.6759 4.36564
H 1.97659 6.57519 4.88114
H 3.83551 7.15349 4.96345
C 5.38693 5.25319 6.83864
H 5.90263 6.19203 7.01077
H 5.51518 4.50649 7.63308
H 5.73701 5.01141 5.87431
Si 19.1767 4.13897 7.09418
O 19.2896 2.39708 7.27225
C 18.561 4.79157 8.83674
H 19.1596 5.66266 8.87431
H 17.5504 5.11858 9.13027
H 18.7401 4.09089 9.65321
C 18.4985 4.48356 5.45187
H 18.1414 3.50033 5.13148
H 17.682 5.22046 5.11366
H 19.3972 4.74025 4.84966
Si 17.8851 17.3083 7.66207
O 18.5068 16.2132 8.76482
C 16.4375 2.44867 8.25288
H 15.7548 2.00737 9.04789
H 16.9012 3.38503 8.51257
H 15.562 2.64457 7.62969
C 17.4403 16.2696 6.27363
H 16.8331 16.8617 5.57927
H 18.3203 15.8812 5.78959
H 16.8407 15.3839 6.68132
Si 19.235 16.2299 10.3091
O 18.0821 16.5604 11.4044
C 2.0201 14.7496 10.5724
H 2.38223 14.4393 9.60866
H 2.83325 15.2598 11.157
H 19.9446 13.9197 11.1507
C 2.17219 1.91773 10.7358
H 2.62289 1.7058 11.759
H 3.04681 2.15853 10.1245
H 19.8393 2.80678 10.9867
Si 16.7797 17.1734 12.341
C 15.192 16.1845 12.4425
H 14.7204 17.0435 12.9177
H 14.6758 16.0309 11.4557
H 15.2457 15.3068 13.0911
C 16.5428 2.96496 11.3829
H 15.6614 3.55267 11.596
H 17.4826 3.53373 11.3657
H 16.3116 2.78807 10.3453
Si 3.28023 13.5746 13.8802
O 2.71426 12.5432 12.7617
C 3.86145 12.5524 15.5023
H 4.32023 13.2292 16.2431
H 2.98751 12.0513 15.8823
H 4.63655 11.7967 15.194
C 2.13424 14.8436 14.6746
H 19.2963 14.6631 14.7655
H 2.55313 14.898 15.6904
H 2.22795 15.8502 14.2463
Si 19.6152 11.6769 12.86
O 20.0349 10.0582 12.5951
C 18.5475 11.9115 11.379
H 18.4655 12.9369 11.1303
H 18.9831 11.2942 10.6126
H 17.5679 11.6563 11.7046
C 18.8186 11.6954 14.3969
H 18.1844 10.8403 14.2838
H 19.6037 11.5168 15.1047
H 18.2676 12.5956 14.6672
Si 2.83556 9.09006 11.8667
O 2.8741 7.84176 12.9234
C 4.5455 9.70627 11.7316
H 5.15359 8.91661 12.2279
H 4.98169 9.83151 10.6854
H 4.50834 10.6505 12.2581
C 2.18312 8.57204 9.96468
H 19.8169 7.75071 10.287
H 20.0363 9.62969 9.94279
H 3.29455 8.33243 9.90287
Si 2.40083 6.27668 13.1022
O 3.77164 5.3204 13.2258
C 19.5741 5.60896 11.7613
H 18.8631 6.40104 11.5335
H 20.1151 5.34153 10.906
H 18.9731 4.7386 12.2047
C 19.4102 6.10422 14.595
H 19.288 7.09039 15.0733
H 18.413 5.92176 14.1593
H 19.6506 5.2633 15.2513
Si 5.03814 4.25835 13.4741
O 6.22847 4.35322 12.235
C 5.73039 4.83853 15.1202
H 6.56989 5.58239 15.0436
H 4.93889 5.34486 15.7512
H 6.16819 3.91241 15.4872
C 4.66325 2.46193 13.2783
H 5.25404 1.77097 13.8399
H 3.54834 2.1665 13.345
H 4.79781 2.2219 12.2227
Si 6.03236 4.22574 10.6559
C 4.21252 4.44008 10.2666
H 3.55413 4.18708 11.0969
H 4.11333 5.46053 9.76977
H 3.81739 3.90576 9.38029
C 7.33047 5.11617 9.72128
H 7.14615 4.84625 8.67428
H 8.24264 4.57257 9.91359
Si 5.42069 14.3569 13.2386
O 5.97319 15.5845 14.3504
C 6.50408 12.9131 13.2404
H 6.57027 12.629 12.2014
H 7.50944 13.0918 13.5985
H 6.23806 12.0401 13.826
C 5.46716 15.4688 11.814
H 4.77531 16.2793 12.0589
H 6.47893 15.981 11.93
H 5.41443 15.181 10.803
Si 7.13347 15.2786 15.4475
O 8.46216 15.1757 14.493
C 7.07739 16.7396 16.6131
H 6.7668 16.3111 17.6068
H 8.01597 17.2859 16.6045
H 6.46778 1.66195 16.1331
C 6.70345 13.9105 16.6655
H 5.67562 14.0016 17.0375
H 6.62634 12.815 16.3756
H 7.54848 13.9445 17.4037
Si 9.75818 14.7285 13.5634
O 9.67399 13.0752 13.2675
C 11.3871 15.7215 14.1733
H 12.0563 15.1641 14.81
H 12.1057 15.888 13.3241
H 11.1555 16.6804 14.6259
C 9.42771 15.7128 11.9137
H 10.3346 15.2054 11.6158
H 8.61179 15.217 11.426
H 9.14409 16.5935 12.5373
Si 9.85368 11.5977 13.9187
O 8.53362 10.6758 13.5523
C 9.68081 11.8379 15.8347
H 10.5923 11.6992 16.4038
H 9.1754 12.816 16.1003
H 8.95443 11.0878 16.1613
C 11.591 10.7966 13.8652
H 11.4299 9.75947 14.1285
H 11.9301 10.857 12.7877
Si 7.84636 9.14231 13.4265
O 7.9135 8.51406 12.0101
C 6.29219 8.97248 14.373
H 5.6147 9.82665 14.5153
H 5.74004 8.14561 13.9421
H 6.6379 8.47489 15.3593
C 8.80403 2.99382 14.3067
H 7.7812 3.05815 14.6948
H 9.10397 1.97369 14.007
H 8.97164 3.68078 13.477
Si 8.68077 7.32311 11.0975
C 7.2462 6.65036 10.036
H 7.47242 7.10078 9.06763
H 6.26512 7.09037 10.3396
C 9.51739 5.91917 12.163
H 9.8775 5.14 11.419
H 10.4494 6.23715 12.6214
H 8.99259 5.38474 12.9982
Si 17.673 1.96219 14.4946
O 17.2906 16.5785 15.5564
C 19.4095 2.49807 14.9508
H 1.96617 1.71424 14.9219
H 19.7157 3.31685 14.2543
H 19.535 2.95966 15.9389
C 16.5141 3.31787 14.7941
H 16.55 4.16843 14.0987
H 15.4948 2.99075 14.624
H 16.693 3.85845 15.7343
Si 16.4271 16.3738 16.8936
O 16.2531 14.7818 16.8497
C 17.6809 16.6477 18.2324
H 17.3299 16.2064 2.57969
H 18.4794 15.9039 17.9344
H 18.1726 1.7989 1.8328
C 14.8066 17.2745 16.561
H 13.9567 16.6943 16.9012
H 14.8265 2.16275 17.3356
H 14.8044 1.73828 15.498
Si 14.9939 13.7054 16.5737
O 14.5798 13.4142 15.0295
C 15.7553 12.2185 17.5117
H 16.8159 12.6181 17.7453
H 15.2383 12.1697 1.84077
H 15.8573 11.2267 17.1339
C 13.3012 14.2751 17.9122
H 13.8486 13.9714 2.20158
H 13.5044 15.3479 17.6625
H 12.9799 13.5925 17.0491
Si 14.1031 12.0909 13.9644
O 15.6157 11.3068 14.2705
C 12.5401 11.4582 14.7884
H 12.6653 10.8929 15.6893
H 12.0967 12.4209 15.1635
C 14.0036 13.0692 12.5052
H 13.7988 14.1126 12.5327
H 14.8999 12.9791 11.8822
H 13.1817 12.6895 11.9235
Si 15.5747 9.65481 14.1315
O 14.6424 9.42745 12.803
C 17.0623 8.53264 14.1727
H 17.4624 8.66599 15.1836
H 16.6526 7.50274 14.219
H 17.8812 8.5262 13.4054
C 14.6918 9.0622 15.6326
H 13.6426 9.36045 15.8631
H 14.6918 7.96682 15.7268
H 15.4489 9.40849 16.3282
Si 14.9849 8.68815 11.312
C 14.4958 6.87163 11.4503
H 15.3795 6.36993 11.1404
H 14.0649 6.55157 12.4114
H 13.6952 6.52674 10.8144
C 16.782 8.56372 10.942
H 17.2164 9.58389 11.0116
H 17.1233 7.84724 11.7224
H 17.0801 8.17455 9.98067
523
 Atoms. Timestep: 5500
Si 4.19304 13.2807 3.51834
O 3.7029 11.7125 3.15641
C 4.59201 14.6515 2.10564
H 5.42983 15.1059 2.68719
H 5.12925 14.4483 17.8156
H 3.79259 15.3351 2.07122
C 5.82324 13.0178 4.2613
H 6.53059 13.8139 3.82283
H 5.69364 13.2954 5.33713
H 6.34026 12.0331 4.24326
Si 2.38074 10.9498 2.63206
O 2.54459 9.22973 2.06981
C 2.10945 11.9079 17.7949
H 2.68672 11.4792 16.8973
H 19.3297 11.9386 17.4497
H 2.13663 13.0468 17.9642
C 19.0045 11.228 3.55813
H 18.2716 10.8427 2.7661
H 18.83 10.8005 4.55032
H 18.5755 12.2404 3.47257
Si 4.15897 8.5379 17.9963
O 4.07178 6.97831 2.05356
C 5.52578 9.70689 2.10634
H 5.53031 10.6737 18.3487
H 4.94619 9.69052 3.0658
H 6.51779 9.19682 2.17984
C 3.88513 8.62923 16.1249
H 3.43975 9.59858 15.9394
H 4.85894 8.49222 15.6444
H 3.2439 7.79791 15.8361
Si 5.29237 5.70404 2.39157
O 4.52238 4.35382 2.85489
C 6.33335 6.40421 3.71512
H 5.62495 6.74483 4.48965
H 7.03163 5.67031 4.00364
H 6.91384 7.2564 3.38741
C 6.4625 5.17036 17.6894
H 7.51314 5.13323 18.1173
H 6.32346 4.08505 17.6075
H 6.47819 5.71775 16.7236
Si 3.92981 2.84197 2.56083
O 4.90137 1.98605 3.72096
C 4.11639 2.10976 17.545
H 4.92124 2.73157 17.1641
H 4.45596 16.9373 17.4995
H 3.24129 2.24204 16.8998
C 2.31702 3.14382 3.36893
H 1.9062 4.17869 3.25613
H 19.8074 2.43751 3.09983
H 2.42776 2.98998 4.45152
Si 6.28506 2.34918 4.51004
C 7.6798 2.12018 3.19893
H 8.4906 1.60355 3.72498
H 7.26477 1.49143 2.43762
H 8.09172 3.05023 2.80017
C 6.29196 3.78348 5.67773
H 5.34524 3.78331 6.23125
H 7.18259 4.00753 6.26694
H 6.21021 4.66001 5.03465
Si 11.915 14.7763 1.75114
O 10.9934 13.4445 1.86898
C 11.1989 16.0704 17.3241
H 11.7291 17.0223 17.0838
H 10.6534 15.7221 16.4583
H 10.2923 16.4383 17.9199
C 11.9497 15.6961 3.30314
H 11.0683 16.3412 3.40751
H 12.1762 15.0731 4.19975
H 12.8045 16.3296 3.44151
Si 9.93207 12.3963 2.67182
O 10.8601 11.3751 3.49493
C 8.41728 11.5989 1.96839
H 8.44683 10.5323 2.42598
H 7.52204 12.1905 2.29143
H 8.3431 11.612 17.5126
C 9.36641 13.5023 4.01576
H 9.18535 14.5497 3.88251
H 8.54506 12.9755 4.56802
H 10.2137 13.6004 4.68501
Si 11.6465 10.01 2.72613
O 10.6647 9.24117 1.80449
C 12.571 9.13403 4.07338
H 13.4812 9.75259 4.31795
H 11.9545 8.92363 4.91919
H 13.0629 8.28843 3.62562
C 13.0011 10.5943 18.2416
H 13.9221 10.0468 18.135
H 12.6007 10.8827 17.3174
H 13.326 11.5712 1.99215
Si 10.2332 7.79117 17.8127
O 11.2665 7.43259 16.44
C 8.47694 7.9376 17.2691
H 8.26884 9.03619 17.3098
H 8.075 7.69594 16.2759
H 7.85615 7.38535 17.9895
C 10.8158 6.34811 2.28908
H 10.927 6.68726 3.35402
H 10.0586 5.52036 2.19309
Si 11.0808 7.05069 14.9018
O 10.13 5.73748 14.9539
C 12.3938 6.87485 13.6596
H 12.7047 5.77935 13.6634
H 12.1285 7.23179 12.6938
H 13.3525 7.22745 14.0363
C 9.88822 8.50601 14.0859
H 9.59216 8.66667 15.1271
H 10.7314 8.96838 13.6136
H 9.47121 7.53307 13.6966
Si 10.5043 4.08935 15.1257
C 9.99252 3.75931 16.8335
H 8.94935 4.17666 16.7879
H 9.83007 2.71693 17.1834
H 10.7544 4.1808 17.4883
C 12.3789 3.70345 15.0722
H 12.9992 4.54851 15.3303
H 12.4854 3.01688 15.9233
H 12.662 3.06259 14.226
Si 19.3953 8.0408 1.69318
O 18.5376 8.24081 3.08634
C 19.6577 6.20421 18.1629
H 19.0819 5.76938 2.41263
H 19.0515 5.90537 17.2952
H 2.33972 5.83802 18.1487
C 18.9894 8.76136 16.747
H 17.8664 8.62137 16.3452
H 18.9624 9.87205 16.6388
H 19.6299 8.47118 15.8632
Si 16.9345 8.26377 3.54049
O 16.7141 6.67685 3.90119
C 16.6172 9.11282 5.15378
H 16.0272 8.54043 5.81006
H 17.5296 9.10251 5.73151
H 16.1727 10.1505 5.15536
C 16.0242 8.95417 2.21259
H 16.4511 9.9689 2.00436
H 15.8142 8.45837 17.9229
H 15.0606 9.15768 2.67774
Si 15.9424 5.54618 2.80539
O 14.3794 5.26959 3.32503
C 15.8787 6.08506 17.6532
H 16.276 5.19052 17.1785
H 15.0269 6.35697 17.0101
H 16.6298 6.84149 17.4449
C 17.0109 3.9529 3.07454
H 16.4485 3.22723 3.66966
H 17.1018 3.55089 2.00125
H 18.0104 4.06451 3.4793
Si 13.0113 4.49035 2.70705
O 12.0013 3.85205 3.83618
C 12.1603 5.91865 1.80432
H 12.8896 6.71588 1.76629
H 12.2503 5.5414 17.3937
C 13.6644 3.02511 1.76014
H 14.7665 3.01358 1.96122
H 13.2319 2.13331 2.22805
H 13.4957 3.24058 17.3581
Si 11.3037 4.51387 5.19396
O 11.6957 3.27253 6.20771
C 9.43285 4.36882 5.2235
H 9.16846 3.25177 5.21196
H 9.08953 4.88235 6.11582
H 8.81548 4.99442 4.53593
C 12.1547 6.0254 5.81191
H 11.5234 6.91844 6.01497
H 12.576 5.76714 6.81754
H 12.8715 6.44387 5.09584
Si 13.2313 2.76852 6.49707
C 14.3892 2.20831 5.21455
H 15.0553 3.06721 5.16489
H 14.948 17.1929 5.47969
H 13.8285 2.0282 4.28704
C 14.1584 3.91906 7.7099
H 14.8602 4.55122 7.22445
H 13.6004 4.51032 8.46739
H 14.64 3.07803 8.26264
Si 2.79883 14.0727 5.08082
O 3.82181 14.7604 6.20762
C 1.94896 15.5496 4.30547
H 19.5452 15.2739 3.51743
H 19.7607 16.1466 5.1207
H 2.66218 16.1985 3.79566
C 19.9178 12.9239 5.9476
H 2.03856 11.9363 6.20188
H 19.604 13.4104 6.93823
H 18.9162 12.7029 5.49842
Si 4.56709 15.2672 7.58276
O 5.56134 14.2633 8.383
C 3.13475 15.8697 8.60373
H 2.43997 15.0944 9.04436
H 3.41166 16.31 9.56512
H 2.47879 16.5601 8.04001
C 5.41057 16.7944 6.84643
H 4.58598 17.3569 6.34335
H 6.03217 17.2719 7.64578
H 6.02901 16.4244 6.01632
Si 5.34129 12.7338 8.98839
O 5.18916 11.9822 7.56062
C 3.86601 12.7937 10.1518
H 4.14082 13.476 10.9813
H 3.11697 13.3609 9.58783
H 3.46426 11.8854 10.6473
C 6.84166 12.2501 9.8972
H 7.53065 11.4891 9.50975
H 7.30885 13.1767 10.1253
H 6.49733 12.0056 10.9134
Si 5.63305 10.35 7.52432
O 7.24056 10.1409 7.47502
C 4.70194 9.35462 8.78547
H 3.74284 9.93645 8.73174
H 4.49468 8.34293 8.44544
H 5.10326 9.29723 9.85487
C 5.12061 9.46615 5.96996
H 4.15369 9.72728 5.57331
H 5.76431 9.83369 5.10273
H 5.20777 8.35863 6.12985
Si 8.72177 9.63112 7.10535
O 9.53788 8.99379 8.32467
C 8.30732 7.8932 6.23074
H 7.99582 7.87222 5.15833
H 9.23463 7.20573 6.2737
H 7.41771 7.58442 6.8804
C 9.92361 10.7371 6.38783
H 9.99884 11.631 7.04016
H 10.916 10.3326 6.28119
H 9.57067 11.0698 5.37286
Si 10.4098 8.3675 9.57753
C 11.6466 7.01742 9.01255
H 11.7489 6.26497 9.84868
H 11.1456 6.39312 8.25137
H 12.7201 7.20036 8.79548
C 11.2231 9.76527 10.5471
H 11.3596 9.61461 11.64
H 10.4808 10.4769 10.5962
Si 9.39786 17.1154 10.2767
O 9.13735 16.008 9.00251
C 7.85289 2.39464 10.4731
H 8.11271 2.84318 9.47619
H 6.93144 1.86223 10.7699
H 8.20071 3.02826 11.3562
C 10.7104 2.64483 9.92643
H 10.4925 2.98518 8.894
H 10.4176 3.516 10.5361
H 11.771 2.39739 10.0366
Si 9.21053 15.6768 7.40756
O 10.7814 14.9546 7.36004
C 8.10212 14.2605 7.11089
H 7.54319 14.1971 6.10362
H 8.70758 13.3382 7.17027
H 7.34204 14.2701 7.86702
C 8.96227 17.2854 6.63465
H 8.48406 2.19607 7.23309
H 9.99233 1.87952 6.53793
H 8.54919 17.1013 5.6552
Si 12.1863 15.2617 8.11422
O 13.4703 14.5823 7.33501
C 12.2931 14.4702 9.76414
H 12.9276 13.5587 9.54655
H 12.8651 15.0743 10.4697
H 11.3399 14.1186 10.1147
C 12.7205 17.0893 7.75737
H 13.8092 17.0325 7.99003
H 12.2989 16.6612 6.73368
H 12.219 1.77725 8.52249
Si 13.9409 13.2962 6.55864
O 14.8895 12.3551 7.66365
C 14.8588 14.0429 5.06639
H 15.9399 13.8117 5.0143
H 14.3559 13.6856 4.13503
H 14.7321 15.1117 5.13259
C 12.6595 12.3208 5.68927
H 11.8404 12.9828 5.4115
H 12.9502 11.8586 4.75657
H 12.1476 11.4885 6.14976
Si 15.8168 12.0046 9.15176
O 15.3425 10.6873 9.85588
C 15.6718 13.344 10.3564
H 16.062 14.219 9.83524
H 14.6091 13.612 10.5143
H 16.4104 13.1404 11.1564
C 17.4304 11.7773 8.24476
H 17.5164 12.4295 7.34475
H 18.38 11.7925 8.80208
H 17.331 10.7992 7.73945
Si 14.1567 9.49033 9.51197
C 12.4851 10.4451 9.92802
H 12.2245 11.0616 9.03413
H 12.8565 11.3372 10.3542
C 14.2104 9.03166 7.70075
H 14.5821 9.85803 7.10672
H 14.4811 8.00138 7.29309
H 13.1248 9.01088 7.32099
Si 19.3877 8.40744 8.45367
O 20.0011 6.86729 8.57299
C 17.5881 8.13186 8.12867
H 17.3802 7.93168 7.11275
H 17.242 7.18293 8.62275
H 16.7514 8.76422 8.29498
C 19.9992 9.60937 7.21339
H 2.74528 9.90561 7.28442
H 19.757 9.41968 6.15651
H 19.5787 10.5588 7.63054
Si 2.06254 5.70534 7.3702
O 19.8547 4.21449 7.81076
C 19.9984 5.87103 5.48663
H 20.1673 4.88149 4.95529
H 19.1213 6.32828 4.99506
H 2.66456 6.42064 5.28418
C 3.89911 6.0876 7.31103
H 4.1121 6.48671 8.34596
H 4.75858 5.34085 7.23098
H 3.93879 6.88316 6.53707
Si 18.1493 3.67804 7.49339
O 18.2188 2.10105 8.21012
C 17.0621 4.74556 8.57725
H 17.7311 5.28325 9.33311
H 16.735 5.55666 7.95267
H 16.2444 4.2571 9.15989
C 17.9211 3.49121 5.71949
H 17.0595 2.8345 5.64362
H 17.66 4.46956 5.40766
H 18.6872 3.19666 5.03419
Si 17.5045 16.5828 8.66471
O 18.6429 15.7935 9.75842
C 15.8192 16.9725 9.40074
H 15.1647 16.1098 9.69745
H 15.8437 1.81025 10.1974
H 15.2796 1.76867 8.66863
C 17.1476 15.5741 7.06333
H 17.7315 16.1134 6.30692
H 17.6245 14.6333 7.11837
H 16.1152 15.4254 6.71661
Si 19.088 16.6106 11.1524
O 17.6923 17.079 11.8314
C 20.1041 15.4265 12.131
H 2.33072 14.7278 11.4719
H 2.59949 15.9713 12.5068
H 19.536 15.0517 12.9884
C 2.0324 2.13804 10.5377
H 1.87181 2.34388 9.48602
H 20.0064 3.02576 11.162
H 3.11803 2.00608 10.8356
Si 16.6399 1.98967 12.9152
C 14.9423 16.9923 12.7538
H 14.5405 17.2487 11.7649
H 14.9339 15.9207 12.7916
H 14.3666 1.53196 13.5921
C 16.0985 3.77453 12.5897
H 16.0156 4.37942 13.4682
H 16.7913 4.13342 11.8285
H 15.1349 3.59512 12.1675
Si 3.83688 13.7557 14.508
O 2.83835 12.6896 13.5003
C 4.6646 12.6247 15.7409
H 4.60117 13.3305 16.5911
H 4.22671 11.7125 16.164
H 5.71834 12.4595 15.5731
C 2.6946 14.9125 15.569
H 2.99438 14.9901 16.599
H 2.69932 15.9544 15.2106
H 19.9479 14.6294 15.5278
Si 19.8349 11.7962 13.2955
O 20.2426 10.2646 12.9103
C 18.9408 12.4175 11.7083
H 18.3906 13.3551 11.8349
H 19.5258 12.396 10.7981
H 18.3476 11.4658 11.6401
C 18.7674 11.8439 14.8633
H 17.799 11.4042 14.6155
H 19.3557 11.3722 15.6745
H 18.4855 12.8912 15.1876
Si 2.77874 9.32785 12.0569
O 2.88237 7.8342 12.7199
C 4.5468 9.93493 11.8195
H 5.17344 9.08213 11.6171
H 4.7976 10.7348 11.0585
H 4.80418 10.3822 12.7515
C 19.9317 9.11066 10.3147
H 19.1281 8.48522 10.8106
H 19.8756 10.2034 10.1863
H 2.5562 8.66269 9.94823
Si 2.53134 6.25705 12.9181
O 3.86217 5.46615 12.1786
C 19.5544 5.68442 11.6782
H 18.8545 5.04323 12.2422
H 18.9983 6.39671 11.1469
H 19.9863 5.04678 10.8599
C 1.95647 5.99778 14.6722
H 19.5749 6.72981 15.1104
H 19.649 5.07157 14.8158
H 2.87492 5.90721 15.3087
Si 5.13584 4.64612 12.8527
O 6.21063 4.37103 11.6678
C 6.20084 5.66631 14.0272
H 7.11274 6.0311 13.437
H 5.53726 6.49435 14.3437
H 6.37907 5.01087 14.8654
C 4.37848 3.11396 13.5901
H 4.90789 2.18842 13.973
H 3.84419 3.41599 14.4696
H 3.73323 2.65898 12.7785
Si 6.51669 4.05389 10.1656
C 5.13074 3.30992 9.33528
H 5.14968 2.22995 9.67871
H 4.03653 3.60634 9.51302
H 5.31009 3.31518 8.23096
C 7.48673 5.43407 9.3392
H 7.22485 5.54662 8.29768
H 8.54479 5.23617 9.34775
Si 5.74408 14.6708 13.4289
O 6.47259 15.4165 14.617
C 6.69746 13.064 13.0154
H 7.02455 12.6545 13.9825
H 6.17557 12.2272 12.5272
H 7.6301 13.2105 12.4877
C 5.48651 15.8836 12.0898
H 6.12151 15.792 11.2411
H 4.4876 15.8755 11.5525
H 5.67028 16.9 12.4554
Si 7.81154 15.9219 15.3906
O 9.04437 15.6282 14.3367
C 7.6846 1.80568 15.9673
H 6.95358 2.46735 15.441
H 7.33522 1.82821 16.974
H 8.70606 2.1927 15.9117
C 7.67371 15.2647 16.9922
H 8.50504 15.5407 17.6415
H 6.80139 15.9464 17.2848
H 7.47115 14.1736 17.2064
Si 10.1852 15.0071 13.4697
O 10.0868 13.3704 13.1511
C 11.8862 15.4999 13.9226
H 11.859 15.9897 14.8797
H 12.4933 14.5779 13.9513
H 12.3032 16.1166 13.1301
C 9.83265 16.2949 11.9776
H 10.6832 15.8171 11.4277
H 8.86819 15.8064 11.9902
H 9.99037 17.2157 12.4444
Si 10.2009 11.921 13.9601
O 9.18407 10.9833 13.0684
C 9.43102 12.1685 15.7537
H 8.37111 12.4323 15.8347
H 9.64218 11.2772 16.4656
H 10.0291 12.9829 16.1246
C 12.0195 11.5513 14.1839
H 12.1411 12.051 15.1418
H 12.0611 10.454 14.3896
Si 8.45983 9.53227 13.2001
O 8.32874 8.89761 11.6388
C 6.9324 9.77139 14.2975
H 6.41395 10.6822 13.9757
H 6.1918 9.02474 14.1861
H 7.10173 9.91236 15.3749
C 9.77555 3.08785 13.8099
H 10.3432 3.43007 12.9313
H 8.71803 3.35109 13.6062
H 9.74607 2.01064 13.9974
Si 8.77835 7.54162 10.8046
C 7.26541 6.87543 9.9242
H 6.91541 7.52756 9.10262
H 6.45308 6.73292 10.6244
C 9.29769 6.08347 11.7727
H 8.72834 5.77578 12.6611
H 9.49067 5.16539 11.2141
H 10.2666 6.3013 12.1359
Si 17.7063 1.80304 14.944
O 17.6135 16.4301 16.0517
C 19.4904 2.40284 14.6036
H 1.74133 1.70668 14.0093
H 19.3472 3.32186 14.0298
H 20.0797 2.81872 15.43
C 16.9178 3.32985 15.7155
H 17.5308 4.23611 15.5392
H 15.8327 3.46067 15.4426
H 17.0626 3.15624 16.7897
Si 16.5513 15.9145 17.1247
O 16.0269 14.4192 16.6742
C 17.7495 15.9183 1.88395
H 18.3971 15.0039 1.81538
H 18.3694 16.8258 1.88822
H 17.2639 15.7899 2.89831
C 14.9863 17.0072 17.1719
H 15.3027 2.08992 16.7487
H 14.2486 16.4382 16.5823
H 14.77 17.0124 18.2755
Si 15.1079 13.15 17.1286
O 14.6309 12.2565 15.8795
C 15.9664 12.3043 2.00097
H 16.1178 12.8233 2.9517
H 15.3768 11.4336 2.31957
H 17.008 11.8887 18.3624
C 13.5822 13.9558 17.8972
H 13.7518 13.829 2.37072
H 13.6892 14.9737 17.5002
H 13.0337 13.0859 17.4005
Si 14.9797 12.1629 14.2145
O 15.6533 10.6629 14.0369
C 13.2842 12.0342 13.3421
H 13.0261 13.0381 12.9292
H 13.4187 11.4685 12.3939
C 16.0068 13.4143 13.5694
H 15.8815 14.1798 14.3615
H 17.0795 13.2034 13.4406
H 15.7178 13.9055 12.6115
Si 15.1246 9.07352 14.0787
O 14.4063 8.86014 12.5637
C 16.3494 7.76379 14.3973
H 17.3284 8.10969 14.2299
H 16.1048 7.70434 15.4316
H 16.2524 6.73607 14.0154
C 13.9845 9.08247 15.4778
H 12.9911 9.34228 15.1354
H 13.9648 8.07359 15.9878
H 14.263 9.80807 16.2449
Si 14.8126 8.06325 11.1301
C 14.3207 6.25577 11.0322
H 14.2149 5.99284 12.0716
H 13.3038 6.02319 10.6797
H 14.9605 5.52173 10.5109
C 16.7318 7.99218 11.1443
H 17.0478 8.56565 12.0545
H 17.1286 6.9667 11.3294
H 17.1449 8.63507 10.3836
523
 Atoms. Timestep: 6000
Si 3.62458 13.0755 3.19773
O 3.12589 11.5377 2.87303
C 3.58786 13.9167 18.271
H 2.54013 13.9842 17.9639
H 4.00255 14.8983 18.1627
H 4.15275 13.2506 17.6329
C 5.29101 12.9007 3.87648
H 5.77932 13.788 4.31662
H 5.33713 12.1062 4.69996
H 6.11955 12.6538 3.17934
Si 1.88538 10.6835 2.29428
O 2.42027 8.91256 2.33653
C 19.8914 11.0512 17.1463
H 2.1363 10.347 16.4589
H 18.8969 10.9776 16.7118
H 2.24264 11.9513 17.0975
C 18.5808 10.875 3.2265
H 17.8836 10.2763 2.62903
H 18.4398 10.3903 4.24802
H 18.2917 11.9782 3.2581
Si 3.99646 8.56215 18.2492
O 4.5789 7.21372 2.26414
C 5.21742 10.0081 1.7763
H 4.92231 11.0297 2.03605
H 5.93931 9.80516 2.54524
H 5.79762 10.2082 17.4393
C 3.71114 8.39351 16.4829
H 3.23913 9.19679 15.9079
H 4.6608 8.28771 15.9468
H 3.01889 7.54069 16.2211
Si 5.40281 5.67649 2.56024
O 4.18689 4.80091 3.15613
C 6.70051 6.14583 3.87072
H 7.28565 7.03303 3.70537
H 6.33144 6.29733 4.89617
H 7.29492 5.26654 3.84062
C 6.4014 4.76315 17.8911
H 5.86098 3.94852 17.3935
H 6.69213 5.52892 17.1222
H 7.34009 4.43616 18.3444
Si 3.87848 3.14709 3.2216
O 5.02971 2.56143 4.20454
C 4.18816 2.00691 1.7455
H 5.04691 2.1473 17.6872
H 4.33257 17.019 2.48087
H 3.25095 1.66746 17.9607
C 2.22994 2.59895 3.93743
H 2.24352 2.33395 4.99595
H 19.9095 3.48726 3.97274
H 20 1.80482 3.42153
Si 6.33459 1.82091 4.98442
C 7.40755 16.9914 3.62093
H 8.43067 17.2462 3.85546
H 7.2725 15.864 3.48708
H 7.16694 1.53208 2.64773
C 7.07525 3.04327 6.13738
H 8.10723 2.64349 6.42746
H 7.26312 4.06671 5.78582
H 6.4767 2.96629 7.13199
Si 11.5968 14.7826 2.27016
O 10.7616 13.4396 2.22157
C 10.507 16.0202 18.0314
H 11.0136 16.966 18.0833
H 10.3615 15.5916 17.0153
H 9.52532 16.0197 1.93004
C 12.4087 15.1161 3.93908
H 13.0855 16.0049 3.81783
H 11.7646 15.0668 4.83513
H 13.0143 14.1959 4.03234
Si 9.74053 12.3603 2.93919
O 10.6728 11.0842 3.25456
C 8.42329 11.7085 1.74949
H 8.54789 11.6173 17.2966
H 8.10849 10.7094 2.13704
H 7.40602 12.2493 1.80985
C 8.70549 13.2139 4.20754
H 8.63727 14.2134 3.69348
H 7.6977 12.8116 4.27132
H 9.26546 13.3763 5.09135
Si 11.657 9.83294 2.84074
O 10.4452 8.95552 2.07658
C 12.4035 8.98869 4.30972
H 13.1291 8.18011 4.32186
H 12.9975 9.73488 4.86269
H 11.5211 8.74381 5.01683
C 13.007 10.1124 18.2522
H 13.3802 9.17678 17.8324
H 12.6885 10.7269 17.3752
H 13.811 10.6773 2.05785
Si 9.88503 7.73941 17.7788
O 10.8391 7.79489 16.3047
C 8.02911 7.77289 17.8425
H 7.61536 8.74854 17.5765
H 7.5611 6.98553 17.2551
H 7.82972 7.5901 2.28775
C 10.3066 6.08148 1.84911
H 9.9363 6.26798 2.81831
H 9.772 5.19728 18.2044
Si 11.0172 6.98014 14.8626
O 10.3492 5.44672 14.881
C 12.6327 6.73895 14.0154
H 12.8777 5.73987 13.5683
H 12.8365 7.5143 13.1919
H 13.4787 7.1099 14.5403
C 9.90737 8.31798 13.9288
H 10.2097 9.11007 14.5918
H 10.4865 8.13639 13.0091
H 8.95767 7.76739 14.0222
Si 10.5644 3.85956 15.1999
C 9.46748 3.48932 16.6658
H 8.55929 3.99603 16.2946
H 9.2494 2.42486 16.8211
H 9.6758 3.77744 17.7067
C 12.3744 3.28129 15.0518
H 12.9147 4.0084 15.7078
H 12.4363 2.22596 15.3658
H 12.8401 3.42407 14.0683
Si 19.3619 7.72465 2.18839
O 18.5709 7.92258 3.66303
C 20.0595 6.12646 1.90258
H 19.6127 5.46526 2.59678
H 19.6663 5.69666 17.6226
H 2.79466 6.13142 1.9073
C 18.3488 8.42034 17.3254
H 19.1125 8.67949 16.5793
H 17.6469 7.69219 17.0469
H 17.7671 9.35296 17.6573
Si 16.7903 7.87127 3.5419
O 16.3822 6.28363 3.12447
C 16.4971 8.34694 5.28765
H 16.925 7.66482 6.07495
H 16.924 9.29187 5.64976
H 15.4285 8.33673 5.50459
C 15.5992 8.88353 2.5669
H 15.5917 8.99688 18.1034
H 14.6295 8.56088 2.93176
H 15.8277 9.91378 3.00152
Si 15.3473 5.12688 2.71156
O 13.8786 5.12088 3.67836
C 14.9834 5.60623 17.5129
H 14.8754 4.80678 16.7469
H 14.0634 6.22595 17.6074
H 15.7621 6.26616 17.0333
C 16.4065 3.65386 2.94551
H 17.0359 3.54285 2.08588
H 17.0544 4.05936 3.70644
H 15.8303 2.81646 3.29578
Si 12.3057 4.60435 3.2761
O 11.3283 4.77902 4.60988
C 11.7817 5.86394 1.92017
H 12.1397 6.93972 2.01933
H 12.0402 5.5857 17.5154
C 12.291 2.77519 2.82673
H 12.9026 2.15762 3.52335
H 11.2607 2.36145 2.89761
H 12.6277 2.39824 1.82363
Si 11.1672 4.92853 6.32342
O 11.9016 3.6959 7.04949
C 9.45485 5.34124 6.3161
H 9.39335 6.35987 5.75247
H 8.80231 4.6284 5.731
H 8.94071 5.5367 7.27798
C 12.3932 6.38182 6.70217
H 12.004 7.23825 7.26517
H 13.13 5.79249 7.29191
H 12.9215 6.73637 5.79709
Si 13.404 3.00562 7.50365
C 14.6072 3.07993 6.00508
H 14.6516 2.19527 5.32494
H 14.453 3.92556 5.35992
H 15.6562 3.01794 6.28098
C 14.0827 3.52166 9.17433
H 15.0232 4.14421 9.08787
H 13.3464 4.11286 9.80429
H 14.3029 2.62823 9.85347
Si 2.41658 14.1411 4.95252
O 3.01161 15.17 6.10637
C 19.3071 15.1751 4.33809
H 19.3705 16.2655 4.49454
H 19.3582 15.0936 3.15988
H 18.363 14.7486 4.48196
C 20.1679 12.6061 6.00672
H 2.78237 11.9389 5.89994
H 19.8921 12.9694 6.99591
H 19.3155 12.2137 5.39226
Si 4.171 15.2023 7.26308
O 4.93004 13.847 7.68838
C 3.51862 15.9418 8.79499
H 3.25702 15.1163 9.46899
H 4.12786 16.6604 9.34089
H 2.63293 16.4694 8.39215
C 5.49919 16.2865 6.2998
H 4.88615 17.2143 6.43435
H 6.35349 16.3236 6.93494
H 5.52569 15.499 5.58623
Si 5.16852 12.4397 8.34147
O 5.13867 11.3641 7.06665
C 3.69625 11.9045 9.42448
H 3.95797 12.1919 10.4515
H 2.75833 12.3707 9.20467
H 3.664 10.8064 9.46743
C 6.5838 12.2774 9.43885
H 6.43205 11.3651 10.0418
H 7.47497 12.1179 8.86687
H 6.68847 13.0845 10.1508
Si 5.77911 9.83412 6.95544
O 7.48067 9.9055 7.4013
C 4.86744 8.64593 8.03633
H 5.44227 7.69928 7.99724
H 4.79531 9.04112 9.02662
H 3.86343 8.3356 7.66934
C 5.48184 9.35116 5.17036
H 4.35184 9.55882 5.06447
H 6.00005 9.97805 4.50995
H 5.76417 8.33727 4.89044
Si 8.96564 9.59706 6.72801
O 9.90505 8.60472 7.85367
C 8.64213 8.92283 5.00827
H 9.18698 7.95548 4.79469
H 7.57969 8.66952 5.03096
H 8.8096 9.55518 4.07876
C 9.7653 11.2571 6.72631
H 9.21918 12.1094 6.35639
H 9.98554 11.5198 7.76826
H 10.7407 11.2512 6.16335
Si 10.3131 8.12897 9.40382
C 11.2977 6.46245 9.31603
H 11.458 6.04924 10.3368
H 10.8925 5.74024 8.611
H 12.3176 6.61653 8.93261
C 11.1771 9.56906 10.0861
H 11.5645 9.6025 11.0988
H 10.3203 10.2031 10.3417
Si 9.45469 17.3288 10.1743
O 9.43915 16.3909 8.84195
C 7.83532 2.59609 10.2593
H 7.67945 2.80131 9.15952
H 7.06293 1.8347 10.6107
H 8.2856 3.30578 10.9486
C 10.9254 2.43695 10.4134
H 11.2734 3.13329 9.59564
H 10.8879 3.06596 11.3096
H 11.8168 1.83633 10.564
Si 9.72866 15.383 7.48438
O 11.0217 14.4193 7.75752
C 8.22718 14.2584 7.76604
H 7.74147 13.7321 6.93845
H 8.52073 13.4634 8.44616
H 7.44778 14.7244 8.3222
C 9.9497 16.6525 6.09398
H 8.97595 16.7271 5.54525
H 10.0282 1.72556 6.62539
H 10.8359 16.8032 5.47446
Si 12.5442 15.0712 8.06913
O 13.6737 14.6385 7.06411
C 12.6532 15.0647 9.86453
H 11.9095 14.2509 10.2139
H 13.6434 14.833 10.2663
H 12.2649 15.9856 10.281
C 12.7838 17.0415 7.60215
H 13.6955 16.7442 8.19828
H 12.8238 16.8967 6.52154
H 11.7687 17.2058 8.00108
Si 14.7192 13.7329 6.11001
O 15.9452 13.0149 7.00784
C 15.5502 15.1761 5.15587
H 15.0403 15.9896 5.59643
H 16.5881 15.2119 5.41636
H 15.3869 15.1873 4.08624
C 13.9914 12.297 5.0948
H 12.9458 12.1299 5.35463
H 14.1005 12.3972 4.04578
H 14.6271 11.4629 5.34814
Si 16.0011 12.0883 8.47644
O 14.6404 11.3244 8.72157
C 16.2929 13.262 9.9912
H 16.8688 12.9395 10.9045
H 16.9819 13.9985 9.55114
H 15.3485 13.6708 10.2887
C 17.5013 11.0056 8.0352
H 18.1847 10.5212 8.72642
H 17.1343 10.1808 7.43854
H 18.08 11.5755 7.32808
Si 13.9614 9.85021 9.08959
C 12.2029 10.4882 9.38659
H 12.0113 10.8723 8.42374
H 12.3511 11.2503 10.1104
C 13.9798 8.87902 7.5082
H 13.1843 9.0795 6.7704
H 14.8045 9.44983 6.9615
H 14.2311 7.7905 7.52598
Si 19.5204 8.04726 8.32464
O 1.8861 6.46877 7.93341
C 17.784 7.94837 8.87985
H 16.9656 7.99732 8.18201
H 17.6187 6.96145 9.39084
H 17.4486 8.64134 9.59023
C 19.8642 9.09943 6.86695
H 19.4629 8.66504 5.88471
H 19.5079 10.1104 6.70425
H 2.62308 9.05226 6.69119
Si 2.65196 5.22334 7.1481
O 2.32896 3.61877 7.691
C 20.0763 5.44994 5.5033
H 19.1163 4.96741 5.62848
H 19.9188 6.53523 5.23815
H 2.28203 5.06117 4.58577
C 4.53074 5.15192 6.97329
H 5.03335 6.14371 6.73495
H 4.93284 4.88901 7.93727
H 4.67938 4.43759 6.11271
Si 19.0659 2.92837 7.81006
O 19.0431 17.4375 8.82079
C 18.1944 4.09335 9.12964
H 18.8241 4.08988 10.0366
H 17.8709 5.11062 8.77033
H 17.3318 3.46674 9.45922
C 18.2425 2.31678 6.24371
H 17.1794 2.1847 6.53689
H 18.2375 3.07431 5.49227
H 18.7242 17.3107 5.81173
Si 17.8819 16.2346 9.11084
O 18.2638 15.991 10.6853
C 16.1791 16.7654 8.8524
H 15.5272 15.8562 9.17359
H 16.0493 1.75098 9.56652
H 15.9696 17.0917 7.83253
C 18.438 14.7821 8.08276
H 18.2302 15.0285 7.02002
H 19.4507 14.3952 8.24472
H 17.7281 14.0235 8.20759
Si 18.7451 16.7744 12.0034
O 18.1772 2.43484 12.1766
C 18.5389 15.8123 13.6431
H 19.0451 14.7962 13.6779
H 19.046 16.3219 14.477
H 17.4743 15.82 14.0572
C 2.30771 16.8626 11.9601
H 2.69251 17.4372 11.1339
H 2.84669 17.1735 12.8531
H 2.55903 15.7891 11.9075
Si 17.2315 2.98323 13.4169
C 15.707 2.08477 13.1251
H 14.9688 2.8168 12.7614
H 15.7545 17.1103 12.4572
H 15.3959 17.474 14.0668
C 17.0024 4.76372 13.2793
H 16.2889 5.04648 14.0554
H 17.8968 5.35447 13.4959
H 16.6101 4.9717 12.3041
Si 4.11651 13.4466 13.9429
O 2.86355 13.0431 12.8936
C 4.51088 11.9298 14.9514
H 5.10098 11.975 15.8604
H 3.65378 11.2171 15.0466
H 5.15588 11.4267 14.2606
C 3.44758 14.8789 14.8653
H 2.80794 15.5114 14.221
H 2.91435 14.5827 15.754
H 4.19461 15.5738 15.2729
Si 19.9016 12.1678 12.5509
O 2.16057 10.6282 12.161
C 19.1846 12.8884 11.055
H 18.6579 13.8369 11.195
H 20.0218 13.2431 10.4632
H 18.6907 12.143 10.428
C 18.414 12.0292 13.8674
H 18.9867 11.9021 14.7853
H 17.8857 12.9757 13.8422
H 17.6527 11.3056 13.6517
Si 3.02248 9.23272 11.7191
O 2.79744 8.04406 12.7802
C 4.8341 9.51484 11.7258
H 4.91815 9.51515 12.8379
H 5.38871 8.64892 11.51
H 5.36167 10.3847 11.3503
C 2.02138 8.66262 10.0093
H 19.6606 8.07635 10.701
H 20.0082 9.72037 9.83905
H 2.93632 8.19373 9.65979
Si 2.9244 6.35481 12.823
O 4.52113 5.97552 12.5447
C 19.9966 5.6737 11.5443
H 19.0674 6.27269 11.7169
H 20.2271 5.59343 10.4864
H 19.7066 4.63864 11.8065
C 2.19687 5.88405 14.5169
H 19.9791 6.75943 15.0141
H 19.8322 5.02534 14.4091
H 2.85253 5.4867 15.3095
Si 5.67897 4.99902 13.3133
O 6.38627 4.38429 11.9442
C 6.74627 5.77804 14.6257
H 7.42054 6.57359 14.246
H 5.99049 6.15722 15.2856
H 7.33658 4.93003 15.0171
C 4.91012 3.52246 14.189
H 5.2991 3.46373 15.2395
H 3.81215 3.49416 14.1863
H 5.2521 2.54148 13.6977
Si 6.35698 4.13584 10.3887
C 4.67652 3.69202 9.98675
H 4.51578 3.2699 8.96318
H 4.24962 2.96762 10.6865
H 4.07042 4.65808 10.0286
C 7.07505 5.45 9.34112
H 6.51908 5.34181 8.40096
H 8.10795 5.08465 9.16766
Si 6.09741 14.2979 12.7956
O 6.77819 15.6273 13.5101
C 7.10592 12.6644 12.7827
H 7.38113 12.4798 13.8171
H 6.5313 11.8045 12.3943
H 8.00491 12.6328 12.1564
C 5.86525 15.1556 11.1602
H 5.17096 14.6932 10.4288
H 5.47123 16.1631 11.4062
H 6.72362 15.2451 10.5319
Si 7.49792 15.4879 15.0577
O 9.1329 15.4117 14.6932
C 7.13076 17.1141 15.8045
H 7.37527 1.9987 15.0354
H 6.12383 17.1729 16.1992
H 7.80606 17.2807 16.637
C 7.13659 13.9654 16.1461
H 7.52848 14.3254 17.1164
H 6.05112 13.8087 16.5054
H 7.61622 13.0089 15.9481
Si 10.0762 15.081 13.4509
O 9.97047 13.5518 13.0428
C 11.8986 15.4781 14.0087
H 12.6086 15.8278 13.232
H 11.8048 16.1289 14.8472
H 12.3564 14.6497 14.5468
C 9.60613 15.9977 11.8804
H 10.2754 15.3981 11.2674
H 8.52415 15.643 11.7536
H 9.77731 17.0742 12.2289
Si 10.4639 12.0212 13.6149
O 9.38469 11.042 12.8799
C 10.5169 12.1042 15.4957
H 9.53668 12.5597 15.8074
H 10.5645 11.084 15.8612
H 11.3963 12.6976 15.88
C 12.1098 11.4703 12.9595
H 12.5833 10.8064 13.6889
H 11.919 10.8088 12.0773
Si 8.47902 9.6233 13.0174
O 8.19274 9.0306 11.4606
C 7.22403 9.65262 14.3284
H 7.01678 8.77073 14.9838
H 7.60767 10.4208 15.063
H 6.28184 10.1088 14.034
C 9.68074 2.93905 13.8528
H 10.304 2.72786 12.9872
H 8.75597 3.4897 13.5294
H 9.32899 1.99674 14.3303
Si 8.52482 7.51851 10.6887
C 6.98743 6.80603 9.87722
H 6.90237 7.48303 9.02318
H 6.08115 6.98868 10.5141
C 9.02652 6.14522 11.8485
H 8.62469 6.09135 12.8409
H 8.97175 5.13333 11.4545
H 10.1513 6.32519 12.0096
Si 18.156 2.54197 15.5331
O 17.2498 17.2432 16.2131
C 19.8558 1.98591 15.6584
H 1.9918 1.7316 14.6933
H 2.14454 2.84034 15.965
H 19.998 17.0138 16.365
C 18.2398 3.96587 16.7517
H 17.2212 4.28505 16.9678
H 19.0333 3.71853 17.475
H 18.5361 4.90578 16.1851
Si 16.1086 16.51 17.1548
O 15.4353 15.2405 16.2921
C 16.7278 16.0017 2.14593
H 17.6697 15.4598 2.27116
H 16.5803 16.7718 2.92327
H 16.0038 15.1469 2.40964
C 14.7104 1.82719 17.4725
H 14.7596 2.52296 18.2952
H 14.3742 2.33612 16.5097
H 13.6857 17.1139 17.5284
Si 14.7106 13.801 16.5641
O 13.889 13.3123 15.2377
C 15.7768 12.5061 17.2636
H 16.7061 12.5412 16.7506
H 15.908 12.8475 1.63371
H 15.2579 11.5383 17.5527
C 13.241 14.162 17.7285
H 13.8175 14.7125 1.88998
H 12.6777 14.7604 17.0187
H 12.7636 13.1985 17.8102
Si 14.1928 13.0963 13.7222
O 15.0103 11.6378 13.6929
C 12.9251 12.6946 12.5222
H 12.3586 13.523 12.0525
H 13.5125 12.3817 11.5998
C 15.2172 14.3223 12.9464
H 15.007 15.1439 13.6098
H 16.2619 14.1139 13.0088
H 14.8022 14.5811 11.9667
Si 14.9411 10.0255 13.8942
O 14.2122 9.42522 12.5555
C 16.4527 9.10073 14.6401
H 16.1598 8.05184 14.9062
H 17.3909 9.03826 14.057
H 16.5608 9.59491 15.6178
C 13.8464 9.69096 15.3772
H 12.7508 9.50414 15.211
H 14.1903 8.85334 15.9686
H 13.919 10.6815 15.918
Si 15.0114 9.1168 11.083
C 15.0389 7.27659 10.7686
H 14.034 6.91935 10.3478
H 15.7839 7.10136 9.98443
H 15.1346 6.58972 11.6397
C 16.608 9.96372 11.4317
H 16.3537 10.8138 12.0692
H 17.429 9.47865 11.9685
H 16.9846 10.2692 10.4492
523
 Atoms. Timestep: 6500
Si 2.75238 12.6981 2.41719
O 2.2817 11.0693 2.33109
C 1.94726 13.7277 17.7032
H 19.0808 13.6101 17.7519
H 2.29496 14.7473 17.7585
H 2.19313 13.389 16.6837
C 4.58454 12.962 2.33664
H 4.75329 14.0482 2.64038
H 4.98781 12.2666 3.06805
H 4.87168 12.8164 17.8538
Si 19.0794 10.2479 1.99265
O 19.8447 8.63939 2.02951
C 18.4324 10.9708 16.9175
H 18.5108 10.2243 16.0224
H 17.3823 11.4268 16.8514
H 19.0614 11.7693 16.5057
C 17.9034 10.4195 3.40778
H 16.8757 10.3582 2.99994
H 18.1688 9.66103 4.24263
H 17.8834 11.4713 3.75274
Si 3.35363 8.44019 18.0528
O 3.78344 7.16337 2.463
C 4.43753 9.86312 1.91742
H 4.44877 10.6263 17.7052
H 4.09923 10.2869 2.86342
H 5.55132 9.6455 2.18097
C 3.2242 7.82574 16.3448
H 2.64968 8.46176 15.5975
H 4.26827 7.82547 15.9606
H 2.69632 6.8931 16.3144
Si 4.82359 5.88364 2.16675
O 4.10182 4.50246 2.68404
C 6.27326 6.45386 3.2235
H 6.25623 7.53648 3.1646
H 6.18453 6.1719 4.26453
H 7.27258 6.18778 2.84735
C 5.41908 5.65371 17.1037
H 6.28852 5.00487 17.1007
H 4.70995 5.35087 16.36
H 5.98733 6.55289 16.7953
Si 3.90448 2.85494 2.50247
O 5.20663 2.1962 3.29164
C 3.94281 2.70586 17.2043
H 4.83485 3.15981 16.7861
H 3.84679 1.8202 16.5972
H 3.02103 3.29542 16.9335
C 2.46767 2.26003 3.38876
H 2.10877 3.10234 4.01655
H 19.7737 1.86632 2.90438
H 2.70513 17.1818 4.03874
Si 6.63794 17.2589 3.48047
C 7.09597 15.9831 2.29949
H 7.18986 16.2231 17.7991
H 8.12604 15.5748 2.61222
H 6.35933 15.1617 2.40871
C 7.75173 2.96712 3.82855
H 8.53439 3.03811 4.57334
H 8.08435 3.34495 2.81111
H 7.08126 3.71297 4.30978
Si 11.3201 14.6688 2.01905
O 10.2658 13.3902 1.73061
C 10.8336 16.2254 17.7586
H 9.79153 16.2342 17.3112
H 10.9053 17.0953 1.85844
H 11.4672 16.3452 16.8618
C 11.7056 14.8395 3.73438
H 12.7513 15.2048 3.74329
H 11.0382 15.6598 4.1391
H 11.5691 13.8871 4.25865
Si 9.35498 12.507 2.80752
O 10.3891 11.469 3.47055
C 7.93173 11.5509 2.18562
H 7.94209 11.4022 17.6583
H 8.00731 10.5131 2.5491
H 6.87287 11.9069 2.42467
C 8.64752 13.4506 4.36008
H 7.57996 13.7098 3.99536
H 8.60844 12.668 5.12279
H 8.96252 14.4272 4.68036
Si 11.2677 10.0665 3.08879
O 10.2046 9.07308 2.36028
C 12.1392 9.195 4.49553
H 13.1381 9.64142 4.41702
H 11.7694 9.38663 5.56406
H 12.1322 8.07207 4.42292
C 12.4682 10.6523 1.86559
H 12.6783 9.8969 17.6733
H 12.0334 11.4636 17.8392
H 13.4646 10.7629 2.37222
Si 10.0478 7.73148 17.9281
O 11.2408 7.98652 16.7048
C 8.25305 7.66562 17.4138
H 7.58319 7.87729 18.2381
H 8.20357 8.45369 16.6443
H 8.105 6.6944 16.9357
C 10.4223 6.26918 2.40441
H 10.0585 6.43233 3.46523
H 9.97259 5.26182 2.21916
Si 11.0176 7.1493 15.2076
O 10.1836 5.75459 15.4052
C 12.7255 7.02679 14.5211
H 13.4378 7.28976 15.2728
H 12.8635 6.02061 14.0193
H 12.8218 7.7883 13.6878
C 9.83715 8.27097 14.2097
H 10.1951 9.14664 14.7606
H 10.2667 8.19838 13.1831
H 9.00041 7.59553 14.489
Si 10.1426 4.10982 15.7808
C 8.82288 3.62546 16.9568
H 8.00814 3.18097 16.3962
H 9.21697 2.74484 17.5686
H 8.67994 4.42304 17.688
C 11.926 3.67157 16.4427
H 11.9969 2.79487 17.1065
H 12.5451 3.26944 15.5979
H 12.5624 4.5118 16.8173
Si 18.6661 7.18991 2.29231
O 17.9191 7.47295 3.66351
C 19.393 5.52998 2.19392
H 18.5674 4.7278 2.3127
H 19.8588 5.56044 17.7253
H 2.02705 5.31015 2.89011
C 17.7162 7.66992 17.3286
H 16.9734 6.86614 16.8745
H 17.0401 8.48603 17.4234
H 18.3747 7.94859 16.4942
Si 16.3094 7.52305 4.22291
O 15.9984 5.99708 4.30306
C 16.2194 8.58878 5.80524
H 16.8703 8.3804 6.62068
H 16.2845 9.69953 5.7267
H 15.2182 8.51394 6.32068
C 15.3255 8.46488 2.90639
H 14.6728 9.33665 3.14627
H 15.7876 8.59216 1.91567
H 14.5063 7.79944 2.64428
Si 15.4674 4.66191 3.53873
O 14.0786 4.2162 4.15015
C 15.2561 5.1105 1.80961
H 14.3467 4.52902 18.1281
H 14.9178 6.10853 18.1187
H 16.0572 4.77832 17.6994
C 16.8733 3.47391 3.56426
H 16.5991 2.56207 4.03077
H 17.1992 3.22333 2.58096
H 17.7002 3.94006 4.12261
Si 12.4289 4.56489 3.83352
O 11.8293 5.19658 5.2851
C 11.8989 6.02034 2.65062
H 12.3023 6.96082 3.07215
H 12.3956 5.87708 18.2107
C 11.683 3.03343 3.24527
H 10.5861 3.14485 2.94401
H 12.1867 2.54808 2.39636
H 11.7737 2.28316 4.06401
Si 12.0847 5.04546 6.91069
O 12.6407 3.6296 7.45667
C 10.244 4.96988 7.58442
H 9.5268 4.85517 6.6915
H 10.1347 4.11042 8.21974
H 9.82324 5.88897 8.08963
C 13.5093 6.20203 7.427
H 13.3586 7.24275 7.19079
H 13.6912 6.18533 8.51192
H 14.3802 5.89613 6.84121
Si 13.8407 2.50413 7.81703
C 15.2254 2.69303 6.47052
H 16.1732 2.59924 7.02781
H 15.0621 1.84613 5.80146
H 15.1113 3.61656 5.89682
C 14.3467 2.94171 9.54448
H 15.4616 2.89977 9.72587
H 13.9575 3.99152 9.80844
H 14.0236 2.24417 10.3816
Si 2.13778 13.7597 4.4218
O 3.46776 14.7823 4.79532
C 18.8745 14.8762 4.1328
H 17.969 14.423 4.49484
H 19.0892 15.8556 4.73599
H 18.6331 15.1419 3.13133
C 1.92176 12.4718 5.80896
H 2.39594 11.46 5.82289
H 2.05579 12.9564 6.81868
H 19.0646 12.1979 5.76889
Si 4.53605 15.1193 5.98755
O 5.20496 13.8537 6.68346
C 4.04 16.2744 7.34457
H 3.41499 15.9008 8.11302
H 4.87057 16.908 7.63878
H 3.3547 16.9955 6.84628
C 6.09302 16.2152 5.04742
H 6.0537 17.0047 5.85118
H 6.92492 15.542 5.16697
H 5.21578 16.1259 4.40086
Si 5.57793 12.6245 7.79952
O 5.2277 11.0743 7.34577
C 4.34214 12.8968 9.21451
H 4.06118 13.9789 9.32325
H 3.41803 12.2876 9.07543
H 4.63473 12.6836 10.2473
C 7.36804 12.6601 8.32926
H 7.62982 11.8441 9.0171
H 7.91117 12.6262 7.40658
H 7.62302 13.6629 8.81905
Si 6.21334 9.87139 6.62775
O 7.78092 10.2915 7.39305
C 5.50183 8.2028 7.10859
H 4.55529 8.19968 6.60948
H 6.06346 7.32976 6.69087
H 5.37254 8.19682 8.17928
C 6.00579 10.0421 4.80428
H 5.93689 9.08447 4.24239
H 4.99938 10.4403 4.55941
H 6.70483 10.5616 4.13761
Si 9.32057 9.62845 7.2862
O 9.85575 8.73779 8.49294
C 9.09825 8.34563 5.89624
H 9.99729 7.76834 5.6145
H 8.43704 7.58523 6.45692
H 8.70792 8.77962 4.96299
C 10.3573 10.9525 6.74137
H 10.2185 11.2601 5.71288
H 10.3187 11.8966 7.27257
H 11.3934 10.6552 6.91946
Si 10.3056 8.33053 10.1244
C 11.4124 6.90879 10.0524
H 11.7805 6.66557 11.0321
H 10.7273 6.05066 9.86275
H 12.215 6.75916 9.36743
C 10.9188 9.93201 10.9262
H 11.1628 9.56186 12.004
H 9.97836 10.4 11.0725
Si 10.0143 1.75448 10.6858
O 10.3259 16.8058 9.20397
C 8.34125 2.58856 10.8928
H 8.01386 2.96413 9.85541
H 7.70009 1.69199 11.0867
H 8.46872 3.39416 11.6672
C 11.4406 2.90917 11.0791
H 12.2934 2.16845 11.24
H 11.6912 3.52656 10.1742
H 11.2322 3.62558 11.8839
Si 9.47657 16.1561 7.96511
O 10.3138 14.7238 7.82115
C 7.61012 16.2357 8.13667
H 6.98855 15.9818 7.29401
H 7.39671 15.4809 8.87738
H 7.3947 17.1748 8.64448
C 9.84332 17.1911 6.4233
H 10.3206 2.31212 6.80324
H 10.6455 16.6899 5.84128
H 9.02203 1.82143 5.76983
Si 11.9812 14.7596 7.88217
O 12.6203 13.9211 6.6673
C 12.3216 14.2536 9.59763
H 11.4047 13.6854 9.92937
H 13.0769 13.4436 9.78305
H 12.387 15.0738 10.2703
C 12.9007 16.4019 7.63785
H 13.9033 16.0148 7.90933
H 12.6837 16.6388 6.59932
H 12.2612 16.9314 8.34778
Si 14.2274 13.7601 6.20795
O 15.1514 13.5077 7.47345
C 15.1764 14.976 5.19727
H 15.2988 15.8815 5.70147
H 16.1601 14.5731 5.21608
H 14.9124 15.0346 4.14943
C 14.4048 12.3758 4.94833
H 15.1443 12.7078 4.16468
H 14.8026 11.4571 5.23293
H 13.35 12.2568 4.56913
Si 15.8019 12.5555 8.67626
O 14.7766 11.3584 9.16328
C 16.3997 13.5007 10.1715
H 16.323 12.5903 10.8055
H 17.4421 13.7361 10.1733
H 15.9735 14.3622 10.6967
C 17.2592 11.5903 8.08562
H 17.6726 10.7649 8.61835
H 17.0246 11.1315 7.08991
H 17.9864 12.3615 7.77759
Si 13.7202 10.232 9.62801
C 11.9932 10.7967 10.2798
H 11.4656 11.2664 9.43686
H 12.1924 11.6428 10.9418
C 13.5202 9.18292 8.09106
H 12.4207 9.03797 7.97116
H 13.8099 9.64618 7.13481
H 14.13 8.26602 8.23564
Si 1.94545 8.28988 7.5755
O 2.6255 6.81659 7.70435
C 18.5242 8.14295 8.25085
H 17.9486 7.34398 7.77058
H 18.6255 7.72137 9.24704
H 17.8435 8.96647 8.39551
C 2.15113 8.93137 5.87982
H 3.07179 9.5181 5.78451
H 2.29266 8.15371 5.11775
H 19.6192 9.65195 5.40833
Si 2.60236 5.31232 6.91819
O 2.62749 3.88101 7.78081
C 19.2282 5.31062 5.78661
H 18.8941 6.2815 5.4456
H 19.4434 4.65433 4.9144
H 18.4288 4.79744 6.34053
C 4.2341 5.36391 6.04672
H 4.51368 6.36501 5.66431
H 4.9966 5.06924 6.78793
H 4.41768 4.52116 5.32027
Si 19.5664 2.88768 8.06993
O 19.8414 1.83421 9.34119
C 18.3738 4.23731 8.70532
H 18.7511 5.29915 8.58188
H 17.3887 4.06931 8.31815
H 18.2982 3.87917 9.76632
C 18.775 1.93813 6.58098
H 18.3592 2.49762 5.76649
H 19.4446 17.0573 5.98476
H 17.98 17.0795 6.97187
Si 18.8817 16.3142 9.66071
O 19.2028 15.7335 11.2036
C 17.1802 16.9759 9.62631
H 17.2051 17.418 8.62072
H 16.4331 16.2334 9.56957
H 16.8694 1.9465 10.3892
C 19.2681 15.1112 8.31059
H 19.7427 15.4122 7.3622
H 19.8603 14.2294 8.71237
H 18.3176 14.7739 7.90932
Si 19.1675 16.6037 12.6072
O 17.5956 17.0834 12.9733
C 19.5381 15.5343 14.1562
H 20.0651 14.6524 13.9249
H 20.0484 16.2843 14.7131
H 18.5442 15.2884 14.604
C 2.3875 2.12241 12.4688
H 2.47292 2.55368 11.4643
H 2.11942 2.91012 13.1997
H 3.42912 1.75095 12.6393
Si 16.3926 2.418 13.1317
C 14.6399 1.8226 13.0964
H 14.0578 2.57658 12.5813
H 14.4207 16.5779 12.8195
H 14.2634 1.91726 14.1298
C 16.8034 3.80228 12.0006
H 16.1718 4.62407 12.3647
H 17.8142 4.24894 12.1089
H 16.8286 3.811 10.8991
Si 4.25263 13.2696 13.9702
O 2.90464 13.0173 13.16
C 4.79823 11.7705 14.9564
H 4.94423 11.0687 14.1324
H 5.79122 11.9424 15.2763
H 4.23421 11.3195 15.7854
C 4.13458 14.9173 14.8865
H 4.16221 15.721 14.1623
H 3.14876 14.9688 15.4071
H 4.97325 15.1274 15.608
Si 2.05042 11.6145 12.4537
O 3.09246 10.9827 11.349
C 18.7446 12.2216 11.614
H 17.7909 11.8588 12.0929
H 18.6327 13.3284 11.8833
H 18.7684 12.1975 10.5212
C 19.9407 10.4654 13.9669
H 19.2154 9.66597 13.7714
H 2.72563 10.13 14.2468
H 19.6819 11.1871 14.6979
Si 3.73103 9.61754 10.7676
O 3.4491 8.32845 11.8653
C 5.48839 9.83489 10.5857
H 5.6887 10.4456 11.4814
H 6.01439 8.91942 10.6664
H 5.73045 10.4278 9.65868
C 2.7522 9.24849 9.16815
H 2.66793 8.21139 9.51131
H 20.0255 9.79913 9.17405
H 3.5089 9.66577 8.48318
Si 3.1539 6.74956 12.1926
O 4.60697 6.17185 12.7254
C 2.39477 5.81964 10.8448
H 19.5308 5.93183 10.6864
H 2.85945 5.95995 9.82913
H 2.54619 4.73309 11.2445
C 20.0346 6.48516 13.5992
H 19.3705 5.56324 13.481
H 2.19896 6.4648 14.6373
H 19.2718 7.27686 13.6426
Si 5.60296 5.01966 13.3522
O 5.9972 4.2859 11.9492
C 6.90551 5.98963 14.3419
H 6.46909 6.83669 14.897
H 7.32342 5.21885 15.092
H 7.70125 6.25681 13.653
C 4.60404 3.83744 14.4563
H 5.09095 3.95034 15.4099
H 3.68275 4.33446 14.6252
H 4.71969 2.71533 14.269
Si 6.44839 4.22593 10.3963
C 5.37802 2.91604 9.57217
H 5.38555 2.0498 10.2038
H 4.3946 3.33077 9.63923
H 5.73549 2.73353 8.51266
C 7.07923 5.75141 9.46039
H 6.29714 5.75521 8.62615
H 7.99537 5.48614 8.84441
Si 6.02807 14.1296 12.6074
O 6.79493 14.9912 13.7531
C 7.27252 12.8418 11.6453
H 7.76329 12.1002 12.2933
H 6.57323 12.4203 10.894
H 8.11323 13.3307 11.1191
C 5.67546 15.3091 11.2725
H 5.82426 16.3675 11.6409
H 6.31407 15.0654 10.4435
H 4.70638 15.3266 10.7361
Si 7.54754 15.3815 15.1341
O 9.11746 15.2401 14.9179
C 6.92911 17.1711 15.1294
H 6.10706 17.2618 14.4596
H 6.5131 17.4527 16.1139
H 7.71586 1.99683 14.6619
C 7.19914 14.2601 16.4578
H 7.89946 14.2348 17.307
H 6.13467 14.2069 16.8204
H 7.47718 13.3193 15.9227
Si 10.2702 14.9292 13.6758
O 10.0527 13.4627 12.9807
C 11.9559 15.7403 14.1471
H 12.7446 15.0309 14.4825
H 12.4063 16.401 13.3617
H 11.6578 16.3488 15.0121
C 10.115 16.1618 12.0249
H 11.1268 15.813 11.7883
H 9.19769 15.6555 11.6698
H 9.81847 17.0404 12.7364
Si 10.6099 12.0672 13.7032
O 9.47606 10.9394 13.079
C 10.1024 11.9921 15.5022
H 9.6366 11.0108 15.815
H 10.7742 12.263 16.2708
H 9.33887 12.7972 15.6207
C 12.4518 11.7462 13.3998
H 12.6711 11.5612 14.4505
H 12.8095 10.7492 13.0817
Si 8.62625 9.62366 13.5169
O 7.92532 8.91151 12.1747
C 7.29963 9.96527 14.6742
H 6.54994 9.1766 14.7938
H 7.6169 10.4148 15.6056
H 6.79397 10.7316 14.1147
C 9.83846 3.11187 14.1817
H 10.7842 3.37599 13.6102
H 8.95612 3.54062 13.7408
H 9.76941 2.03467 14.3394
Si 8.39603 7.59275 11.2581
C 6.95178 7.15531 10.1682
H 6.88699 7.98414 9.43672
H 5.97563 7.13321 10.6841
C 9.07907 5.90111 11.8629
H 8.23195 5.34611 12.2198
H 9.45927 5.34991 10.9439
H 9.95698 5.89923 12.5493
Si 16.59 3.43359 15.1441
O 16.0033 2.40503 16.3382
C 18.3373 3.43483 15.4814
H 18.7006 2.41063 15.657
H 18.9868 3.94273 14.7214
H 18.4972 3.88719 16.5105
C 15.4805 4.91475 14.7092
H 15.9651 5.93304 14.5458
H 14.8804 4.73541 13.7425
H 14.7319 5.05784 15.5043
Si 16.0042 16.7102 17.1168
O 15.1064 15.53 16.3355
C 17.6928 16.1645 17.2725
H 17.8355 15.107 17.4685
H 17.9192 16.1827 16.2161
H 18.462 16.7943 17.7958
C 15.0451 16.9989 2.10047
H 15.4599 16.7269 3.13646
H 15.1075 2.34523 2.11295
H 14.0005 16.7291 2.14541
Si 14.8685 13.9373 16.7967
O 14.4078 13.107 15.4786
C 16.1641 13.2309 17.7969
H 16.2568 13.6851 2.194
H 15.8688 12.1723 17.9923
H 17.1162 13.4576 17.2297
C 13.1881 13.9702 17.8863
H 13.3686 15.0189 1.75753
H 12.6129 13.9053 16.9336
H 13.2258 13.0064 1.94597
Si 14.9803 12.8226 13.9536
O 15.5852 11.2473 13.8643
C 13.4315 12.9353 12.8541
H 12.9308 13.9177 12.9283
H 13.8506 12.8704 11.8658
C 16.4546 13.8684 13.691
H 16.2834 14.9786 13.7531
H 17.1311 13.4819 14.462
H 16.8385 13.6992 12.7066
Si 15.1231 9.68689 14.2226
O 14.3523 9.25273 12.8832
C 16.6759 8.60368 14.3969
H 16.9423 8.19954 13.4082
H 17.2973 9.30302 15.0063
H 16.3929 7.80426 15.1321
C 14.2614 9.662 15.7828
H 14.6447 10.2719 16.5665
H 13.1672 9.72444 15.5977
H 14.4317 8.67854 16.1592
Si 14.8298 8.80156 11.2887
C 14.6857 7.05532 11.0796
H 15.2209 6.45773 11.8706
H 13.5812 6.81517 11.0455
H 15.0168 6.77996 10.0693
C 16.5758 9.55821 11.0539
H 16.8358 10.1411 11.9342
H 17.1808 8.64996 10.9472
H 16.6096 10.0649 10.1036
523
 Atoms. Timestep: 7000
Si 3.12005 12.9833 2.9957
O 2.84584 11.404 2.63412
C 2.1556 14.0642 1.77567
H 19.3941 14.3356 2.19306
H 2.72858 14.9647 18.1174
H 20.0738 13.6414 17.3325
C 4.94399 13.182 2.59426
H 5.28408 14.1745 2.83801
H 5.57828 12.3796 2.98622
H 5.1847 13.1307 18.0482
Si 19.6461 10.6648 2.06099
O 20.0703 8.70823 2.36097
C 19.2852 11.1822 16.9518
H 19.1159 10.3023 16.3536
H 18.3507 11.884 16.9548
H 20.0645 11.7944 16.5678
C 18.3913 11.1087 3.38192
H 17.3571 11.2035 3.09024
H 18.2366 10.5449 4.29358
H 18.6841 12.089 3.77142
Si 3.62064 8.24133 2.04979
O 3.68446 6.58432 2.26172
C 4.94434 9.13564 3.09239
H 5.50918 8.36203 3.65697
H 5.73106 9.72377 2.48406
H 4.53767 9.81849 3.82734
C 3.92531 8.70044 16.8425
H 4.67036 9.46905 16.8504
H 4.35653 7.79923 16.3185
H 3.08319 9.19192 16.2849
Si 5.09102 5.50604 2.40532
O 4.3553 4.18085 2.98328
C 6.49382 6.119 3.56762
H 6.05107 6.22548 4.59557
H 7.24747 5.32271 3.70769
H 6.97267 7.04514 3.25549
C 5.58807 5.25127 17.1778
H 6.40297 4.53059 17.1157
H 4.69368 5.10113 16.5308
H 6.06487 6.24157 16.968
Si 4.01969 2.63455 2.57462
O 5.08899 17.4129 3.23261
C 4.02717 2.44598 17.2705
H 3.60345 3.26633 16.7204
H 5.03454 2.54606 16.8369
H 3.63125 17.2362 16.9077
C 2.34362 2.24254 3.37758
H 1.92659 3.08713 3.96575
H 19.677 1.85744 2.75519
H 2.57436 17.2081 4.13749
Si 6.52783 17.1968 4.0106
C 8.03164 17.1248 3.00598
H 8.32233 16.1275 2.60615
H 8.11059 2.13167 2.20328
H 8.84369 17.4153 3.7139
C 6.72077 2.6119 5.40641
H 5.93579 2.33634 6.0852
H 7.63462 2.56833 6.00064
H 6.57123 3.68562 5.2466
Si 11.3968 14.8132 2.18432
O 10.3502 13.5803 1.78561
C 10.8583 16.0921 17.361
H 11.688 16.7752 17.0353
H 10.6538 15.5629 16.4256
H 9.97062 16.6695 17.6416
C 11.3846 14.8767 3.96519
H 12.4038 14.8407 4.37409
H 11.027 15.8439 4.26185
H 10.8639 14.0056 4.39546
Si 9.53747 12.4569 2.65499
O 10.7033 11.4874 3.40902
C 8.30859 11.3535 1.83248
H 7.90557 10.781 2.75143
H 7.53515 11.9296 17.8134
H 8.87465 10.7709 17.7006
C 8.45188 13.5744 3.86589
H 8.79748 13.3491 4.86172
H 8.60983 14.6276 3.9551
H 7.31311 13.443 3.80922
Si 11.5513 10.1884 2.87194
O 10.3162 9.20784 2.12909
C 12.4461 9.41266 4.34986
H 13.4931 9.59133 4.21528
H 12.1569 9.85391 5.31074
H 12.4354 8.35247 4.29646
C 12.5518 10.9884 18.0939
H 12.3182 10.5752 17.0712
H 12.3197 12.0757 18.0562
H 13.6553 11.0024 18.1981
Si 10.2356 7.7796 17.9635
O 11.2715 7.70958 16.6256
C 8.45791 7.56661 17.4388
H 7.77224 8.37917 17.7562
H 8.303 7.39232 16.3662
H 8.01462 6.64033 17.8416
C 10.8129 6.44428 2.61316
H 10.6372 6.85945 3.66478
H 10.1745 5.67209 2.25467
Si 11.0685 7.14241 15.1264
O 10.0766 5.84045 15.3046
C 12.2931 6.60738 13.8363
H 11.8594 6.75834 12.8668
H 13.2698 7.15349 13.9971
H 12.4218 5.4998 13.9686
C 10.05 8.41263 14.0725
H 9.14432 7.82579 13.9992
H 10.3062 9.24473 14.7532
H 10.6342 8.34932 13.1494
Si 10.0899 4.14372 15.6034
C 8.94587 3.82461 17.0393
H 7.86651 4.00474 16.6981
H 9.21322 2.77525 17.2696
H 9.13911 4.4331 17.9765
C 11.8321 3.51482 15.7478
H 11.8943 2.44799 15.9262
H 12.1766 3.84776 14.757
H 12.4499 4.07368 16.4876
Si 18.654 7.66329 1.95057
O 18.0247 7.95342 3.5262
C 19.2794 6.08949 17.8734
H 18.3624 5.46953 17.6468
H 19.9891 6.08963 17.0257
H 19.7567 5.43754 2.12818
C 17.7738 8.30671 17.0306
H 18.599 8.39624 16.1417
H 17.0616 7.55239 16.7135
H 17.2831 9.29886 17.1943
Si 16.4844 8.16248 4.02935
O 15.394 6.83694 4.16322
C 16.6153 8.77305 5.78821
H 17.707 8.7996 6.0508
H 16.2931 9.7902 6.02941
H 16.1822 7.96152 6.36095
C 15.6506 9.30467 2.81497
H 16.3176 9.64536 2.03204
H 14.87 8.74126 2.30162
H 15.0311 10.0586 3.28693
Si 15.3983 5.20756 3.56074
O 14.0915 4.41993 4.18951
C 15.145 5.1297 1.79897
H 14.5887 4.32335 17.8931
H 14.7845 6.07869 17.9127
H 16.1666 5.04944 17.9954
C 16.9463 4.32466 4.05003
H 16.8416 3.18829 4.03672
H 17.8575 4.53997 3.45351
H 17.4148 4.64322 4.94399
Si 12.578 4.20454 3.39677
O 11.4318 3.93512 4.64322
C 12.2739 5.83347 2.49906
H 13.0231 6.59448 2.86006
H 12.4881 5.67872 17.9257
C 12.3871 2.52368 2.42453
H 11.454 2.61604 1.86394
H 13.1166 2.22457 18.2382
H 12.1881 1.77399 3.1535
Si 11.4303 4.65464 6.14293
O 12.1192 3.58924 7.22419
C 9.59171 4.8814 6.48357
H 9.10407 5.10164 5.54159
H 9.21548 3.86337 6.73704
H 9.33512 5.63583 7.19595
C 12.2142 6.26194 5.90746
H 12.1963 6.91238 6.78821
H 13.308 6.12361 5.6837
H 11.7503 7.01247 5.21238
Si 13.5376 2.73723 7.63581
C 14.9502 2.96596 6.65616
H 15.6813 2.21792 6.93906
H 14.7721 2.95193 5.55767
H 15.354 3.95885 6.87291
C 13.99 2.98318 9.39887
H 15.0151 2.50319 9.47193
H 14.029 4.04991 9.61973
H 13.3779 2.49342 10.2055
Si 2.21495 13.8843 5.11327
O 3.37561 14.7525 5.88273
C 18.9428 14.8524 4.52971
H 19.0211 15.4773 3.66183
H 18.1195 14.0452 4.31089
H 18.687 15.4255 5.35449
C 19.6779 12.6426 6.33763
H 2.00475 11.6311 6.40056
H 19.5681 12.7894 7.42571
H 18.6998 12.302 5.88147
Si 4.77544 14.9756 6.62036
O 5.18868 13.538 7.22767
C 4.47368 16.374 7.76842
H 3.39877 16.4574 7.76851
H 4.68843 16.2079 8.81331
H 4.83995 17.298 7.36755
C 6.05745 15.5325 5.25319
H 5.0623 15.9826 4.89394
H 6.77007 15.7658 6.05477
H 6.43617 14.7031 4.70952
Si 5.39917 12.2951 8.42657
O 5.38909 10.7249 7.94703
C 3.9774 12.3505 9.61125
H 4.08462 12.7893 10.6478
H 3.21051 12.8078 9.04953
H 3.69393 11.2969 9.78703
C 7.1453 12.5904 9.02149
H 7.18831 11.7674 9.71731
H 7.90683 12.6026 8.23703
H 7.26615 13.5068 9.48052
Si 6.57785 10.1166 6.93171
O 7.95461 9.71525 7.82228
C 5.74774 8.46615 6.5477
H 4.94045 8.75314 5.81665
H 6.49582 7.76735 6.13085
H 5.29745 8.23378 7.46027
C 7.00089 11.1449 5.38579
H 7.81481 10.8979 4.78474
H 6.10786 11.0718 4.70613
H 7.28421 12.1376 5.69255
Si 9.45297 9.46685 7.08873
O 10.1895 8.47554 8.25194
C 9.13377 8.57911 5.31526
H 9.33747 7.46022 5.45983
H 8.04719 8.78213 5.06444
H 9.8063 9.00424 4.58931
C 10.0265 11.2434 6.80853
H 9.57827 11.4967 5.81793
H 9.74472 12.1236 7.36572
H 11.072 11.2626 6.50854
Si 10.5707 8.26361 9.84105
C 11.6882 6.69494 9.62032
H 12.0645 6.22084 10.5742
H 11.2156 5.79709 9.11017
H 12.6354 6.88328 9.11299
C 11.1682 9.79424 10.6621
H 11.593 9.52104 11.6541
H 10.2302 10.3436 11.0004
Si 9.91677 1.96609 10.4018
O 10.2356 16.858 8.96319
C 8.31897 2.99317 10.1881
H 8.59849 3.55797 9.36723
H 7.51549 2.23394 10.156
H 8.45996 3.64353 11.0876
C 11.1354 3.15908 10.9821
H 12.0065 2.8249 11.5689
H 11.4116 3.77601 10.1553
H 10.6116 3.7233 11.7392
Si 9.66561 16.0053 7.65803
O 10.6799 14.716 7.49941
C 7.92275 15.5624 8.16955
H 7.76988 15.1486 9.16441
H 7.32962 16.4739 8.16127
H 7.45852 14.8151 7.51517
C 9.77792 16.9734 6.16245
H 9.14867 2.11124 6.1133
H 10.8113 17.1945 5.91361
H 9.3388 16.4802 5.31548
Si 12.2879 14.7686 7.65127
O 13.0344 13.7552 6.55433
C 12.6243 14.5703 9.45586
H 11.5629 14.4211 9.83124
H 13.0066 13.5872 9.71177
H 13.1844 15.4056 9.85473
C 13.121 16.5343 7.38658
H 14.1919 16.2027 7.58811
H 12.7206 16.7381 6.36181
H 12.4496 16.8868 8.23841
Si 14.5624 13.5294 6.16888
O 15.4494 13.5469 7.62241
C 15.3302 14.9481 5.27594
H 15.6378 14.5574 4.28077
H 14.673 15.7782 5.19316
H 16.1667 15.2679 5.82381
C 14.6776 11.992 5.27668
H 15.6207 11.8502 4.7215
H 14.2957 11.0702 5.86104
H 13.9045 12.0843 4.49466
Si 15.7763 12.6121 8.95184
O 14.3901 11.7466 9.27522
C 16.2454 13.5894 10.4171
H 16.6096 13.1119 11.3022
H 17.0968 14.1654 10.0114
H 15.5 14.36 10.6242
C 17.1499 11.5131 8.18698
H 16.4276 10.7465 7.77196
H 17.6558 11.9875 7.33858
H 17.8405 10.8258 8.65312
Si 13.7571 10.1669 9.33346
C 12.0513 10.7721 9.92491
H 11.6083 11.2599 9.04299
H 12.2466 11.5648 10.6483
C 13.6912 9.11053 7.82771
H 13.3587 9.65034 6.89175
H 14.6056 8.62455 7.61987
H 12.8566 8.42021 8.14542
Si 20.0637 8.06633 8.28653
O 2.54667 6.54296 7.86794
C 18.3209 8.08319 8.7116
H 17.7736 7.17471 8.24505
H 18.218 7.82642 9.74824
H 17.8178 9.01205 8.43537
C 2.45388 9.12079 6.79096
H 3.03267 10.0334 7.06008
H 2.82025 8.52742 5.93308
H 19.7611 9.6248 6.23322
Si 2.80634 5.39037 6.7042
O 2.22649 3.91682 7.08299
C 1.96338 5.92894 5.10167
H 2.80678 6.27267 4.48515
H 19.6042 5.27202 4.4491
H 19.6288 6.86604 5.30799
C 4.62211 5.33746 6.54702
H 4.87952 4.51138 7.17642
H 5.04161 5.1544 5.58218
H 5.04326 6.0582 7.18655
Si 19.1386 2.94567 7.52006
O 19.4963 1.96764 8.84981
C 18.0291 4.1428 8.43243
H 16.9737 3.88498 8.36599
H 18.505 4.27868 9.40237
H 18.133 5.1671 7.92784
C 18.3518 1.78119 6.39555
H 17.9993 2.21271 5.43879
H 19.1893 16.8934 6.07984
H 17.4932 17.1621 6.90412
Si 18.5505 16.3632 9.26698
O 18.6385 15.927 10.8743
C 16.6843 16.7099 9.11877
H 16.1859 16.5094 10.0701
H 16.5403 2.0286 9.01743
H 16.0916 16.1481 8.45708
C 19.2916 14.9958 8.32756
H 19.7121 15.4272 7.3932
H 1.92259 14.4304 8.79712
H 18.4948 14.3272 8.01025
Si 19.0978 16.5742 12.3672
O 17.8081 1.8283 12.6541
C 19.1798 15.4642 13.8144
H 19.8174 15.8252 14.6032
H 18.1121 15.4247 14.1372
H 19.5483 14.374 13.7253
C 2.35441 1.82482 12.6011
H 2.77529 2.29581 11.6811
H 2.02459 2.72851 13.1338
H 3.22534 17.1153 13.0208
Si 16.1825 2.12453 13.0431
C 14.849 16.5814 12.6699
H 15.0937 15.5632 12.8283
H 14.2522 16.8359 13.5496
H 14.3303 16.7635 11.6924
C 15.8858 3.53674 11.8948
H 15.4644 4.49464 12.2568
H 16.5757 3.89154 11.0996
H 15.0177 3.16057 11.299
Si 4.05016 13.0912 14.334
O 2.66499 12.5952 13.6335
C 4.61027 11.6232 15.3306
H 3.93026 11.3753 16.1118
H 4.63804 10.7404 14.6865
H 5.61839 11.777 15.6645
C 3.63253 14.4922 15.5961
H 4.07662 15.5105 15.3392
H 2.55039 14.6891 15.6889
H 3.90782 14.3213 16.6225
Si 19.9871 11.4392 12.6881
O 2.91941 10.4744 11.9117
C 19.364 12.7627 11.4562
H 18.647 12.1917 10.8235
H 18.8387 13.4776 12.0477
H 1.91361 13.034 10.7563
C 18.7738 10.5253 13.5415
H 17.7715 10.9332 13.4924
H 18.9411 9.45741 13.5415
H 19.0257 10.9318 14.5667
Si 3.49905 8.9764 11.7693
O 2.87461 7.99618 12.7898
C 5.29922 9.43754 11.7569
H 5.34618 10.3165 11.1543
H 5.666 9.70429 12.7483
H 5.99396 8.70974 11.297
C 3.11679 8.50138 9.79935
H 4.09485 8.42939 9.33737
H 2.65793 7.58225 10.2399
H 2.69964 9.5511 9.62181
Si 2.37775 6.40083 12.7292
O 3.63412 5.52741 12.0958
C 19.0924 6.16552 11.6138
H 18.4693 5.33521 11.9607
H 18.4694 7.10266 11.5768
H 19.5702 6.06981 10.6004
C 2.22472 6.1046 14.4557
H 19.449 6.57689 14.6493
H 2.26433 5.13156 14.9795
H 2.96635 6.68972 15.0283
Si 5.10826 4.89724 12.7524
O 6.1393 4.28796 11.5597
C 5.94918 6.41746 13.674
H 5.12958 7.13162 13.9896
H 6.59176 6.08572 14.5286
H 6.62115 6.94549 12.933
C 4.6734 3.48826 13.7523
H 5.41101 3.51865 14.5687
H 3.61169 3.56994 14.056
H 4.8187 2.60868 13.1115
Si 6.8316 4.37376 10.1028
C 5.47155 3.50039 9.22609
H 5.2274 2.56897 9.71832
H 4.62313 4.18556 9.12168
H 5.80875 3.43282 8.15119
C 7.54662 5.77007 9.3492
H 7.38859 5.64431 8.23489
H 8.6151 5.63436 9.47138
Si 5.66458 14.0585 12.7782
O 6.80219 14.7585 13.6769
C 6.60312 12.6978 11.902
H 7.13851 12.3087 12.7526
H 5.82285 12.1786 11.3403
H 7.26786 13.2558 11.2243
C 4.9373 15.2592 11.5486
H 4.63764 14.7125 10.6103
H 3.89199 15.4819 11.8038
H 5.58463 16.212 11.5492
Si 7.56259 15.4698 14.9886
O 9.18781 15.5935 14.5225
C 6.78682 17.1445 15.2869
H 7.61656 1.85351 15.8365
H 6.56113 1.97232 14.3464
H 5.9053 17.0469 15.9129
C 7.3378 14.4741 16.6383
H 8.37066 14.3648 17.0239
H 6.74202 15.0662 17.343
H 6.8883 13.4526 16.4653
Si 10.2648 15.3144 13.3861
O 10.1343 13.6714 12.8246
C 11.867 16.1042 13.5381
H 12.3795 15.8532 14.4695
H 12.4951 15.6928 12.7485
H 11.915 17.2099 13.478
C 9.76597 16.2542 11.698
H 10.934 16.1001 11.6514
H 9.07815 15.5544 11.1644
H 9.30785 16.9771 12.447
Si 10.6591 12.2822 13.673
O 9.82325 10.965 13.0691
C 10.5406 12.7119 15.4991
H 10.203 11.8702 16.1298
H 11.6028 12.8943 15.9373
H 9.9028 13.5859 15.6988
C 12.4604 11.8136 13.3909
H 12.6686 11.0341 14.163
H 12.5952 11.1133 12.5859
Si 8.80372 9.76245 13.4541
O 8.06105 8.96159 12.1841
C 7.5595 10.1597 14.7184
H 7.89071 9.74753 15.6617
H 7.31999 11.1759 14.7278
H 6.69609 9.55824 14.5281
C 9.44581 3.40578 13.9903
H 9.59988 4.03414 13.1578
H 8.39562 3.1233 13.9959
H 9.9074 2.4659 13.7041
Si 8.51778 7.83765 11.0726
C 7.12816 7.17007 9.79813
H 7.26018 7.82938 8.9548
H 6.12091 7.16289 10.1993
C 8.99967 6.26495 12.1114
H 8.78315 6.39774 13.1557
H 8.37312 5.42047 11.8024
H 10.0596 6.09656 11.9042
Si 16.263 3.47416 15.0279
O 15.7069 2.50986 16.2772
C 18.0762 3.69699 15.3892
H 18.6048 2.94934 14.7199
H 18.3847 4.67135 14.976
H 18.1227 3.73974 16.5071
C 15.1333 4.93751 15.0509
H 14.903 5.49731 14.1819
H 14.1157 4.76823 15.2593
H 15.5532 5.6319 15.804
Si 15.9936 16.8449 17.1422
O 15.3939 15.3987 16.4406
C 17.8764 16.6655 17.1283
H 18.1307 17.2617 16.1856
H 18.4556 17.0008 17.9812
H 18.1566 15.6247 16.9614
C 15.4079 17.1288 2.34294
H 15.883 16.4387 3.12375
H 15.4654 2.38021 2.62355
H 14.3462 16.9211 2.45481
Si 15.0258 13.7966 16.9434
O 14.5292 12.6628 15.7952
C 16.1833 13.0242 18.098
H 17.0631 13.7362 18.1552
H 15.954 12.7149 2.6712
H 16.4469 12.1294 17.6204
C 13.2257 14.2545 18.0545
H 12.8844 14.2089 16.9504
H 13.2024 13.3131 2.1444
H 13.8163 15.0915 1.86575
Si 15.1256 12.5506 14.1885
O 15.7009 10.9358 13.8928
C 13.628 12.87 13.1793
H 13.3056 13.8946 13.4132
H 13.9014 12.9318 12.1042
C 16.6072 13.5487 14.2007
H 17.3499 13.35 14.9759
H 17.3534 13.5426 13.3593
H 16.3758 14.6639 14.3009
Si 15.1665 9.38517 13.9323
O 14.2567 9.27499 12.5874
C 16.5162 7.90055 13.8186
H 17.4997 8.1766 13.415
H 16.7025 7.35946 14.7625
H 15.992 7.29676 13.0875
C 14.1689 9.01237 15.4792
H 14.7595 9.45084 16.2947
H 13.201 9.47455 15.6089
H 14.0591 7.91062 15.6083
Si 14.6991 8.92469 11.0409
C 15.08 7.01769 10.4278
H 16.0923 6.50411 10.5068
H 14.2531 6.39443 10.8214
H 15.0081 6.95734 9.33816
C 16.3509 9.80514 11.0309
H 17.0582 9.17876 11.576
H 16.7016 9.94954 10.0099
H 16.2857 10.7926 11.4973
523
 Atoms. Timestep: 7500
Si 3.04516 12.6516 2.66571
O 2.93823 11.0505 1.99527
C 2.1775 13.7954 18.0094
H 19.3043 13.6509 18.0461
H 2.42019 14.8162 1.62939
H 2.5979 13.5639 17.0069
C 4.8003 13.1271 2.63393
H 4.90267 14.1992 2.51493
H 5.42658 12.8635 3.55249
H 5.43691 12.8717 1.76828
Si 19.8565 10.0875 17.91
O 2.04023 8.27093 18.2597
C 19.8159 10.2315 16.0759
H 1.98539 9.26658 15.5637
H 18.8893 10.5096 15.5318
H 2.22493 11.0119 15.7693
C 18.4927 10.3984 2.47029
H 17.5461 10.4818 2.03327
H 18.51 9.834 3.38406
H 18.413 11.3729 3.01399
Si 3.78377 8.20215 2.32144
O 4.25849 6.59964 2.24178
C 3.568 8.703 4.14214
H 4.47506 8.54314 4.69266
H 3.31411 9.75186 4.15879
H 2.83912 8.00477 4.63919
C 4.75606 9.03234 17.5364
H 5.45586 8.40193 17.0438
H 3.98696 9.44821 16.7823
H 5.21332 10.0556 17.8177
Si 5.45273 5.46925 2.24965
O 4.59825 4.08926 2.64007
C 6.59519 5.95283 3.52161
H 6.06935 6.22205 4.45278
H 7.30757 5.11838 3.5959
H 7.32515 6.77172 3.23219
C 6.05197 5.09958 17.1662
H 6.14011 4.03243 16.9632
H 5.21403 5.44898 16.4561
H 6.94159 5.66489 16.7896
Si 4.09198 2.53751 2.4897
O 5.36258 17.3592 2.86259
C 3.07859 2.38253 17.4372
H 1.99217 2.4694 17.413
H 3.49284 2.81179 16.4767
H 3.1943 17.0357 17.3032
C 2.58456 2.17007 3.61942
H 19.8834 2.02642 3.01357
H 2.82023 17.1306 4.29264
H 2.50108 2.9921 4.39291
Si 6.34281 17.3725 4.12121
C 8.16771 17.088 3.61559
H 8.4462 1.92674 2.71302
H 8.81624 1.63176 4.3874
H 8.43373 16.0248 3.55928
C 6.32115 3.09124 5.24752
H 5.40429 3.4056 5.78018
H 7.07159 3.047 6.05439
H 6.74777 3.92583 4.72664
Si 11.2315 14.9127 2.19428
O 10.5129 13.4308 2.28731
C 10.2945 16.1294 17.7755
H 10.7214 16.5155 16.8255
H 9.31653 15.77 17.5422
H 10.2393 16.9444 1.93123
C 11.8197 15.3619 3.88558
H 12.5982 16.1538 3.7493
H 10.9388 15.8773 4.36963
H 12.3346 14.6792 4.56541
Si 9.68316 12.5256 3.45225
O 10.6741 11.3004 3.87613
C 8.24574 11.843 2.39717
H 7.36726 12.4445 2.47152
H 8.75768 12.0467 17.9502
H 7.96529 10.7776 2.62212
C 9.06999 13.5591 4.93915
H 9.30139 13.058 5.88166
H 9.45999 14.626 4.99495
H 7.96426 13.5739 5.18636
Si 11.8149 10.4864 2.94786
O 11.2162 9.6007 18.2351
C 12.8559 9.31719 4.25224
H 13.968 9.3759 4.26753
H 12.5264 9.56 5.28889
H 12.748 8.19543 4.03821
C 12.9472 11.7215 2.46916
H 12.7921 12.0524 17.9916
H 13.1689 12.5795 3.10616
H 13.9163 11.1806 2.37641
Si 10.5328 8.18367 17.8659
O 11.0455 7.9083 16.3322
C 8.63961 8.44193 17.8485
H 7.96604 8.24943 2.15592
H 8.46395 9.4871 17.4837
H 8.16208 7.75694 17.1088
C 11.0474 6.63987 2.36441
H 11.3032 6.99149 3.38129
H 10.0567 6.14028 2.35619
Si 10.7085 6.94928 15.0281
O 9.64858 5.7645 15.5375
C 12.0671 6.53554 13.8008
H 12.1965 5.50338 13.6658
H 12.0357 6.90716 12.7525
H 13.0459 6.92376 14.1255
C 9.7947 8.52851 14.0807
H 8.9617 7.87787 13.7188
H 9.65094 9.1877 14.9608
H 10.6753 8.83592 13.5128
Si 9.86654 4.04805 15.8358
C 9.1188 4.1796 17.65
H 8.48026 3.3076 17.9534
H 10.0598 4.22187 1.73948
H 8.50871 5.12106 17.6886
C 11.628 3.62548 15.3743
H 11.884 2.62875 15.711
H 11.5658 3.62916 14.2952
H 12.2528 4.38178 15.8859
Si 18.9467 7.21661 1.74317
O 18.083 7.33694 3.13893
C 19.9131 5.59319 18.2199
H 19.3615 4.68544 18.1814
H 2.21604 5.50473 17.3001
H 2.48276 5.71453 2.47936
C 17.8778 7.45343 16.807
H 17.9595 6.48197 16.2105
H 16.8267 7.64726 16.9852
H 18.1945 8.26681 16.0848
Si 16.6061 7.95035 3.62169
O 15.5138 6.74469 4.08405
C 16.6865 8.85717 5.25258
H 17.4259 8.46404 5.95872
H 16.8351 9.89182 5.00934
H 15.6662 8.71216 5.64056
C 15.7105 9.05907 2.28559
H 16.0303 8.92239 17.8292
H 14.6322 8.87413 2.35131
H 15.6709 10.1264 2.57413
Si 15.6065 5.21612 3.31934
O 14.1579 4.34421 3.4802
C 16.1436 5.36496 18.0665
H 17.2013 5.21159 18.0571
H 15.6721 4.55098 17.4844
H 15.9686 6.3559 17.69
C 16.867 4.32228 4.17526
H 16.5137 3.39853 4.5626
H 17.7717 4.11813 3.50496
H 17.3665 4.86454 5.02758
Si 12.7057 4.28911 2.81134
O 11.6239 3.91133 4.01419
C 12.2405 5.78989 1.91864
H 13.2091 6.35899 1.70718
H 12.0364 5.33224 17.4632
C 12.9 2.74777 18.2493
H 13.3608 3.14363 17.3316
H 13.4348 1.85608 2.14143
H 11.9342 2.41133 17.8812
Si 11.5366 4.57743 5.52552
O 12.3834 3.82758 6.65251
C 9.7946 4.64082 6.1515
H 9.10514 5.14836 5.57964
H 9.62598 3.55565 6.34304
H 9.79325 5.08834 7.14125
C 12.484 6.18739 5.51981
H 12.027 7.11221 5.1931
H 12.7651 6.38968 6.61866
H 13.4028 5.96808 4.91349
Si 13.4898 2.96763 7.52937
C 14.9541 2.33689 6.52113
H 15.2864 17.1216 6.78848
H 14.6478 2.21958 5.48065
H 15.7981 3.05336 6.69586
C 13.7083 4.23129 8.88516
H 13.9291 4.02842 9.93694
H 14.59 4.86613 8.61881
H 12.7778 4.83707 8.86233
Si 2.14266 13.1791 4.64815
O 3.15093 14.3739 5.25231
C 18.7287 14.0239 4.32147
H 18.0575 13.2317 4.65332
H 18.7885 14.9221 4.96511
H 18.5582 14.4118 3.38225
C 19.9885 12.0517 6.20323
H 19.4121 12.7028 6.9932
H 19.7652 11.0293 6.07955
H 2.81469 12.1672 6.71486
Si 4.41449 14.7718 6.18798
O 5.4404 13.5021 6.70466
C 3.65449 15.7008 7.62681
H 3.64693 15.0179 8.47381
H 4.19911 16.5478 7.9841
H 2.66292 16.1283 7.36296
C 5.64659 15.9997 5.22789
H 4.98964 16.7071 5.76644
H 6.46087 15.7042 5.85472
H 5.27148 15.5684 4.22094
Si 5.75485 12.3527 7.88523
O 5.66995 10.8758 7.11434
C 4.56744 12.1808 9.23041
H 4.11274 13.1403 9.61516
H 3.76656 11.5939 8.8314
H 5.03031 11.698 10.1068
C 7.44041 12.1784 8.61976
H 7.67265 11.257 8.99443
H 7.9514 12.1635 7.67335
H 7.78078 13.0763 9.22601
Si 6.3873 9.51582 6.60653
O 7.79603 9.37188 7.44308
C 5.17245 8.10746 6.9092
H 4.19787 8.63901 6.71952
H 5.31871 7.2305 6.27756
H 5.28591 7.76693 7.94162
C 6.65786 9.77041 4.80028
H 6.68314 9.05407 4.05996
H 5.94134 10.5738 4.5435
H 7.73042 10.2056 4.75548
Si 9.31877 8.90627 6.96502
O 9.74276 8.08516 8.33568
C 9.50492 7.75522 5.4482
H 9.70725 8.3996 4.58018
H 10.3841 7.15435 5.72461
H 8.61817 7.18904 5.09894
C 10.2825 10.4847 6.84134
H 10.0719 11.2063 6.13477
H 10.1143 10.8687 7.84888
H 11.277 10.3393 6.61048
Si 10.1881 8.05085 9.94436
C 11.286 6.50711 9.90912
H 11.7888 6.28325 10.8619
H 10.7221 5.57284 9.69087
H 12.0335 6.44172 9.07916
C 11.3757 9.33187 10.46
H 12.0143 9.10869 11.4052
H 10.7091 10.1272 10.8654
Si 9.47612 2.04586 10.7496
O 10.1123 16.9585 9.53501
C 7.81613 2.99334 10.2817
H 7.90518 3.09764 9.20114
H 6.97831 2.1939 10.5075
H 8.01607 3.81866 10.9681
C 11.0218 2.98796 11.0619
H 11.6721 2.23745 11.5215
H 11.5937 3.27995 10.1987
H 11.0828 3.88305 11.7218
Si 9.48381 15.9239 8.30247
O 10.6933 14.722 8.05459
C 7.69537 15.4659 8.71739
H 7.57769 14.9156 9.6614
H 7.13165 16.3877 8.94172
H 7.37177 14.8813 7.86425
C 9.22236 16.9226 6.86092
H 8.26605 1.73046 6.963
H 10.0804 1.84293 6.74781
H 9.15695 16.43 5.85677
Si 12.2908 15.0388 8.18356
O 13.0744 14.1288 7.1159
C 13.0612 14.6694 9.76396
H 12.6914 15.4313 10.4409
H 12.7856 13.705 10.1207
H 14.1828 14.6579 9.73968
C 12.6476 16.9678 7.82654
H 13.6385 16.7824 8.24363
H 12.605 17.0158 6.72859
H 11.7905 17.1609 8.5151
Si 14.568 13.588 6.4601
O 15.6391 13.259 7.78764
C 15.3403 14.7852 5.28584
H 15.5585 14.3367 4.33874
H 14.869 15.7653 5.07273
H 16.3333 14.9362 5.76793
C 14.3659 11.866 5.83367
H 13.3308 11.567 6.05496
H 14.5536 11.941 4.73822
H 15.0656 11.1364 6.29057
Si 16.0861 12.0559 8.84131
O 15.0424 10.8304 9.0912
C 16.2254 12.7792 10.5438
H 16.6778 12.1281 11.2768
H 17.0029 13.5774 10.5545
H 15.2846 13.2013 10.843
C 17.5985 11.3275 8.0295
H 17.512 11.6224 6.95014
H 18.6224 11.6488 8.29182
H 17.6577 10.1982 8.04149
Si 14.1872 9.61971 9.58686
C 12.3368 10.1825 9.6073
H 12.0458 10.1963 8.55058
H 12.1575 11.2304 9.97937
C 14.2769 8.29696 8.23661
H 13.5804 8.43323 7.38314
H 15.3263 8.14455 7.78392
H 14.0491 7.41984 8.80255
Si 20.1209 7.4308 9.09506
O 2.6454 6.15784 8.3253
C 18.2784 7.01092 9.55829
H 17.5795 7.22892 8.6799
H 18.217 5.86028 9.74831
H 17.7324 7.46245 10.4039
C 19.9004 8.97034 8.13895
H 2.57205 9.54347 7.78759
H 19.2239 8.92217 7.27941
H 19.424 9.77809 8.75661
Si 2.43778 5.24539 6.92453
O 2.09734 3.66746 7.30136
C 19.3827 6.11534 5.83194
H 19.1895 5.60922 4.88204
H 18.4544 6.52701 6.22569
H 19.9551 6.93654 5.38403
C 3.92231 5.2688 5.62946
H 4.91292 4.84874 5.90886
H 3.67213 4.75314 4.66538
H 4.01197 6.35239 5.2757
Si 18.7857 3.0983 7.33144
O 18.7337 1.97205 8.4782
C 17.5758 4.4044 7.78894
H 17.3092 5.12773 7.01538
H 16.6145 4.02162 8.22484
H 18.1489 5.06109 8.45982
C 18.2259 2.10931 5.84539
H 18.2813 2.52843 4.85403
H 18.9532 17.036 5.81287
H 17.2688 17.4123 6.04403
Si 18.2427 16.3266 9.0585
O 18.883 16.126 10.5213
C 16.3996 16.1724 9.56377
H 16.2999 17.1669 9.80781
H 15.7736 15.8618 8.75342
H 16.0553 15.5919 10.4317
C 18.9145 14.8797 8.05008
H 18.2036 14.0359 8.31451
H 18.9485 15.0442 6.89447
H 19.881 14.5627 8.38651
Si 19.3187 17.0054 11.753
O 17.8433 17.2097 12.5332
C 2.17597 15.9007 12.8468
H 2.41988 16.3386 13.8185
H 20.0484 14.8631 12.7672
H 3.16375 15.8808 12.3722
C 2.19918 2.76642 11.2129
H 3.27603 2.59439 11.2598
H 20.1445 3.07214 10.1768
H 2.06594 3.77371 11.6603
Si 16.715 2.62514 12.4842
C 14.8322 2.23011 12.2356
H 14.2703 1.86708 13.0471
H 14.1831 3.07195 11.8165
H 14.8074 17.1226 11.5311
C 17.2112 3.89879 11.2065
H 17.0045 3.63978 10.1444
H 16.5505 4.76312 11.297
H 18.2708 4.16266 11.2781
Si 4.31466 13.651 14.178
O 3.26039 12.5672 13.419
C 4.98855 12.4307 15.4263
H 6.05416 12.2179 15.4121
H 4.74666 12.8956 16.3832
H 4.46343 11.5245 15.2061
C 3.7721 15.064 15.198
H 3.93517 16.0881 14.7935
H 2.71184 15.1501 15.627
H 4.46884 15.0031 16.0557
Si 20.0691 12.1321 12.6696
O 1.993 10.4377 12.4682
C 19.8638 12.8787 10.9833
H 18.7806 13.0737 10.8783
H 2.10243 13.8584 10.7892
H 2.07522 11.9673 10.4053
C 18.6223 12.5717 13.6837
H 18.7628 13.5444 14.1731
H 17.7917 13.0217 12.9682
H 18.0654 11.9789 14.4163
Si 3.18026 9.39499 12.3413
O 3.05907 8.38914 13.577
C 4.94175 9.97387 11.8595
H 5.00153 10.1314 10.7626
H 5.4677 10.723 12.4422
H 5.56283 9.0969 12.2328
C 2.911 8.1286 10.6871
H 3.11392 7.16137 11.162
H 1.95066 8.69756 10.6851
H 3.75719 8.55312 10.1226
Si 2.61484 6.78395 13.6303
O 3.49488 5.66586 12.6575
C 19.0818 6.53451 13.1
H 19.0498 7.18086 12.2313
H 18.8569 5.56169 12.6777
H 18.3312 6.84423 13.9027
C 2.8044 6.48497 15.3825
H 3.57601 7.15336 15.8411
H 20.1031 6.85552 15.8217
H 3.13626 5.51777 15.7436
Si 4.989 5.02373 12.9921
O 5.45289 4.33225 11.4916
C 5.96103 6.24922 13.9507
H 6.95705 5.83176 14.1476
H 5.88115 7.25611 13.3473
H 5.34468 6.44291 14.8204
C 4.85139 3.46756 14.0554
H 3.81151 3.11736 14.3217
H 5.26259 2.57126 13.4704
H 5.47177 3.51022 14.9648
Si 6.02538 4.20933 9.93375
C 5.2395 2.99411 8.72653
H 4.58698 2.1891 9.15847
H 4.44798 3.59563 8.13253
H 6.08127 2.60474 8.11755
C 6.82543 5.86645 9.30298
H 6.55933 5.94368 8.2019
H 7.88308 5.5932 9.1141
Si 6.04692 14.7633 12.7777
O 6.7349 15.8352 13.8154
C 7.10185 13.4015 11.8547
H 7.40966 12.7102 12.6203
H 6.44308 13.0306 11.0703
H 8.06094 13.847 11.5787
C 5.27349 15.7774 11.3548
H 4.80513 16.7011 11.5219
H 6.13577 15.6998 10.7841
H 4.50502 15.2285 10.8201
Si 7.58851 15.6215 15.2256
O 9.30859 16.035 14.993
C 6.92248 16.7989 16.52
H 5.86385 16.6137 16.4717
H 7.3198 16.3314 17.4121
H 7.16789 2.0862 16.2516
C 7.73436 13.9703 15.9795
H 8.68068 14.1545 16.5973
H 6.84337 13.8141 16.6604
H 8.04528 13.1771 15.2534
Si 10.144 15.4091 13.7646
O 9.60365 13.8041 13.7028
C 11.8618 16.2216 13.9203
H 12.4582 15.8023 14.7142
H 12.5821 16.1717 13.0635
H 11.723 17.2947 14.1057
C 9.24476 16.4446 12.3162
H 10.1723 16.2065 11.7996
H 8.23724 16.0172 12.0712
H 9.32909 17.387 12.8284
Si 10.2712 12.2292 13.8038
O 9.16705 11.2406 13.0263
C 10.3587 11.7302 15.5755
H 10.7974 12.5931 16.0412
H 9.34443 11.7202 16.0188
H 10.9664 10.8026 15.8181
C 11.9443 12.1272 13.0238
H 12.4236 11.1384 13.0656
H 11.7906 12.2477 11.9399
Si 8.32772 9.71719 13.256
O 7.90329 9.07116 11.797
C 6.9318 9.72141 14.5354
H 6.04706 9.07261 14.3769
H 7.39283 9.28731 15.3884
H 6.64988 10.7214 14.6964
C 8.56281 3.47372 14.6868
H 7.58424 3.68222 15.089
H 8.6281 2.44656 14.3558
H 8.6266 4.12251 13.8041
Si 8.22895 7.58263 10.961
C 6.66243 7.13708 10.1281
H 6.27827 8.00371 9.57435
H 6.07567 6.98658 11.0602
C 8.59724 6.07431 12.163
H 7.66289 5.53887 12.5717
H 9.01082 5.49 11.3333
H 9.42575 6.27159 12.8376
Si 16.723 3.5056 14.6816
O 16.2981 2.13371 15.5427
C 18.3985 3.80633 15.5999
H 18.9874 4.67235 15.1693
H 18.1005 4.27621 16.5539
H 19.1713 3.04 15.6937
C 15.3474 4.8967 14.6591
H 14.9953 5.10548 13.6472
H 14.6483 4.96059 15.5273
H 15.9182 5.77527 14.9748
Si 16.8512 16.7418 16.5556
O 15.5487 15.7767 16.6118
C 18.3235 15.767 15.8687
H 17.9303 15.0733 15.1338
H 18.9798 16.4201 15.3026
H 18.793 15.2598 16.7104
C 17.1589 1.7312 1.7248
H 17.1017 2.82746 1.95101
H 16.6233 17.0818 2.57672
H 18.2458 17.3034 1.98719
Si 14.8419 14.3136 16.9294
O 14.2922 13.3284 15.7326
C 16.0868 13.669 18.1673
H 17.2285 13.6166 18.09
H 16.0234 14.3527 2.43972
H 15.7134 12.6685 1.90049
C 13.1578 14.7309 17.7379
H 12.4584 14.2633 17.0273
H 13.2231 14.3353 2.1416
H 13.0758 15.8063 17.8777
Si 14.6951 12.9231 14.1588
O 15.1678 11.4045 14.2145
C 13.048 13.1256 13.2924
H 12.5615 13.975 13.7364
H 13.3573 13.4747 12.2909
C 15.6904 14.2722 13.5566
H 16.2925 14.7227 14.4153
H 16.3642 14.2603 12.6881
H 15.0318 15.1364 13.2661
Si 14.7634 9.70407 14.2266
O 14.2044 9.20804 12.8153
C 16.4849 9.24647 14.6475
H 16.9146 8.29141 14.7408
H 17.3342 9.86255 14.3553
H 16.4096 9.53731 15.7726
C 13.7812 9.40173 15.6961
H 12.721 9.35288 15.3558
H 14.1379 8.70089 16.4082
H 13.7606 10.3396 16.3367
Si 15.1112 8.75117 11.4724
C 15.3469 6.96355 11.4854
H 16.1199 6.73601 12.2262
H 14.4951 6.30465 11.5855
H 15.7722 6.64403 10.4813
C 16.918 9.34304 11.6189
H 17.499 8.54813 12.1236
H 17.4905 9.48727 10.6644
H 16.9327 10.3172 12.1167
523
 Atoms. Timestep: 8000
Si 2.51343 12.6285 2.62044
O 2.7257 11.0209 2.0605
C 19.8919 13.7494 18.0558
H 19.0394 14.2736 1.97871
H 2.37965 14.5458 17.9027
H 19.6509 13.2374 17.0875
C 4.37204 13.1772 2.93286
H 4.33895 14.2748 2.86727
H 4.42685 12.6753 3.95394
H 4.96194 12.5405 2.23042
Si 20.077 10.0455 17.5258
O 2.45767 8.36237 18.2662
C 2.53137 9.98226 15.7115
H 2.95168 8.93836 15.6391
H 19.7528 10.0918 15.1236
H 3.29436 10.6749 15.4405
C 18.2541 10.4924 17.6471
H 17.7229 9.74859 17.0057
H 17.7657 10.4788 2.0468
H 18.28 11.4787 17.2549
Si 3.95949 8.04202 2.47893
O 4.35036 6.46789 2.13969
C 3.70552 8.6223 4.21626
H 3.46658 7.72294 4.82325
H 4.68958 9.02149 4.39242
H 2.90609 9.40618 4.07428
C 5.27523 9.13377 18.0334
H 6.36998 8.76158 17.936
H 5.0436 9.24138 16.9928
H 5.30846 10.0856 2.03297
Si 5.57931 5.13155 1.85199
O 4.67023 3.76245 18.2348
C 7.01799 5.27334 3.07351
H 6.88983 5.70019 4.10411
H 7.60873 4.3377 3.0728
H 7.64578 6.03643 2.50445
C 6.51296 5.38981 16.8099
H 7.58713 5.65777 17.0148
H 6.71542 4.63276 16.0319
H 6.21589 6.24321 16.1696
Si 3.88113 2.26191 18.2058
O 4.83379 17.0043 2.58921
C 3.64782 1.93835 16.4588
H 3.72946 16.6709 16.262
H 2.59162 2.17233 16.3266
H 4.24377 2.52605 15.7888
C 2.15757 2.4213 2.48126
H 20.0152 3.40853 2.08771
H 19.7139 1.59797 2.25835
H 2.4093 2.54526 3.56007
Si 5.97331 17.0414 3.81825
C 7.53463 16.3723 3.14956
H 7.73363 17.0129 2.2842
H 8.39933 16.1346 3.76848
H 7.15508 15.3906 2.74476
C 5.98415 2.91905 4.70525
H 5.76375 2.61883 5.79436
H 7.02257 3.2445 4.72665
H 5.37612 3.77621 4.41447
Si 11.3419 14.8151 1.88577
O 10.2762 13.5617 2.05227
C 10.5036 16.0262 17.3015
H 10.9593 16.889 16.8772
H 10.0813 15.4225 16.4841
H 9.70962 16.4578 17.9234
C 11.7416 15.3417 3.64322
H 12.5845 16.0761 3.67593
H 10.9061 15.8811 4.20341
H 12.1314 14.5851 4.32674
Si 9.33705 12.5749 3.05579
O 10.1166 11.2281 3.59575
C 8.17102 11.7982 1.82842
H 7.10324 12.1266 1.94148
H 8.32039 12.1088 17.2905
H 8.27621 10.7003 1.89081
C 9.08971 13.6316 4.5357
H 10.0645 14.0359 4.92421
H 8.38735 14.4566 4.4156
H 8.83273 13.0353 5.4296
Si 11.374 10.2288 3.12692
O 11.2195 8.8728 2.25879
C 12.1348 9.59902 4.65736
H 12.5957 10.2595 5.36878
H 11.3713 8.94188 4.90553
H 12.9687 8.98408 4.33118
C 12.7563 11.0004 2.09741
H 12.4024 11.7344 17.8905
H 13.368 11.7086 2.69043
H 13.5346 10.3999 18.1358
Si 10.6146 7.55944 18.0781
O 11.6013 7.22477 16.8032
C 8.71151 7.8872 17.729
H 7.86653 7.76799 1.86477
H 8.81695 8.98045 17.5606
H 8.47747 7.49387 16.7384
C 10.7282 6.07323 2.67637
H 10.1433 6.17798 3.55403
H 10.3044 5.20055 2.18624
Si 11.2741 6.93389 15.2
O 10.1846 5.64561 15.4
C 12.8471 6.49013 14.319
H 12.9295 5.44376 14.0519
H 13.0829 6.9977 13.3107
H 13.7439 6.64119 15.0319
C 10.4408 8.32291 14.2007
H 9.62868 7.59009 14.0224
H 10.494 9.00684 15.0531
H 11.144 8.5507 13.3593
Si 10.0708 3.98342 15.6631
C 9.04921 3.62691 17.2589
H 8.00338 3.79738 17.0044
H 9.26244 2.48286 17.4277
H 9.45776 3.99635 18.2248
C 11.8751 3.49142 15.923
H 12.1192 2.55954 16.4618
H 12.3668 3.36409 14.9383
H 12.2724 4.41461 16.4771
Si 19.2424 7.33625 1.88663
O 18.2666 8.03766 3.10669
C 19.4978 5.60276 2.29115
H 18.7059 5.08308 1.7877
H 2.23977 5.17457 1.98575
H 19.343 5.48435 3.33527
C 18.5229 7.43651 16.7794
H 19.1423 8.11399 16.1389
H 18.4596 6.42142 16.5261
H 17.5087 7.86197 17.0361
Si 16.6507 8.20154 3.52873
O 16.1181 6.8462 4.37615
C 16.7224 9.51111 4.92565
H 16.5232 9.13 5.94742
H 17.7098 9.93667 4.93645
H 15.9953 10.2464 4.60857
C 15.4847 8.69139 2.16316
H 15.2484 7.78357 18.1109
H 14.5682 9.1402 2.57877
H 15.8957 9.41108 18.0042
Si 15.6814 5.35937 3.94176
O 14.3029 4.78901 4.54622
C 15.5396 5.45852 2.07574
H 15.4814 4.62815 17.9144
H 14.6947 6.07662 18.2838
H 16.4561 5.91048 1.70348
C 16.9572 3.97723 4.31632
H 16.4466 2.96363 4.27394
H 17.7671 3.80927 3.62537
H 17.3977 4.17792 5.31775
Si 12.8934 4.4073 3.82091
O 11.7911 3.76979 4.88031
C 12.2131 6.0332 3.18664
H 12.2213 6.58694 4.15383
H 12.7959 6.55249 2.37835
C 12.9361 3.01814 2.57045
H 11.8267 2.86569 2.54358
H 13.3692 3.04147 18.1534
H 13.3594 2.18111 3.17652
Si 11.68 4.55074 6.34742
O 12.0342 3.53122 7.62068
C 9.77817 4.91572 6.51376
H 9.42542 5.24229 5.5545
H 9.31486 3.90862 6.65621
H 9.56256 5.76619 7.10359
C 12.7325 6.12231 6.52571
H 13.3097 6.4508 5.63799
H 12.0904 6.83117 7.07971
H 13.5559 5.7247 7.16159
Si 13.3721 2.55314 7.92273
C 14.3035 2.37191 6.23608
H 13.6062 1.76606 5.5997
H 14.7194 3.28886 5.84948
H 15.2107 1.80291 6.34181
C 14.3949 3.18997 9.348
H 14.816 2.50617 10.0386
H 15.2538 3.65749 8.77763
H 14.0234 3.98808 9.99456
Si 19.9225 13.3295 4.73805
O 2.7543 14.4624 5.28247
C 18.3068 14.3033 4.66012
H 17.4695 13.8289 4.21016
H 18.1625 14.3648 5.76203
H 18.519 15.1976 4.11827
C 1.89121 11.8341 5.78783
H 2.87805 12 6.27619
H 19.2584 11.8466 6.35413
H 1.83882 10.8519 5.39216
Si 3.94004 14.9505 6.36148
O 4.58785 13.5534 6.89283
C 3.5821 16.1458 7.56885
H 3.84853 17.1034 7.0365
H 2.60705 15.9708 8.08164
H 4.23814 16.2136 8.42781
C 5.1698 15.6495 4.9579
H 4.9955 14.8053 4.35039
H 4.24464 16.3032 4.94102
H 6.00483 15.5407 5.79328
Si 5.22585 12.613 8.07873
O 5.2362 11.0584 7.50495
C 4.06743 12.7972 9.51903
H 3.81034 13.7795 9.78332
H 3.05727 12.3601 9.30891
H 4.53675 12.3187 10.3878
C 6.98182 12.9158 8.56111
H 7.41695 12.0823 9.11112
H 7.5368 12.8995 7.59731
H 7.29631 13.828 9.11384
Si 6.35295 10.0055 6.93154
O 7.81189 10.0276 7.6407
C 5.62743 8.31947 6.82168
H 5.34416 8.08509 7.85086
H 4.79311 8.28129 6.13242
H 6.441 7.51101 6.62004
C 6.51062 10.4979 4.98109
H 6.78825 9.66523 4.23252
H 5.47784 10.9521 4.64461
H 7.39048 11.2025 4.75059
Si 9.23767 9.34851 6.95048
O 9.81968 8.40474 8.15177
C 9.08365 8.3338 5.55048
H 8.06145 8.65659 5.32659
H 9.71418 8.54921 4.74245
H 9.10652 7.24669 5.61049
C 10.0532 10.8788 6.502
H 9.60366 11.1216 5.56488
H 9.92119 11.7717 7.15119
H 11.0818 10.7786 6.38632
Si 10.4441 8.23504 9.59373
C 11.6379 6.76306 9.83576
H 11.7636 6.76077 10.9263
H 11.2175 5.8221 9.57445
H 12.6253 7.03144 9.44442
C 11.354 9.74966 10.1132
H 11.8902 9.56583 11.0838
H 10.5963 10.5643 10.322
Si 9.54846 2.07522 10.6197
O 9.82141 17.4475 8.99161
C 7.83689 2.87494 10.6954
H 8.26849 3.61938 9.87494
H 7.10946 2.06068 10.491
H 7.93284 3.31782 11.7332
C 11.0088 3.22963 10.9152
H 11.8241 2.48314 10.9668
H 11.1171 3.75263 9.96074
H 10.9307 3.90988 11.8354
Si 9.35807 16.5204 7.71822
O 10.2817 15.1861 7.76217
C 7.55875 15.8595 7.84803
H 7.27494 15.5022 8.8618
H 6.81151 16.6195 7.58837
H 7.50237 15.031 7.13127
C 9.52786 1.72882 6.20678
H 10.5433 1.97686 5.70136
H 8.96508 16.9359 5.41637
H 8.72078 2.53496 6.36864
Si 11.8045 14.8342 8.20517
O 12.5134 13.9928 7.08876
C 12.137 14.0583 9.87499
H 11.3496 14.246 10.5731
H 12.2946 12.9705 9.89
H 13.0707 14.593 10.2674
C 12.7902 16.6599 8.27021
H 13.8302 16.2681 8.12297
H 12.0901 16.6108 7.36379
H 12.2938 16.7754 9.23688
Si 14.0448 13.7061 6.57989
O 14.966 13.5153 7.92631
C 15.1508 15.0488 5.70275
H 16.121 14.4947 5.61415
H 14.8311 15.6016 4.77636
H 15.4119 15.9342 6.34694
C 14.127 12.3594 5.31585
H 14.0581 11.2836 5.7095
H 13.5447 12.5131 4.36012
H 15.1718 12.5053 4.88755
Si 15.7934 12.3188 8.73176
O 15.0855 10.9077 9.16883
C 16.0992 13.1606 10.3023
H 16.9604 13.86 10.3925
H 15.2985 13.8814 10.5655
H 15.9898 12.3638 11.0934
C 17.3156 12.1777 7.6364
H 17.2255 12.8166 6.6975
H 18.1074 12.7089 8.21324
H 17.7319 11.1732 7.35323
Si 14.1951 9.45252 9.32277
C 12.5098 10.145 9.08222
H 12.2141 10.0185 8.03022
H 12.9073 11.1772 9.10922
C 14.8503 8.53562 7.84519
H 14.4337 8.72442 6.8268
H 16.0196 8.7121 7.75722
H 14.7231 7.41253 7.93613
Si 19.8549 7.86575 8.78707
O 2.68491 6.81621 7.97583
C 18.2852 6.9639 9.13728
H 17.2702 7.22309 8.82816
H 18.2927 5.91163 8.74498
H 18.1449 6.85076 10.2618
C 1.95854 9.54315 7.9279
H 20.0276 10.498 8.50966
H 3.02776 9.60764 7.89305
H 19.5685 9.67357 6.96009
Si 2.48684 5.5517 6.90918
O 1.8566 4.27371 7.77426
C 19.3517 6.31053 5.68363
H 19.0133 5.42944 5.13753
H 18.6396 7.01953 6.16525
H 19.9786 6.89936 4.96768
C 3.7739 4.91241 5.6817
H 4.81283 5.03767 6.15948
H 3.65727 3.81114 5.59994
H 3.67731 5.54288 4.78106
Si 19.0548 2.95654 7.61054
O 19.3134 1.75762 8.78547
C 17.3434 3.51675 7.87561
H 17.278 4.52591 7.40706
H 16.8789 2.88926 7.12978
H 16.8879 3.5999 8.81609
C 19.2271 2.02124 5.99975
H 19.3812 2.69501 5.16306
H 19.9887 17.0254 6.01394
H 18.2611 17.3543 5.80709
Si 18.3902 16.3878 9.40099
O 19.0883 16.2695 10.9006
C 16.5465 16.5229 9.32068
H 16.1444 15.5562 8.76437
H 16.1592 16.6151 10.3317
H 16.1999 17.3388 8.56478
C 19.1181 14.7969 8.66025
H 1.92085 14.4763 9.00565
H 18.4542 13.9281 8.80986
H 19.1712 14.9692 7.54925
Si 19.196 17.0154 12.3263
O 17.7641 17.3056 13.1012
C 2.00422 16.0295 13.6361
H 3.02036 16.5213 13.5311
H 19.7871 16.4221 14.5347
H 1.91265 14.9582 13.4188
C 19.9527 2.73327 11.87
H 2.76566 2.32779 11.6132
H 19.7156 3.34279 10.984
H 1.93313 3.52983 12.6292
Si 16.4763 2.55841 13.1473
C 14.8257 1.73565 12.8984
H 14.7114 16.4143 13.0022
H 14.0403 2.20156 13.6011
H 14.5514 1.98015 11.8088
C 16.6752 3.78849 11.7391
H 15.6832 4.17556 11.3472
H 17.5178 4.50402 11.8601
H 17.1832 3.0914 11.0592
Si 4.26896 13.209 13.6502
O 3.11221 12.9232 12.4938
C 5.50159 11.8103 13.9511
H 6.39721 11.7493 13.3015
H 5.78477 12.3451 14.8912
H 5.11407 10.8098 14.1286
C 3.75065 13.4998 15.5546
H 3.69558 12.5328 16.0525
H 4.7291 13.8658 15.9881
H 2.95631 14.2201 15.7239
Si 20.1302 11.7738 12.4027
O 2.3565 10.1678 12.4256
C 19.0372 12.1901 10.8529
H 19.0803 13.2591 10.9804
H 19.4018 11.7762 9.90751
H 18.1113 11.7896 11.1035
C 19.0125 11.9698 13.8591
H 18.1561 11.2865 13.7464
H 19.0819 11.7303 14.9297
H 18.7627 13.0347 13.8747
Si 3.4579 9.01569 12.0757
O 3.6642 8.03683 13.5048
C 5.08338 9.80085 11.3895
H 5.26588 9.85694 10.2656
H 4.91222 10.8789 11.7061
H 5.95746 9.2392 11.811
C 2.52825 7.98904 10.5218
H 2.64648 6.91795 10.8199
H 19.7108 8.30516 10.8095
H 3.31812 8.38243 9.78592
Si 2.9081 6.65038 13.7255
O 3.62107 5.6554 12.5984
C 19.2632 6.82898 13.2867
H 18.827 7.83777 13.3214
H 19.0764 6.21166 12.4315
H 18.8022 6.26616 14.1234
C 3.27664 5.90002 15.3627
H 3.5186 6.73948 16.0508
H 2.47472 5.4562 15.9464
H 4.16545 5.32147 15.3649
Si 5.14863 5.12715 12.6272
O 5.54247 4.98204 11.0573
C 6.18555 6.51661 13.5817
H 6.98699 5.90447 13.936
H 6.50593 7.44341 13.0743
H 5.58975 6.78687 14.3988
C 5.34278 3.53087 13.4725
H 5.63323 3.66612 14.5611
H 4.32739 3.15265 13.6504
H 6.06881 2.7623 13.0956
Si 6.48582 4.44479 9.80234
C 5.40964 3.615 8.53262
H 4.88585 2.75287 8.81575
H 4.72119 4.42161 8.17767
H 5.95971 3.41182 7.64266
C 7.60759 5.84336 9.14952
H 7.1844 6.07577 8.16923
H 8.66518 5.70499 9.13347
Si 5.55745 14.7882 12.6142
O 5.93031 15.6261 14.0002
C 7.00197 14.0402 11.7581
H 7.79501 13.834 12.481
H 6.81758 13.0129 11.4984
H 7.39399 14.652 10.9959
C 4.82696 16.3098 11.541
H 3.95044 15.9909 11.0155
H 4.68025 17.2924 12.0236
H 5.40567 16.3072 10.6132
Si 7.23507 15.7857 15.0055
O 8.63581 15.2404 14.176
C 7.14251 17.3656 16.0441
H 8.16687 17.3315 16.397
H 6.92456 2.35725 15.3327
H 6.39061 17.293 16.7856
C 7.07569 14.5929 16.3939
H 7.9186 14.8447 17.1427
H 6.24345 15.0219 17.0085
H 6.92197 13.522 16.3088
Si 10.1175 15.2745 13.5453
O 10.3402 13.7743 12.9219
C 11.374 16.2312 14.4108
H 12.2365 16.3619 13.749
H 10.9295 17.2026 14.5381
H 11.8425 15.67 15.2722
C 9.88163 16.367 11.8991
H 8.91959 16.8379 12.3224
H 10.8592 16.8641 12.1427
H 9.787 15.6262 11.1249
Si 10.8296 12.2911 13.5711
O 9.91579 10.9942 13.0268
C 10.5513 12.3809 15.401
H 9.85759 11.5783 15.549
H 11.511 12.0827 15.8795
H 10.1992 13.2859 15.9421
C 12.6077 12.2546 12.8237
H 12.8835 11.2366 13.0638
H 12.5951 12.2791 11.732
Si 8.99998 9.667 13.4975
O 8.23164 8.79543 12.2659
C 7.75008 9.63192 14.8121
H 6.96871 8.99474 14.4969
H 8.27675 9.3851 15.7756
H 7.30689 10.5865 15.0711
C 9.10428 3.19031 14.2573
H 8.06613 3.46735 14.4687
H 9.16575 2.15125 14.2557
H 9.46119 3.59442 13.2902
Si 8.5625 7.58612 11.2027
C 7.21896 7.17974 10.0183
H 7.15419 7.89437 9.21564
H 6.17709 7.22162 10.3326
C 9.10087 6.12456 12.1949
H 10.0795 5.73039 12.1343
H 9.04526 6.11635 13.2727
H 8.44048 5.2524 11.7865
Si 16.5273 3.55893 15.1976
O 15.818 2.5436 16.394
C 18.346 3.73444 15.7336
H 18.6508 3.3101 16.7518
H 19.064 3.31505 15.0012
H 18.9144 4.70062 15.8731
C 15.525 5.22358 15.2299
H 16.3155 5.95073 14.9497
H 14.9273 5.03326 14.3853
H 15.1288 5.33767 16.1932
Si 16.3222 16.8746 16.9832
O 15.3678 15.6076 16.5611
C 17.9589 16.2111 16.297
H 17.9248 16.2296 15.1879
H 18.8418 16.8292 16.5624
H 18.0802 15.2022 16.7749
C 16.2567 16.7758 2.29653
H 15.345 16.2422 2.67018
H 17.2416 16.5272 2.80088
H 16.1749 1.99519 2.73257
Si 14.9559 14.0786 16.9868
O 14.8365 12.9903 15.7555
C 15.9265 13.6009 1.83089
H 16.1127 12.6447 2.04406
H 16.8969 14.0964 18.3293
H 15.3227 14.1029 2.63156
C 13.1599 14.2285 17.637
H 12.6449 13.9731 16.6957
H 13.168 13.4206 1.74617
H 13.3407 15.3331 17.9268
Si 15.0887 12.9172 14.1822
O 15.4069 11.288 14.0214
C 13.3404 13.4608 13.352
H 12.8248 14.048 14.1673
H 13.4234 14.0375 12.42
C 16.3974 14.1906 13.6031
H 16.9401 13.6805 12.8554
H 16.0791 15.0786 13.03
H 17.0649 14.6116 14.341
Si 14.988 9.73492 14.2852
O 14.6588 9.11974 12.7659
C 16.194 8.73181 15.1811
H 17.2428 8.68888 14.9022
H 16.1749 8.99224 16.2957
H 15.9078 7.68534 15.1139
C 13.3463 9.80156 15.2652
H 12.5674 9.70769 14.4787
H 13.232 8.97302 15.883
H 13.1082 10.7057 15.8536
Si 15.0697 8.54736 11.3005
C 15.0617 6.74863 11.0551
H 15.5425 6.27655 11.9472
H 14.0047 6.3888 10.9845
H 15.7315 6.37467 10.2136
C 16.8985 9.13777 11.4813
H 17.2101 8.54673 12.3488
H 17.5712 8.88916 10.6826
H 16.9593 10.2489 11.7082
523
 Atoms. Timestep: 8500
Si 2.86072 12.726 2.68369
O 2.52765 11.027 2.33688
C 2.0319 13.9008 18.0727
H 2.30231 14.9065 2.00825
H 2.13363 13.8478 16.9893
H 19.1829 13.7075 18.2589
C 4.69724 13.1443 2.61025
H 5.6591 12.6479 2.67498
H 4.76553 13.6481 18.1475
H 4.80515 14.0654 3.24901
Si 19.9846 10.0649 17.8326
O 2.18686 8.44533 1.81079
C 2.33932 10.158 16.0191
H 20.074 9.52565 15.307
H 2.17796 11.2632 15.6363
H 3.4742 10.0204 15.8329
C 18.2349 10.6491 17.965
H 17.372 10.3468 17.374
H 17.8659 10.4681 2.42733
H 18.2988 11.7208 17.9872
Si 3.81984 8.12826 2.42767
O 4.30964 6.60494 2.02482
C 3.60084 8.44991 4.28684
H 2.79089 7.70777 4.6943
H 4.5522 8.25479 4.85177
H 3.20593 9.48641 4.29044
C 5.04139 9.22937 18.0943
H 5.69833 9.88195 2.29701
H 5.83601 8.70498 17.5797
H 4.37073 9.86813 17.4918
Si 5.29458 5.27625 2.23821
O 4.21686 4.15917 2.70014
C 6.81317 5.67234 3.39192
H 6.77555 5.50546 4.54688
H 7.5695 5.16164 2.80629
H 7.05645 6.74309 3.48578
C 6.27107 4.696 17.2535
H 6.93765 3.8296 17.3389
H 5.51869 4.19479 16.603
H 6.72699 5.47394 16.6077
Si 3.69379 2.58733 2.33271
O 5.0767 1.75385 2.5562
C 2.84619 2.55694 17.2678
H 20.0149 2.18987 17.2528
H 2.83598 3.61612 17.0431
H 3.45168 2.01539 16.4517
C 2.43654 2.25164 3.66508
H 19.6389 2.38037 3.24938
H 2.6404 16.9962 3.97622
H 2.49643 3.00093 4.44654
Si 6.15563 17.0388 3.62901
C 7.74557 16.1661 3.06327
H 8.44912 16.8288 2.67326
H 8.23881 16.0262 4.11193
H 7.86374 15.1763 2.6263
C 6.36232 2.59284 4.97343
H 6.99153 2.17529 5.84158
H 6.89263 3.47237 4.76162
H 5.40796 2.74796 5.4551
Si 11.7282 15.1543 2.41954
O 10.7378 13.8123 2.50663
C 10.8186 16.435 17.9402
H 11.503 17.0447 17.3673
H 10.0199 15.9302 17.4248
H 10.3133 17.1991 2.02572
C 12.1895 15.5891 4.21342
H 13.0251 16.3151 4.16764
H 11.3842 16.1131 4.74263
H 12.4527 14.7847 4.90542
Si 9.9044 12.713 3.57373
O 10.8983 11.3491 3.62932
C 8.2715 11.9984 2.94643
H 7.53518 11.7202 3.74275
H 7.66511 12.6415 2.22735
H 8.4973 11.1048 2.28734
C 9.4927 13.691 5.07548
H 8.50353 13.4828 5.58063
H 10.2787 13.3873 5.74694
H 9.7323 14.7001 4.99919
Si 11.7689 10.1822 2.98073
O 10.5153 9.44887 2.24258
C 12.5991 9.12 4.27389
H 13.6125 8.96715 3.87582
H 12.4502 9.49955 5.30111
H 12.217 8.08263 4.29089
C 12.8882 11.2958 1.82293
H 12.1527 12.0552 18.1656
H 13.499 11.7211 2.58708
H 13.6047 10.8265 17.7103
Si 10.258 8.04244 18.0727
O 11.2428 8.18566 16.6287
C 8.46006 7.86925 17.4132
H 7.77751 8.03791 1.70162
H 8.12146 8.77704 16.7977
H 8.48765 6.93447 16.7673
C 10.795 6.51248 2.37342
H 10.6897 6.7601 3.47054
H 9.87255 5.82052 2.19682
Si 11.0841 7.36538 15.2107
O 10.2 5.90129 15.5094
C 12.6332 7.12384 14.3383
H 12.7348 6.12368 13.9976
H 12.8246 7.95013 13.5421
H 13.4637 7.34258 15.0715
C 9.81071 8.66296 14.291
H 8.9864 7.91499 14.2668
H 9.79858 9.38202 15.123
H 10.304 8.89607 13.3269
Si 10.5161 4.33827 15.6308
C 9.9995 3.85316 17.2821
H 9.49101 2.85848 17.2464
H 10.7559 3.7348 18.0621
H 9.12096 4.48506 17.6668
C 12.3238 4.18493 15.2894
H 12.6305 3.14152 15.5748
H 12.4598 4.08179 14.1861
H 13.1592 4.84621 15.6917
Si 18.9339 7.42404 1.7761
O 18.0825 7.89347 3.10588
C 19.4692 5.64673 18.2111
H 19.2813 5.2839 17.1642
H 2.32421 5.57385 2.01764
H 18.8782 5.18081 2.43395
C 18.1873 7.85825 16.6805
H 17.2576 7.33781 16.6243
H 17.6157 8.77367 16.3236
H 18.6398 7.43961 15.7485
Si 16.5814 8.31181 3.67805
O 15.875 6.91909 4.21168
C 16.9179 9.46343 5.05311
H 17.5834 10.2229 4.56595
H 16.0508 9.93727 5.53085
H 17.575 9.04042 5.79686
C 15.3535 8.89427 2.41667
H 15.1774 9.95981 2.52786
H 15.7956 8.79796 17.9334
H 14.3659 8.39102 2.50332
Si 15.5384 5.46117 3.57058
O 13.9625 5.43345 3.94644
C 15.7155 5.4649 1.71874
H 16.1987 4.51695 18.0545
H 14.8077 5.78233 17.7324
H 16.4976 6.24936 17.9794
C 16.6289 4.11358 4.34667
H 16.3455 4.13477 5.38925
H 16.3164 3.07657 4.05007
H 17.7108 4.31579 4.10408
Si 12.6823 4.38927 3.36094
O 11.6519 3.85633 4.60161
C 12.0932 5.71423 2.05001
H 12.9276 6.35398 1.84541
H 12.0094 5.2732 17.6288
C 13.4532 2.84394 2.65132
H 12.827 1.96043 2.79359
H 13.5725 2.91771 18.0673
H 14.4909 2.69047 3.02372
Si 11.2968 4.63241 6.07168
O 12.0831 3.67549 7.22327
C 9.3381 4.83653 6.19132
H 9.53685 5.84228 6.74637
H 8.80831 5.16832 5.21399
H 8.98778 4.09876 6.97063
C 12.1437 6.2521 6.11734
H 12.2415 6.55394 5.06569
H 11.6765 7.02024 6.76724
H 13.1915 6.25318 6.47333
Si 13.4512 2.75229 7.49778
C 14.4115 2.5666 5.91688
H 13.7561 2.27966 5.07322
H 14.7571 3.58304 5.78191
H 15.2451 1.81829 5.85266
C 14.1579 3.44231 9.03167
H 15.2131 3.04098 9.16274
H 14.1416 4.5272 9.20061
H 13.7065 2.95096 9.83811
Si 2.00253 13.1009 4.86648
O 3.01413 14.1913 5.64886
C 18.4613 13.6729 4.74983
H 18.1244 13.8658 5.74505
H 18.4577 14.5367 4.05683
H 17.7882 12.9197 4.33855
C 2.01603 11.5369 5.9154
H 19.5544 10.7885 5.34395
H 2.99682 11.0989 5.83914
H 19.9109 11.5773 6.93666
Si 4.34342 14.6873 6.39071
O 5.6166 13.5498 6.62778
C 4.13308 15.6825 7.90661
H 3.06466 15.9914 8.00424
H 4.3874 15.0341 8.75652
H 4.73073 16.5944 7.90451
C 5.36676 15.7379 4.94446
H 5.38264 14.8002 4.31799
H 4.51746 16.5003 4.93586
H 6.19318 15.9154 5.63305
Si 5.32044 12.3672 7.84145
O 5.12738 10.8992 7.10219
C 3.61372 12.5986 8.64886
H 2.92794 12.828 7.92989
H 3.30092 11.7304 9.24826
H 3.80344 13.3398 9.43349
C 6.75914 12.5793 9.10264
H 6.99715 11.8595 9.86566
H 7.77472 12.8912 8.7286
H 6.59978 13.5543 9.63911
Si 6.19624 9.65705 6.69627
O 7.56872 9.53817 7.56287
C 5.13926 8.16519 7.16477
H 5.5559 7.7985 8.12602
H 4.08365 8.3886 7.29017
H 5.28814 7.45987 6.27304
C 6.48658 9.93085 4.90331
H 5.84144 10.7568 4.58462
H 7.49561 10.3104 4.70952
H 6.43417 8.9127 4.40966
Si 9.13547 9.18343 7.08869
O 9.89114 8.25524 8.14978
C 9.13133 8.04781 5.48639
H 8.86956 8.47718 4.53232
H 10.1332 7.67438 5.24856
H 8.47621 7.20543 5.77147
C 9.78869 10.8574 7.02127
H 9.1349 11.5118 6.37492
H 9.92465 11.2429 8.03978
H 10.8843 10.882 6.61628
Si 10.3859 7.9015 9.83538
C 11.4966 6.41016 9.82862
H 11.6458 6.08989 10.8785
H 10.8704 5.71938 9.28686
H 12.4827 6.56728 9.42889
C 11.4357 9.40472 10.3194
H 12.1662 9.27286 11.1845
H 10.8305 10.1797 10.7484
Si 9.70745 1.98733 10.5943
O 10.0314 17.3332 9.02674
C 7.90869 2.79489 10.4754
H 8.29745 3.19474 9.45844
H 7.20092 2.05292 10.4762
H 8.31801 3.28349 11.397
C 11.0742 3.0534 11.0565
H 11.1541 3.03891 12.1269
H 11.9486 2.46149 10.7251
H 11.1135 4.0475 10.6287
Si 9.43308 16.275 7.79598
O 10.5837 15.0288 7.86308
C 7.71607 15.7346 8.1581
H 7.6786 15.222 9.12961
H 6.92179 16.4116 7.8512
H 7.66506 14.8924 7.35264
C 9.74384 17.2077 6.21274
H 10.7384 17.2356 5.73223
H 9.31172 16.4208 5.50656
H 9.15873 2.28695 6.03476
Si 12.2545 14.6857 8.08911
O 13.0039 14.0373 6.76679
C 12.8815 13.9479 9.6978
H 12.005 13.5845 10.3029
H 13.6175 13.1611 9.60545
H 13.2281 14.903 10.1802
C 12.7855 16.512 7.97897
H 13.8435 16.5093 8.30524
H 12.5878 16.7374 6.89235
H 12.0669 16.7319 8.74088
Si 14.4174 13.4309 6.08012
O 15.3392 13.4294 7.45017
C 15.2328 14.7083 4.96448
H 15.631 14.3057 4.0093
H 14.7561 15.6279 4.62399
H 16.1374 15.0381 5.47256
C 14.3655 11.7815 5.11408
H 13.6692 12.0055 4.29234
H 15.3782 11.6032 4.63871
H 13.997 10.9583 5.77771
Si 15.8786 12.1145 8.33131
O 14.7178 10.9594 8.25942
C 16.1103 12.7496 10.0318
H 17.0951 13.1076 10.3077
H 15.5567 13.6725 9.84266
H 15.7267 12.1188 10.8594
C 17.4471 11.5048 7.65265
H 17.834 11.9031 6.74222
H 18.1394 11.6488 8.4577
H 17.349 10.4232 7.65507
Si 14.0812 9.69407 9.05623
C 12.21 10.0756 9.16441
H 11.719 9.97814 8.17916
H 12.1144 11.1418 9.40559
C 14.4321 8.25147 7.8652
H 13.7487 8.36148 7.05336
H 15.4045 8.2532 7.28534
H 14.2138 7.24179 8.22601
Si 19.7177 7.06687 9.23104
O 2.45916 5.67671 8.76239
C 18.062 6.44172 9.86315
H 17.7194 5.43901 9.39681
H 17.83 6.32592 10.924
H 17.2728 7.16191 9.46026
C 19.1573 8.39838 7.97034
H 18.8229 9.24609 8.54364
H 19.7097 8.71235 7.10414
H 18.2895 7.95634 7.38675
Si 2.60511 4.86448 7.24053
O 2.07063 3.31894 7.33031
C 19.969 5.66647 5.76649
H 2.41963 5.15331 5.03226
H 18.8615 5.62887 5.69291
H 2.19241 6.68132 5.90325
C 4.35068 4.9195 6.64715
H 5.07606 4.63589 7.33564
H 4.44693 4.18095 5.87386
H 4.40698 5.91285 6.19396
Si 18.6264 2.7748 7.45485
O 18.8573 1.65064 8.62256
C 17.2745 3.8962 7.82432
H 16.4452 3.27221 7.4837
H 17.0942 4.17719 8.8495
H 17.3588 4.87887 7.18513
C 18.3653 1.7404 5.85312
H 18.9917 16.6547 5.60278
H 17.3571 17.0984 5.7918
H 18.296 2.49507 5.10289
Si 17.8878 16.2248 9.11564
O 18.7088 16.0308 10.5449
C 16.0574 16.2917 9.40816
H 15.8844 17.1545 9.95141
H 15.3608 16.1509 8.66164
H 16.0232 15.4398 10.1369
C 18.5357 14.8116 8.05061
H 17.6848 14.4271 7.53981
H 19.1912 15.1861 7.20461
H 19.076 14.1482 8.75634
Si 18.9627 17.1471 11.8767
O 17.4947 1.64451 12.5851
C 19.9694 15.9443 12.9048
H 19.5794 15.8572 13.8783
H 19.8155 14.9261 12.3942
H 2.7894 16.3047 12.6202
C 19.753 2.93658 11.4302
H 2.36319 2.95511 10.6806
H 19.0143 3.72015 11.0974
H 2.02329 3.50927 12.2825
Si 16.2771 2.76576 12.8273
C 14.5302 1.95872 12.5355
H 14.5933 16.6876 12.8573
H 13.7831 2.47429 13.2072
H 14.3368 2.02267 11.4708
C 16.6267 4.13968 11.6062
H 17.3947 4.71712 12.1237
H 17.1388 3.85668 10.7083
H 15.7284 4.79215 11.4141
Si 4.16334 13.4085 14.6416
O 2.74419 12.7969 13.9647
C 4.58111 12.066 15.8682
H 5.53387 12.2128 16.409
H 3.76399 12.1465 16.601
H 4.5698 11.1732 15.2488
C 3.61567 15.0681 15.3509
H 3.67138 15.0581 16.4306
H 4.30619 15.8601 15.0828
H 2.49915 15.2562 15.1493
Si 2.13774 11.809 12.809
O 2.90171 10.3516 12.4934
C 1.92418 12.7509 11.1693
H 19.4045 13.5497 11.462
H 2.90225 13.1483 10.8694
H 19.6808 11.9524 10.5173
C 18.6563 11.3704 13.4589
H 18.4318 10.2387 13.4634
H 18.6751 11.7848 14.5245
H 17.7036 11.8368 13.1359
Si 3.8203 9.17953 11.7421
O 4.30627 8.18022 12.9349
C 5.2256 9.88345 10.696
H 5.30071 9.32762 9.78535
H 5.07541 10.8827 10.3453
H 6.07843 9.96044 11.368
C 2.59113 8.21234 10.4669
H 2.89803 7.30055 11.0693
H 19.8709 8.8199 10.8247
H 3.06776 8.51543 9.53703
Si 3.34674 6.99377 13.6519
O 4.10334 5.67365 13.053
C 19.7306 7.24526 13.1699
H 19.6129 8.2887 12.7629
H 19.5216 6.6901 12.274
H 19.0769 7.11614 14.042
C 3.67416 7.21945 15.4991
H 3.49907 6.1573 15.9417
H 4.70618 7.58311 15.7485
H 2.82172 7.74105 15.9662
Si 5.50957 4.88879 13.5003
O 6.49797 4.47857 12.2739
C 6.49488 6.04071 14.4276
H 7.37554 5.59608 14.8217
H 6.73033 6.95247 13.8892
H 5.88506 6.23312 15.3498
C 4.85453 3.2442 14.1424
H 4.04635 3.38931 14.9464
H 4.42127 2.57093 13.344
H 5.52298 2.52719 14.6657
Si 6.43993 4.17466 10.6437
C 4.82431 3.30155 10.1898
H 4.54804 3.65236 9.16518
H 4.90125 2.16212 10.0842
H 3.99649 3.61023 10.8072
C 7.01044 5.66997 9.68738
H 6.43218 5.52693 8.7506
H 8.01746 5.57757 9.19298
Si 5.733 14.2879 13.0431
O 6.50359 15.6327 13.7351
C 6.79498 12.9639 12.343
H 7.15396 12.4971 13.3185
H 6.04542 12.244 11.9854
H 7.59613 13.0472 11.6986
C 4.98495 15.1051 11.554
H 3.93716 15.5334 11.4635
H 5.71081 16.0274 11.6926
H 5.2826 14.6716 10.5369
Si 7.40349 15.6645 15.0947
O 9.02873 15.9519 14.7404
C 7.07249 17.0846 16.0796
H 6.08014 16.9968 16.4896
H 7.82118 17.0958 16.8558
H 7.25189 2.1395 15.3838
C 7.33406 14.2233 16.1969
H 7.99418 14.1769 17.0877
H 6.28541 14.0147 16.5244
H 7.62725 13.3719 15.6336
Si 10.0426 15.1767 13.6634
O 9.61476 13.6174 13.4142
C 11.8685 15.4988 13.9047
H 12.1073 16.5048 14.4009
H 12.471 14.8364 14.4494
H 12.3608 15.5982 12.914
C 9.64338 16.2765 11.8439
H 10.0886 15.6087 11.079
H 8.5426 16.2519 12.0103
H 10.2635 16.7712 12.5813
Si 10.4284 12.266 13.9581
O 9.55701 11.1701 13.0287
C 10.5907 12.0355 15.6878
H 11.3936 12.6228 16.1175
H 9.66038 12.3966 16.25
H 10.5567 10.9718 16.0521
C 11.9605 12.0107 12.9259
H 12.1145 11.0008 13.415
H 11.506 11.7607 11.948
Si 8.53773 9.99802 13.2819
O 8.20349 9.16109 11.9175
C 7.22238 10.0779 14.575
H 7.15054 9.07188 15.0221
H 7.49539 10.7965 15.4025
H 6.26982 10.4446 14.1978
C 9.60971 3.3809 14.273
H 8.60914 3.06426 14.4991
H 10.2558 2.45589 14.2133
H 9.68249 3.9534 13.3134
Si 8.61956 7.7351 11.1762
C 6.96624 7.09033 10.2411
H 6.85849 7.79427 9.39067
H 6.00921 7.2611 10.6894
C 9.3039 6.30298 12.2487
H 9.66552 5.46585 11.4814
H 10.2656 6.47942 12.6754
H 8.63802 5.68441 12.8068
Si 16.6284 3.59823 14.9202
O 16.1351 2.53565 16.0238
C 18.5595 3.89362 15.2184
H 18.8809 3.30088 16.0731
H 19.1334 3.4358 14.418
H 18.7469 4.99833 15.1036
C 15.7192 5.16958 15.0069
H 14.9407 5.04771 14.2212
H 15.1532 5.71221 15.808
H 16.4738 5.92651 14.6216
Si 16.5865 16.8595 16.6171
O 15.2073 15.965 16.3267
C 17.9395 16.0336 15.697
H 17.4899 15.5074 14.8043
H 18.7842 16.7431 15.3888
H 18.4231 15.1923 16.2811
C 16.8742 16.9591 1.88755
H 16.3451 16.3375 2.6724
H 17.9128 16.75 2.06333
H 16.5961 2.23329 2.00872
Si 14.743 14.4218 16.5445
O 14.2092 13.5538 15.2264
C 15.9485 13.2849 17.3632
H 16.7055 13.8226 17.7865
H 15.3332 12.6068 17.9779
H 16.2857 12.5749 16.6058
C 13.2601 14.807 17.7898
H 13.9616 14.9806 2.07314
H 12.9085 15.5969 17.1549
H 12.9932 13.7549 17.5331
Si 14.679 13.1229 13.721
O 15.6045 11.6352 13.7812
C 13.2582 12.8027 12.5663
H 12.9772 13.8421 12.2441
H 13.7442 12.3145 11.7366
C 15.9111 14.3001 13.0196
H 15.9584 15.3235 13.4241
H 16.9012 13.8123 13.3133
H 16.1755 14.2986 12.0185
Si 14.8618 10.1336 13.8518
O 14.3295 9.71135 12.3774
C 16.3226 9.2034 14.4672
H 17.0573 8.67409 13.7605
H 16.9948 9.85321 15.0695
H 15.959 8.41387 15.0905
C 13.6512 10.272 15.2312
H 13.4237 11.2711 15.3258
H 12.6545 9.85905 15.2248
H 14.1037 9.64836 16.0211
Si 15.0415 9.02391 11.1052
C 14.7403 7.19335 11.2738
H 13.844 6.95356 11.8139
H 14.9392 6.74436 10.2929
H 15.5953 6.77496 11.9489
C 16.8376 9.38729 11.1103
H 17.4043 8.70054 11.8177
H 17.1676 9.21006 10.0674
H 17.1369 10.3643 11.5244
523
 Atoms. Timestep: 9000
Si 2.73065 12.7208 2.76679
O 2.66854 11.0975 2.59752
C 19.812 13.8647 18.1742
H 19.8943 13.4544 17.132
H 18.8011 13.8684 2.00633
H 2.00043 14.8893 1.7877
C 4.46834 13.282 2.6059
H 5.16585 12.7992 3.32931
H 5.03693 13.0915 18.1805
H 4.18063 14.3856 2.65618
Si 20.034 10.3746 17.9319
O 2.19414 8.59509 1.93312
C 2.8122 10.4843 16.2932
H 3.91698 10.8369 16.1521
H 2.64043 9.53591 15.7234
H 2.17213 11.3577 15.7638
C 18.2077 10.7837 18.0049
H 17.5719 10.4366 17.2031
H 17.9163 10.5358 2.47611
H 18.2478 11.848 17.8755
Si 3.97603 8.43772 2.42393
O 4.07677 6.82883 1.9789
C 3.88119 8.49359 4.25993
H 2.95859 8.90735 4.65624
H 3.94281 7.52362 4.73166
H 4.57654 9.19697 4.77975
C 5.34011 9.14709 17.926
H 5.26427 8.66064 16.9338
H 5.24203 10.1756 17.9324
H 6.35807 8.73258 18.1057
Si 4.99545 5.44455 2.16114
O 4.24801 4.00813 2.29157
C 6.1279 5.90501 3.61261
H 5.70186 5.86704 4.61433
H 6.94051 5.21846 3.6886
H 6.73957 6.79358 3.40098
C 6.32698 5.24924 17.2632
H 6.24808 4.46699 16.5317
H 6.35338 6.15255 16.6825
H 7.27784 5.28768 17.7361
Si 3.83685 2.45277 1.92618
O 4.999 17.266 2.54415
C 3.52916 2.12336 16.7046
H 3.27371 16.7894 16.6014
H 2.91521 2.81128 16.0824
H 4.55665 2.10719 16.2594
C 2.16654 2.23479 2.81665
H 2.32899 1.61152 3.68667
H 19.8831 3.18529 3.08352
H 19.747 17.4081 2.11885
Si 6.03735 17.0605 3.78491
C 7.38706 16.0826 3.05216
H 8.02281 15.6968 3.90888
H 7.23031 15.2432 2.46466
H 7.88056 16.8774 2.47168
C 6.68012 2.64498 4.82653
H 7.52571 3.15043 4.31515
H 5.83309 3.38657 4.93111
H 7.13947 2.32983 5.72999
Si 11.1937 14.6929 2.33909
O 10.2251 13.4171 2.16494
C 10.3248 16.1809 1.73055
H 11.0425 16.8023 17.6888
H 9.49002 15.8341 17.586
H 9.86622 16.8517 2.45796
C 12.0674 14.7921 3.99927
H 12.0847 15.8873 4.27387
H 11.6717 14.1224 4.83582
H 13.1236 14.5074 3.81555
Si 9.27508 12.4983 3.09372
O 10.2857 11.3849 3.77561
C 8.00455 11.6337 2.15153
H 8.19319 10.5826 2.32246
H 6.99231 12.0717 2.3349
H 8.0594 11.7253 17.5449
C 8.43085 13.356 4.62328
H 8.0209 12.5218 5.18015
H 9.05343 13.9271 5.35058
H 7.48517 13.9441 4.35196
Si 11.534 10.4588 3.10312
O 10.8641 9.16686 2.36344
C 12.2669 9.52439 4.55693
H 12.0326 8.47974 4.39189
H 13.3418 9.67527 4.61691
H 11.8323 9.7381 5.5185
C 12.7934 11.1393 1.91018
H 12.3788 12.0155 18.0204
H 13.6629 11.5593 2.3451
H 12.7895 10.3288 17.7135
Si 10.4108 7.75338 1.78357
O 11.0967 7.44912 16.8053
C 8.55724 7.87157 18.029
H 7.88728 7.56579 2.29809
H 8.19614 8.75347 17.5751
H 8.61965 6.9614 17.4591
C 10.9748 6.4294 2.83246
H 10.9741 6.60967 3.86432
H 10.2213 5.63337 2.75875
Si 10.9167 6.94545 15.241
O 9.86564 5.66495 15.264
C 12.5142 6.73367 14.3069
H 12.6102 5.75807 13.8919
H 12.5711 7.53124 13.5233
H 13.3902 7.03604 14.8263
C 10.1115 8.34142 14.3809
H 9.3424 7.52116 14.4574
H 10.4798 9.03809 15.1846
H 10.7277 8.17708 13.5028
Si 10.2832 4.06052 15.6873
C 9.63885 3.75376 17.4863
H 9.56236 2.72455 17.8265
H 10.3377 4.17193 18.2586
H 8.7252 4.24292 17.7217
C 12.1401 3.73739 15.8088
H 12.32 2.69009 15.9847
H 12.8198 4.09419 15.0495
H 12.4989 4.27654 16.7033
Si 19.137 7.39252 1.80641
O 18.1184 7.88864 3.07132
C 19.7968 5.60309 1.80093
H 2.2756 5.36197 2.71555
H 19.0354 4.79597 1.72649
H 2.25537 5.47348 17.4742
C 18.3899 7.56089 16.6928
H 18.9 8.39237 16.2114
H 18.6418 6.7023 16.1144
H 17.2966 7.80786 16.5624
Si 16.548 8.18959 3.52931
O 15.8102 6.7975 4.14409
C 17.0358 9.49574 4.89746
H 17.9208 9.96524 4.45178
H 16.2629 10.2356 5.1215
H 17.4043 9.33354 5.92511
C 15.4227 8.91987 2.31963
H 14.9721 9.85008 2.75169
H 15.8419 9.1634 17.907
H 14.5678 8.24748 2.129
Si 15.8108 5.25644 3.62668
O 14.3354 4.55719 4.06108
C 15.6485 5.41513 1.8001
H 15.244 4.4174 18.0546
H 14.9666 6.12651 17.9932
H 16.5649 5.60646 17.8304
C 17.1948 4.33479 4.26586
H 17.087 3.46593 4.88523
H 17.7911 4.21674 3.29995
H 17.7174 4.98975 4.95054
Si 12.9377 4.27981 3.26694
O 11.8332 3.8728 4.39378
C 12.3429 5.89585 2.39152
H 13.1284 6.65579 2.68899
H 12.5278 5.94547 17.8503
C 12.9935 2.72589 2.27932
H 13.8064 2.85398 18.02
H 13.3095 1.88237 2.84802
H 11.9847 2.52022 1.91282
Si 11.5649 4.40576 5.84898
O 12.0967 3.46093 7.07286
C 9.68731 4.99151 6.10537
H 9.30985 5.53416 5.29723
H 9.12978 4.07286 5.93117
H 9.66949 5.49416 7.06249
C 12.3197 6.15253 6.16515
H 13.2148 6.20335 6.78732
H 12.666 6.72081 5.31797
H 11.5444 6.70705 6.70418
Si 13.4404 2.58198 7.41865
C 14.7676 2.45692 6.17826
H 14.4726 1.7812 5.30896
H 14.7684 3.46313 5.77247
H 15.6935 2.21518 6.67867
C 14.0898 3.51242 8.95154
H 13.2257 4.06406 9.44829
H 14.4905 3.01864 9.83297
H 14.7955 4.32754 8.62885
Si 1.97121 13.1881 5.00164
O 2.66636 14.4705 5.94643
C 18.3245 13.6842 5.00631
H 17.7218 13.4942 5.96108
H 18.153 14.7205 4.79181
H 17.8681 13.1222 4.21803
C 2.04725 11.6945 6.056
H 19.8449 10.7229 5.68128
H 3.16442 11.5115 6.206
H 19.6604 11.7886 7.06377
Si 4.13128 14.986 6.5117
O 5.16908 13.7982 6.74817
C 4.11132 16.2009 7.92446
H 3.88455 15.7116 8.89489
H 5.11974 16.5656 8.02405
H 3.31352 16.9836 7.73606
C 4.77894 16.0595 5.04624
H 4.1338 15.5296 4.24472
H 4.64889 17.0003 5.58237
H 5.72725 15.5526 5.36019
Si 5.4789 12.4182 7.80472
O 5.40784 10.9846 7.18524
C 3.95791 12.7467 8.85695
H 3.38839 13.4317 8.34491
H 3.25822 11.8614 9.03341
H 4.26929 13.0961 9.86461
C 7.00398 12.5903 8.83896
H 6.94922 11.831 9.63054
H 7.95741 12.5079 8.34695
H 7.1485 13.5948 9.34456
Si 6.40181 9.81558 6.71965
O 7.78154 10.0313 7.59454
C 5.54588 8.1684 7.00627
H 6.00097 7.84573 8.00451
H 4.495 8.43358 7.26815
H 5.76157 7.40472 6.22699
C 6.70744 9.97425 4.9626
H 6.29398 10.8701 4.53484
H 7.69786 9.9997 4.77686
H 6.34673 9.05258 4.38251
Si 9.38175 9.60112 7.13684
O 9.83889 8.66783 8.30405
C 9.3705 8.57933 5.60617
H 9.83424 9.18485 4.81104
H 10.0988 7.75886 5.60667
H 8.40814 8.16956 5.40125
C 10.3113 11.2491 7.0398
H 9.97762 11.7358 8.03689
H 11.4332 11.3644 6.92209
H 9.8882 11.8193 6.24301
Si 10.6204 8.05735 9.72655
C 11.5916 6.49125 9.51124
H 12.4551 6.50117 10.2302
H 10.9816 5.58399 9.58337
H 12.2003 6.50248 8.60845
C 11.3796 9.59112 10.4985
H 11.7937 9.40467 11.5211
H 10.4311 10.0919 10.4194
Si 9.51512 2.07381 10.522
O 9.53309 16.9342 9.15651
C 7.9491 3.09222 10.7484
H 7.88788 3.4688 9.69138
H 7.13505 2.52682 11.0324
H 8.24984 3.71679 11.5664
C 10.9346 3.18382 10.8458
H 11.8617 2.78606 11.2717
H 11.3016 3.64551 9.91823
H 10.6795 4.08794 11.3995
Si 9.39782 16.3073 7.64817
O 10.3707 14.8851 7.72484
C 7.68562 16.07 7.37885
H 7.2831 15.452 8.1049
H 7.22717 16.9821 7.66154
H 7.25519 15.6786 6.45021
C 9.79477 17.3248 6.08138
H 10.8695 1.91538 5.67599
H 9.06713 16.9018 5.3555
H 9.41012 2.47497 6.5268
Si 11.9762 14.9062 8.07128
O 12.9772 13.995 7.24448
C 12.2897 14.6824 9.8271
H 13.1665 14.0236 10.1329
H 12.2058 15.5731 10.4228
H 11.4184 14.0633 10.0949
C 12.637 16.7798 7.90784
H 13.446 16.334 8.59252
H 12.4484 16.3113 6.87774
H 11.8646 16.9571 8.62475
Si 14.3946 13.5707 6.50115
O 15.6247 13.3284 7.587
C 15.0845 14.6956 5.311
H 15.4834 14.1717 4.368
H 14.4546 15.5392 4.95926
H 15.9265 15.3299 5.72833
C 14.1067 11.9503 5.43998
H 13.3011 12.0684 4.70652
H 15.0931 11.8669 4.8911
H 13.6704 11.1513 6.04881
Si 16.1562 12.2781 8.85827
O 15.0931 11.0402 9.10725
C 16.1364 13.4261 10.3598
H 16.9496 14.1376 10.3197
H 15.3018 14.0524 10.4102
H 16.1805 12.7897 11.182
C 17.7928 11.6074 8.31567
H 17.5539 11.1423 7.40301
H 18.5518 12.3197 8.19812
H 18.0057 10.9558 9.10479
Si 14.128 9.6281 9.47505
C 12.351 10.2248 9.48957
H 12.1756 9.87908 8.43146
H 12.259 11.3203 9.51604
C 14.4407 8.20142 8.29628
H 13.975 8.38298 7.29103
H 15.4937 8.04608 8.08797
H 14.1866 7.27414 8.72518
Si 19.5026 7.26564 8.90497
O 2.38416 6.33078 8.06056
C 18.5061 6.31463 10.2225
H 19.0133 5.38542 10.6437
H 18.3822 7.01003 11.129
H 17.5144 6.00306 9.86768
C 18.703 8.42924 7.74958
H 19.1523 9.4115 7.77928
H 18.9422 8.1937 6.7027
H 17.6451 8.50494 7.99909
Si 2.69396 5.23493 6.91972
O 1.99073 3.65476 6.94675
C 20.0016 6.00628 5.41313
H 19.034 6.09994 5.82565
H 2.22086 6.91437 5.04737
H 19.9155 5.32069 4.58738
C 4.43607 5.39154 6.51309
H 4.57208 4.52483 5.92491
H 4.62021 6.35992 6.01935
H 4.87347 5.32662 7.56322
Si 18.7678 2.72655 7.22153
O 19.0873 1.84737 8.50826
C 17.3584 4.03825 7.47177
H 16.5587 3.92799 6.70316
H 16.8875 3.94835 8.43972
H 17.8136 5.0051 7.36609
C 18.4824 17.0464 6.00237
H 19.0256 16.2182 6.38201
H 17.4016 16.9142 5.97429
H 18.542 17.1234 4.89014
Si 18.3198 16.2554 9.15813
O 18.9669 16.258 10.6313
C 16.4463 16.4798 9.48458
H 16.0638 17.3351 8.97172
H 15.735 15.7236 8.95554
H 16.1275 16.4719 10.5468
C 18.8387 14.7943 8.19282
H 19.8173 14.8175 7.76641
H 18.7627 14.0278 8.99885
H 18.0579 14.4644 7.50512
Si 19.1621 17.0498 12.0863
O 17.5468 17.1581 12.5197
C 2.01175 16.3585 13.3805
H 2.73194 17.2361 13.6436
H 19.6392 16.1379 14.2868
H 2.59971 15.5028 13.2269
C 1.98022 2.68689 11.4867
H 19.9317 3.57499 12.0667
H 3.06546 2.51402 11.703
H 19.9836 2.84395 10.3845
Si 16.2169 2.43198 12.9498
C 14.5776 17.1247 12.5937
H 14.2362 16.6355 13.5304
H 13.7722 1.96538 12.2403
H 14.778 16.3942 11.8634
C 16.256 4.11618 12.0167
H 16.8189 4.89834 12.5597
H 16.4004 4.13093 10.937
H 15.2158 4.36 12.1723
Si 4.44467 13.6382 13.6378
O 2.79713 13.2507 13.0619
C 5.48836 12.0924 13.7505
H 5.26433 11.3584 12.9979
H 6.51662 12.3758 13.4545
H 5.48145 11.7974 14.83
C 4.03825 14.2282 15.4463
H 4.54858 13.6741 16.2568
H 4.44256 15.2384 15.6261
H 2.98639 14.1566 15.5789
Si 1.92852 11.8941 12.5599
O 3.06692 10.849 11.9103
C 18.9743 12.4553 11.2104
H 19.3173 11.8392 10.356
H 17.9848 12.3358 11.5742
H 19.3366 13.466 10.9688
C 18.8201 11.1352 13.6475
H 18.831 10.0945 13.3
H 19.1486 10.7289 14.6128
H 17.7605 11.4017 13.5423
Si 3.48479 9.40265 11.3877
O 3.50525 8.37061 12.6991
C 5.28003 9.63369 10.8967
H 5.4896 9.41545 9.82066
H 5.49439 10.6886 10.9649
H 6.06245 9.32348 11.577
C 2.4671 8.60418 9.97236
H 2.95995 7.62327 10.2752
H 19.7458 9.04693 10.3839
H 2.94034 9.04745 9.12602
Si 3.18273 6.91592 13.5103
O 4.06385 5.90879 12.5462
C 19.5509 6.36907 13.4547
H 18.982 7.01586 12.8279
H 19.6591 5.34371 12.9781
H 19.0487 6.25766 14.3721
C 3.62727 7.19665 15.3801
H 3.98305 8.2464 15.4295
H 2.58455 7.0947 15.7305
H 4.28572 6.40185 15.7401
Si 5.41594 5.24915 13.136
O 6.27133 4.89976 11.7292
C 6.57429 6.40289 14.0326
H 6.02659 7.14658 14.6718
H 7.15304 5.81247 14.7283
H 7.26035 7.05882 13.4807
C 5.23537 3.66389 13.8207
H 4.88054 3.10417 12.9319
H 6.22384 3.25026 14.1545
H 4.51185 3.35393 14.6085
Si 6.45733 4.65424 10.2213
C 5.40146 3.60648 9.12796
H 4.37202 3.99397 8.93314
H 5.85161 3.63041 8.08959
H 5.47379 2.54931 9.51477
C 7.23441 6.06204 9.32154
H 6.5912 6.13134 8.38997
H 8.23898 5.74297 8.99237
Si 5.9918 14.883 12.418
O 6.74551 15.5572 13.7294
C 7.3693 13.8705 11.66
H 7.88152 13.5025 12.5424
H 6.83211 13.0462 11.1193
H 8.13775 14.2544 10.9813
C 5.14744 16.291 11.381
H 5.1582 17.2831 11.8514
H 5.33573 16.4028 10.3659
H 4.08208 16.1404 11.4528
Si 7.54128 15.533 15.1577
O 9.03012 15.8621 14.6329
C 6.86503 16.9381 16.2282
H 6.82612 2.07684 15.6173
H 5.88283 16.6623 16.6446
H 7.60088 17.0305 17.0861
C 7.37806 13.8582 16.0865
H 7.91284 13.96 17.0585
H 6.40304 13.7352 16.5181
H 7.61239 12.9356 15.6507
Si 10.2984 15.1732 13.6609
O 9.86451 13.5607 13.4327
C 11.9055 15.8783 14.3166
H 12.5464 15.0165 14.5336
H 12.4374 16.497 13.661
H 11.6719 16.4736 15.2233
C 9.85703 16.1957 11.8712
H 10.3529 15.5015 11.0916
H 8.75555 16.2298 11.9785
H 10.3292 17.0097 12.4952
Si 10.4049 12.024 13.8167
O 9.28057 10.9984 13.3196
C 10.2807 11.9151 15.6309
H 9.63214 12.7815 15.9057
H 9.75421 11.0485 16.0563
H 11.2655 12.1645 16.0469
C 12.0849 11.8118 12.7894
H 12.5199 10.8151 12.967
H 11.5402 11.8648 11.8461
Si 8.79671 9.4994 13.7466
O 8.40828 8.79589 12.3774
C 7.55244 9.43973 15.1796
H 7.27611 8.41899 15.6315
H 7.75752 10.1199 16.0019
H 6.66225 9.79762 14.608
C 9.31865 3.15158 14.2983
H 9.25455 2.05818 14.4888
H 9.68988 3.34062 13.286
H 8.27498 3.54763 14.3932
Si 8.82011 7.69759 11.2253
C 7.42023 7.37923 10.1565
H 7.34173 8.1347 9.34314
H 6.53584 7.38469 10.8023
C 9.38464 6.1153 11.9877
H 9.90198 5.43542 11.2395
H 10.1677 6.13471 12.759
H 8.53963 5.53347 12.4746
Si 16.3466 3.1824 15.2272
O 15.8451 2.27734 16.6237
C 18.0493 3.98995 15.5631
H 18.8638 3.37361 15.9657
H 18.445 4.25307 14.5431
H 18.1995 4.90795 16.1283
C 15.3009 4.75144 15.2387
H 14.4896 4.60374 14.4328
H 14.5138 4.80377 15.9849
H 15.757 5.68384 14.9429
Si 16.3176 16.692 17.1661
O 15.1369 15.5853 16.5994
C 17.9032 16.1828 16.2653
H 17.8162 15.7574 15.2744
H 18.5421 17.0972 16.1898
H 18.3521 15.4386 17.0254
C 16.3294 16.5775 2.46725
H 17.2972 16.2431 2.74774
H 16.2935 1.71516 2.96951
H 15.5036 15.9957 2.82717
Si 14.5681 14.0954 16.7401
O 14.1036 13.3533 15.3113
C 15.5821 12.8959 17.6548
H 15.5077 12.7404 2.24494
H 15.2927 11.8039 17.4197
H 16.6594 13.0855 17.2116
C 12.8203 14.5806 17.5704
H 13.2351 15.4511 18.1374
H 12.3142 14.8464 16.6175
H 12.8342 13.5213 17.9695
Si 14.6825 12.9514 13.8462
O 15.3382 11.4598 14.0579
C 13.2032 12.8556 12.6596
H 12.8588 13.8888 12.8623
H 13.6425 12.8803 11.6995
C 15.9929 14.3052 13.6364
H 16.2139 15.2633 13.1951
H 16.4198 14.4153 14.596
H 16.8076 13.7664 13.093
Si 14.8976 9.86929 14.2075
O 14.2941 9.42524 12.7482
C 16.3821 8.85893 14.4811
H 16.3599 7.97789 13.8387
H 17.2322 9.5641 14.4125
H 16.1269 8.49259 15.5574
C 13.5586 9.91736 15.4802
H 12.8563 10.7369 15.462
H 12.9166 9.00763 15.6117
H 13.9715 10.1122 16.5009
Si 15.1372 8.86027 11.4064
C 15.1634 6.9789 11.3959
H 14.2032 6.42281 11.6904
H 15.32 6.67368 10.3703
H 16.0453 6.69402 11.9686
C 17.0102 9.48207 11.3917
H 17.5271 8.81771 12.14
H 17.2043 9.3741 10.3061
H 17.1305 10.5441 11.7378
523
 Atoms. Timestep: 9500
Si 3.14006 12.6148 2.56338
O 3.06597 10.9617 1.96146
C 2.0548 13.5735 18.0951
H 2.29261 14.5562 1.87445
H 2.12569 13.7294 17.0316
H 19.2825 13.547 1.79603
C 5.00511 12.9519 2.47146
H 5.51997 12.5986 3.33799
H 5.129 12.3655 18.2648
H 5.21938 13.9831 2.19569
Si 1.85648 10.1781 17.7604
O 2.13812 8.47785 17.9974
C 2.11986 10.1054 15.9554
H 2.75627 9.34441 15.4649
H 19.3855 10.3414 15.5
H 2.47034 11.1198 15.6658
C 18.5322 10.8738 18.1261
H 17.712 10.1931 17.8187
H 18.367 11.0915 2.55928
H 18.4715 11.808 17.5975
Si 3.80599 7.94639 1.77208
O 4.17479 6.40171 18.2372
C 3.92391 8.29716 3.61744
H 2.81409 8.28143 3.92849
H 4.51237 7.50862 4.10281
H 4.26532 9.26764 3.72412
C 4.97416 8.79536 17.2344
H 5.85802 9.25024 17.8149
H 5.54478 8.34574 16.4499
H 4.52431 9.66864 16.9474
Si 5.21952 5.19285 1.94882
O 4.23643 4.02382 2.53694
C 6.53547 5.83226 3.15666
H 7.18481 4.96941 3.4802
H 7.17598 6.32998 2.48622
H 6.25798 6.47643 3.97561
C 5.88775 4.67828 16.873
H 6.8907 4.23931 16.9168
H 5.22444 3.93761 16.4124
H 6.04831 5.58374 16.3422
Si 4.00397 2.4395 2.63318
O 5.34535 17.3666 2.87968
C 3.1714 1.70545 17.7715
H 2.32537 2.30319 17.4011
H 3.69497 17.0457 16.9761
H 2.7084 16.6406 18.1152
C 2.914 2.15596 4.14397
H 3.67732 2.46122 4.91595
H 2.0444 2.79619 4.26521
H 2.54966 17.0186 4.16233
Si 6.51806 17.0396 4.01018
C 8.01858 16.5264 3.11564
H 9.02061 16.9933 3.15379
H 8.03239 15.3931 3.06595
H 7.71665 16.7475 2.13085
C 6.62349 2.65513 5.0958
H 7.44256 3.33188 4.73468
H 5.69749 3.22923 5.12786
H 7.04888 2.49298 6.14886
Si 11.2561 15.133 2.15789
O 10.592 13.6576 2.36263
C 10.414 16.3341 17.7131
H 9.41052 16.0503 17.468
H 10.3644 17.2443 1.69106
H 11.0437 16.6748 16.8531
C 11.6801 15.8937 3.7692
H 11.354 16.9879 3.83192
H 11.2228 15.3692 4.64547
H 12.8009 15.8424 3.8834
Si 9.73744 12.4976 3.21213
O 10.9118 11.506 3.88635
C 8.45818 11.6656 2.11885
H 8.45466 10.5564 2.39963
H 7.49499 11.8874 2.41405
H 8.6382 11.7582 17.6514
C 8.7874 13.3405 4.57291
H 8.93838 14.4499 4.38913
H 7.72889 13.1067 4.68748
H 9.25479 13.2549 5.54589
Si 11.845 10.4827 3.04368
O 10.8412 9.20833 2.46184
C 13.0504 9.45958 4.28733
H 13.4894 8.55188 3.75942
H 13.8115 10.1043 4.72419
H 12.6755 9.1417 5.26655
C 12.7094 11.4832 1.7706
H 12.9724 12.5031 2.04014
H 13.7479 11.1414 18.2082
H 12.4507 11.4991 17.3403
Si 10.3869 7.76267 1.84804
O 11.367 7.78716 17.1779
C 8.69847 7.77406 17.9599
H 7.99536 8.22533 2.14683
H 8.69072 8.48558 17.0071
H 8.37096 6.7941 17.5826
C 10.8167 6.35615 2.95868
H 10.8033 6.49591 4.00322
H 10.1238 5.55914 2.7858
Si 11.3146 7.34857 15.5139
O 10.3124 6.01101 15.4296
C 13.029 6.87224 14.8044
H 13.5681 6.61944 15.6935
H 12.8732 6.07217 14.0324
H 13.64 7.73106 14.4485
C 10.2723 8.6752 14.515
H 9.45793 7.95738 14.3103
H 10.1874 9.46744 15.2297
H 10.9221 8.95812 13.7142
Si 10.1068 4.33904 15.7996
C 9.17097 4.21316 17.4755
H 8.56744 3.34118 17.6372
H 9.9726 4.04641 18.1547
H 8.64689 5.12016 17.6624
C 11.867 3.58674 15.809
H 11.8468 2.51937 15.8721
H 12.4968 3.88826 14.9726
H 12.4024 4.0451 16.64
Si 18.9161 7.2193 18.3105
O 18.1429 7.98264 2.77073
C 19.6432 5.63793 1.9571
H 1.95659 5.39257 2.83446
H 18.8967 4.79386 2.03414
H 1.97497 5.43015 17.7265
C 18.2774 7.48905 16.6351
H 19.0241 7.43579 15.848
H 17.6969 6.62502 16.3559
H 17.4702 8.20432 16.5189
Si 16.6898 8.56244 3.43371
O 16.2209 7.19238 4.24951
C 16.9801 9.92046 4.63321
H 16.8242 9.55197 5.65775
H 18.0031 10.3347 4.56554
H 16.2761 10.8537 4.63112
C 15.5193 9.37393 2.05279
H 15.226 8.83308 17.7694
H 14.5024 9.37423 2.53473
H 15.8922 10.3812 1.75075
Si 15.7879 5.77366 3.48367
O 14.2892 5.31013 3.97706
C 15.6545 5.62007 18.2486
H 14.8706 4.92506 18.0327
H 15.3907 6.41475 17.5809
H 16.5891 5.32714 17.7606
C 16.9338 4.57494 4.28467
H 16.4966 3.5601 4.25545
H 17.9347 4.58318 3.88436
H 17.0312 5.08163 5.2948
Si 12.8999 4.61254 3.45564
O 11.7631 4.09052 4.51203
C 12.265 5.96546 2.43615
H 13.0543 6.70711 2.61003
H 12.293 5.89936 17.9895
C 13.325 2.94502 2.61749
H 14.1137 3.22725 1.89624
H 13.798 2.41549 3.45054
H 12.5374 2.38807 2.10098
Si 11.4091 4.74724 5.97366
O 12.0342 3.69698 7.0469
C 9.69897 5.1353 6.20391
H 9.36832 6.09251 5.92403
H 9.14179 4.45529 5.54941
H 9.46835 4.86738 7.30521
C 12.0847 6.40975 5.99754
H 13.1385 6.52839 6.21004
H 12.1929 6.97979 5.02023
H 11.4035 6.93833 6.69539
Si 13.1671 2.83871 7.66437
C 14.4036 2.22033 6.43346
H 13.9784 1.86066 5.5197
H 15.073 3.03649 6.09296
H 15.1855 1.60166 6.90658
C 13.9055 3.54917 9.25041
H 14.9406 3.99161 8.94821
H 13.5476 4.48722 9.79516
H 14.1125 2.74701 9.95309
Si 2.37505 12.9885 4.71825
O 3.41656 13.8386 5.6977
C 19.0421 14.0365 4.43372
H 18.5486 14.2275 5.37877
H 19.1056 14.873 3.76279
H 18.3771 13.2938 3.91181
C 1.98416 11.3372 5.57303
H 20.0052 10.6868 4.7673
H 2.84576 10.7974 5.88815
H 19.5556 11.2318 6.41796
Si 4.76957 14.4201 6.32479
O 5.72362 13.2471 7.06807
C 4.25899 15.8211 7.44048
H 5.06933 16.5016 7.80248
H 3.56857 16.3528 6.79319
H 3.68688 15.6241 8.31619
C 5.78801 15.4838 4.90379
H 6.16985 14.6733 4.26787
H 4.8424 15.9139 4.7031
H 6.24332 15.5704 5.93048
Si 5.60186 12.3845 8.45648
O 5.13286 10.8489 7.9748
C 4.43012 12.7729 9.71064
H 4.70642 13.7546 10.2053
H 3.40946 12.7468 9.49663
H 4.56782 12.2693 10.641
C 7.40168 12.2651 8.83735
H 7.86884 11.5527 9.46126
H 7.72552 11.8708 7.88333
H 7.9836 13.1999 9.08828
Si 5.94781 9.83931 7.02229
O 7.60941 9.62673 7.65373
C 5.0285 8.24006 6.98435
H 4.56299 8.03373 7.97453
H 4.26386 8.38891 6.15093
H 5.5387 7.34372 6.55785
C 6.14227 10.6268 5.40457
H 7.01958 11.3516 5.43161
H 6.15816 10.0034 4.56096
H 5.33783 11.2415 5.4751
Si 9.08574 9.26128 7.14123
O 9.69331 8.01138 8.04117
C 8.98408 8.49647 5.30156
H 8.36132 7.59531 5.31339
H 8.54289 9.20418 4.58332
H 9.95416 8.2328 4.94971
C 9.9659 10.9548 7.12228
H 10.0194 11.5613 7.99067
H 10.9621 10.908 6.76648
H 9.37756 11.391 6.24925
Si 10.3164 7.79835 9.63725
C 11.1736 6.08417 9.62083
H 10.6242 5.38103 10.2248
H 11.4923 5.74093 8.66031
H 12.1508 6.13347 10.152
C 11.5025 9.19973 9.98112
H 11.966 9.09829 10.9873
H 10.8622 10.0593 10.1675
Si 9.50237 2.03865 11.0446
O 9.49415 17.3336 9.51322
C 7.78887 3.2643 11.0197
H 8.32108 3.60867 10.1303
H 7.25299 2.28943 11.016
H 8.00319 3.70593 12.0774
C 10.9434 2.90892 11.7007
H 11.1517 2.67297 12.7973
H 11.9181 2.83056 11.1781
H 10.6351 4.00351 11.7851
Si 9.27576 16.3416 8.20879
O 10.3308 15.0207 8.19324
C 7.53089 15.8051 8.39132
H 7.50822 15.59 9.45336
H 6.83706 16.6812 8.26058
H 7.01742 14.8344 7.94519
C 9.37869 17.218 6.57677
H 8.50269 2.05001 6.67091
H 10.1995 2.14415 6.38465
H 9.21649 16.5181 5.75743
Si 11.9644 15.0853 8.67439
O 12.7029 14.2749 7.48373
C 12.2945 14.542 10.3617
H 11.6072 14.9301 11.1857
H 12.1743 13.4925 10.5548
H 13.2609 14.9646 10.6505
C 12.2645 17.0334 8.47512
H 13.4166 17.0051 8.49737
H 11.5064 17.2639 7.69052
H 11.9779 17.3701 9.47784
Si 14.0671 13.7468 6.73473
O 15.3228 13.5321 7.83072
C 15.0102 14.9286 5.63907
H 14.6952 15.3676 4.66082
H 15.7144 15.6734 6.15167
H 15.8698 14.3684 5.24986
C 13.695 12.136 5.98124
H 14.4747 11.9023 5.15524
H 13.6226 11.4146 6.785
H 12.7197 12.1326 5.44598
Si 15.7777 12.1407 8.49101
O 14.4893 11.1071 8.67847
C 16.1715 12.6476 10.2206
H 16.5542 13.5954 10.3474
H 15.1811 12.5756 10.6787
H 16.6882 11.8699 10.7213
C 17.1515 11.6643 7.34333
H 17.1671 12.042 6.3118
H 18.0172 12.0817 7.85234
H 17.2848 10.6389 7.35618
Si 14.2738 9.46789 9.17349
C 12.4856 9.16507 8.82154
H 12.6159 8.19605 8.29728
H 12.333 9.97611 8.10162
C 15.2722 8.50564 7.90771
H 14.9123 8.69268 6.84847
H 16.3224 8.89715 8.07589
H 15.1678 7.46281 8.02721
Si 1.89342 7.10662 9.13023
O 2.75907 6.2131 8.07199
C 19.116 5.89017 10.0889
H 19.7665 5.14772 10.5588
H 18.6202 6.21608 10.9827
H 18.4841 5.37776 9.29738
C 19.3682 8.56463 8.24737
H 18.3538 8.29577 7.98621
H 19.229 9.50914 8.7589
H 19.9555 8.83258 7.3794
Si 2.45698 5.22661 6.6993
O 1.89195 3.67854 7.0624
C 19.6269 6.36299 5.66675
H 19.9346 6.31385 4.61839
H 18.5262 6.23916 5.65345
H 19.9293 7.28846 6.09894
C 4.02008 5.27971 5.77048
H 4.70651 4.96727 6.54889
H 3.96425 4.83162 4.82015
H 4.12762 6.28701 5.60626
Si 18.7077 2.91119 7.28221
O 19.107 1.83319 8.54975
C 17.3456 4.12485 7.51737
H 17.0993 4.17362 8.60298
H 17.5849 5.10952 7.07835
H 16.4664 3.81475 7.01101
C 18.1678 1.95838 5.76858
H 18.6679 16.8676 5.61425
H 17.0977 1.84687 5.56306
H 18.6299 2.48861 4.88292
Si 18.369 16.283 8.74096
O 18.7372 15.9114 10.3161
C 16.4821 16.3991 8.78708
H 16.1909 15.8733 9.73742
H 16.1004 17.5066 8.81015
H 15.8968 15.6568 8.17792
C 18.9218 14.8401 7.70578
H 19.0763 14.0541 8.49004
H 18.0733 14.7162 6.97721
H 19.959 14.8793 7.25217
Si 18.9701 16.8952 11.6725
O 17.4329 17.2402 12.1471
C 19.7014 16.001 13.1083
H 19.4731 16.5643 13.9848
H 19.3216 14.9734 13.2634
H 2.54292 15.7964 13.1073
C 19.7159 2.6021 11.1312
H 1.92547 3.09992 11.9566
H 1.9288 2.54092 10.1629
H 18.858 3.20815 10.9701
Si 16.4486 2.63864 12.7581
C 14.5994 1.90949 12.9026
H 13.9079 2.70055 13.1395
H 14.3191 17.2031 12.0442
H 14.4954 17.1954 13.7642
C 16.4386 4.23558 11.5413
H 17.3357 4.82149 11.5375
H 16.1642 4.18113 10.4947
H 15.6796 4.89148 11.9526
Si 3.99433 13.5018 13.5194
O 3.06475 12.804 12.2353
C 4.92656 12.0703 14.2982
H 4.29801 11.2104 14.6405
H 5.67687 11.6988 13.6227
H 5.36247 12.4682 15.193
C 3.03642 14.195 14.9652
H 3.63858 14.1763 15.853
H 2.86174 15.2209 14.7393
H 2.0623 13.6536 15.1541
Si 1.93156 11.5918 12.0458
O 2.71935 10.1412 12.1985
C 19.598 11.7514 10.3256
H 18.7701 12.5581 10.2839
H 2.00812 11.8649 9.47748
H 19.0669 10.796 10.2734
C 18.4782 11.7001 12.982
H 18.0743 10.6936 13.2435
H 18.3247 12.3746 13.8322
H 17.6511 12.0893 12.2582
Si 3.87617 8.96906 12.0506
O 3.9575 8.13995 13.4884
C 5.34804 10.0583 11.7536
H 5.57905 10.0018 10.6899
H 5.10315 11.0716 12.1835
H 6.28192 9.72167 12.2557
C 3.25418 7.92839 10.4543
H 3.61715 6.97545 10.9469
H 2.2607 8.35583 10.8284
H 3.68804 8.39958 9.56151
Si 2.94887 6.73674 13.6995
O 3.14262 5.37259 12.7354
C 19.5334 7.16298 13.4018
H 19.2122 7.95707 14.0798
H 19.2217 7.5161 12.4336
H 19.042 6.23056 13.6624
C 3.16044 6.20786 15.4189
H 4.18763 5.96618 15.6304
H 2.79761 7.06342 15.9027
H 2.48747 5.37384 15.6274
Si 4.6506 4.57238 12.9653
O 5.14753 4.08122 11.3761
C 6.04797 5.59772 13.6862
H 7.06973 5.11524 13.4718
H 5.97169 6.60837 13.2694
H 5.96536 5.5481 14.7383
C 4.23372 2.90626 13.9521
H 3.22354 3.05328 14.4358
H 4.07089 2.07216 13.1493
H 4.9591 2.42614 14.6415
Si 6.31984 4.2162 10.2627
C 5.75881 3.29916 8.80001
H 4.79443 3.71311 8.34044
H 6.51529 3.23443 7.99093
H 5.43932 2.28364 9.08726
C 6.87968 5.87841 9.63304
H 6.22981 6.13999 8.78024
H 7.694 5.85318 8.83795
Si 5.47533 15.0202 12.5305
O 6.40015 15.7497 13.8198
C 6.72318 14.0112 11.6438
H 6.39869 12.8736 11.5823
H 6.9302 14.1394 10.5585
H 7.74678 13.8697 12.192
C 4.68749 16.2321 11.2675
H 4.93147 17.3448 11.4789
H 5.44917 16.1292 10.5001
H 3.66796 15.9345 10.9295
Si 7.12153 15.5045 15.2373
O 8.76847 15.3535 14.992
C 6.99462 17.1929 16.1742
H 7.03035 2.10504 15.3577
H 6.13912 17.1649 16.8667
H 7.93881 17.4382 16.7439
C 6.91352 14.1052 16.4141
H 7.79744 14.0794 17.1676
H 5.94362 13.8144 16.8504
H 7.22565 13.2173 15.8884
Si 9.93673 15.3485 13.9412
O 10.1003 13.8537 13.144
C 11.4134 16.0286 14.5933
H 12.162 15.9583 13.8288
H 11.3926 17.1373 14.7309
H 11.6623 15.5485 15.5022
C 9.45315 16.3609 12.1764
H 8.63578 15.6212 11.8345
H 9.20165 16.7071 13.2296
H 10.4931 15.9387 11.8205
Si 10.5372 12.2849 13.6219
O 9.28012 11.2465 13.2392
C 10.674 12.4692 15.4496
H 10.8001 11.5325 15.9843
H 11.4141 13.1887 15.8142
H 9.72164 12.8481 15.706
C 12.2275 11.8373 12.726
H 12.634 10.8411 12.9206
H 11.8559 11.8977 11.7169
Si 8.73018 9.72217 13.5384
O 8.53625 8.95421 12.1054
C 7.34626 9.77039 14.7962
H 6.86046 10.7533 15.0412
H 6.51105 9.16009 14.5593
H 7.61074 9.52217 15.8168
C 9.03508 3.50204 14.6163
H 9.08407 2.41049 14.6254
H 9.21265 3.77838 13.5965
H 7.9939 3.85265 14.7593
Si 8.68069 7.54727 11.1952
C 6.99155 7.11118 10.5521
H 6.73601 7.98424 9.92138
H 6.25345 7.06528 11.3619
C 9.42094 6.20701 12.2153
H 9.63554 5.3731 11.6317
H 10.3954 6.2302 12.8366
H 8.66455 5.86517 12.9739
Si 17.2494 3.17712 14.8922
O 16.4379 2.27992 16.1197
C 19.0711 3.49517 15.4469
H 19.4515 2.46418 15.7521
H 19.7046 3.91255 14.6538
H 19.0202 4.28271 16.182
C 16.1668 4.83895 14.7199
H 16.0184 5.37991 15.6317
H 16.53 5.44956 13.905
H 15.1037 4.53499 14.5303
Si 16.6828 16.8401 16.955
O 15.3316 15.908 16.5789
C 18.2033 15.7325 16.4254
H 18.3893 15.3909 15.3473
H 19.1355 16.2554 16.7431
H 18.186 14.8593 17.1289
C 16.8702 17.2988 2.08705
H 16.0759 2.12677 2.58587
H 16.9707 16.342 2.66465
H 17.767 2.02291 2.36865
Si 14.7185 14.3988 16.8773
O 14.1927 13.6823 15.4825
C 15.6481 13.5593 18.2644
H 16.6598 13.8842 18.146
H 15.2098 13.9294 2.51217
H 15.5472 12.534 18.3279
C 13.0463 14.7704 17.7834
H 12.6383 13.7261 17.6641
H 13.4642 14.9807 2.19818
H 12.9194 15.6203 17.1265
Si 14.7081 13.2006 13.9142
O 15.7419 11.9101 14.05
C 13.3564 12.9145 12.6123
H 13.0375 13.9815 12.49
H 13.8129 12.8915 11.6481
C 15.7275 14.497 12.948
H 15.1875 14.9149 12.12
H 16.343 15.2333 13.4255
H 16.4076 13.8308 12.4728
Si 15.3 10.2946 14.0553
O 14.6068 9.92845 12.541
C 16.4997 9.0291 14.359
H 17.3047 9.0709 13.585
H 16.9004 9.38169 15.3758
H 15.9537 8.07166 14.4586
C 13.8411 10.3095 15.3203
H 13.1871 11.1409 14.9917
H 13.1836 9.41454 15.3393
H 14.1994 10.6268 16.3313
Si 14.7824 8.88255 11.2558
C 13.8252 7.28043 11.6041
H 12.7855 7.55179 11.8452
H 13.7994 6.58142 10.7219
H 14.2453 6.81546 12.5421
C 16.6786 8.77944 11.1314
H 17.1518 8.85492 10.114
H 17.2628 9.48951 11.7452
H 17.1412 7.81978 11.5145
523
 Atoms. Timestep: 10000
Si 2.84676 12.8149 2.62635
O 2.8087 11.187 2.21471
C 1.93072 13.7255 18.1044
H 1.82126 14.8118 18.161
H 2.41104 13.4762 17.137
H 19.4808 13.3166 18.0812
C 4.66945 13.1322 2.59862
H 5.25282 12.5494 1.74346
H 4.88492 14.1199 2.21796
H 5.30864 12.9558 3.53849
Si 20.2848 10.4085 18.0322
O 2.23014 8.71293 18.2311
C 2.09776 10.7604 16.3729
H 2.96867 10.1646 16.2015
H 19.81 10.3403 15.7033
H 2.48203 11.7286 16.1635
C 18.4589 10.6902 1.58604
H 17.7771 10.4991 17.5417
H 18.2393 10.0766 2.48752
H 18.2527 11.76 1.70257
Si 3.86317 8.39772 2.15129
O 4.32448 6.88956 2.13543
C 3.26467 8.71749 3.89539
H 4.01871 8.99003 4.61028
H 2.41157 9.39067 4.06536
H 2.86119 7.75903 4.32347
C 5.01905 9.51953 18.0932
H 4.98725 10.407 1.82918
H 5.95106 9.03585 18.2085
H 4.83111 9.61023 17.0744
Si 5.53687 5.74225 2.24563
O 4.62932 4.36582 2.20839
C 6.46135 5.91786 3.80565
H 6.59071 4.97099 4.44785
H 7.52977 5.86831 3.47385
H 6.07533 6.76338 4.3721
C 6.53614 5.82186 17.4945
H 6.6491 4.7566 17.1643
H 6.00882 6.44367 16.7783
H 7.5431 6.23935 17.5663
Si 4.23525 2.78413 1.92245
O 5.44249 1.74881 2.01669
C 3.3832 2.78721 17.1488
H 2.31357 2.97308 17.1165
H 3.94622 3.3386 16.358
H 3.30507 1.81853 16.6587
C 2.97804 2.01553 2.91665
H 2.0233 2.59868 3.00642
H 2.72796 17.1445 2.49712
H 3.26351 1.86175 3.97562
Si 6.39372 16.9942 3.02523
C 7.12144 15.5537 2.21606
H 6.46457 15.0283 18.3696
H 7.99409 15.7726 1.62044
H 7.50769 14.7955 2.87254
C 7.56321 2.27447 3.63606
H 8.5936 1.9037 3.77678
H 7.69037 3.05742 2.90339
H 7.17247 2.79511 4.57064
Si 11.708 15.2902 2.30786
O 10.6327 14.0441 2.23496
C 10.9214 16.5733 18.0548
H 10.2157 16.019 17.3586
H 10.3859 17.2996 1.78542
H 11.6598 17.1708 17.5024
C 12.1992 15.4109 4.15988
H 12.3284 14.2963 4.44465
H 13.1768 15.8746 4.35731
H 11.4696 15.9097 4.82262
Si 9.8849 12.9723 3.31312
O 10.994 11.8118 3.83938
C 8.5154 11.9055 2.52786
H 7.97442 11.3215 3.32359
H 7.70913 12.5228 2.03394
H 8.81558 11.5387 18.3918
C 9.14084 13.9114 4.93446
H 10.0175 14.3118 5.52121
H 8.44695 14.7061 4.77845
H 8.63228 13.1795 5.60672
Si 12.1935 10.6683 3.33905
O 11.3871 9.4023 2.76278
C 13.1595 10.2619 4.87188
H 12.4463 9.82498 5.59083
H 13.9836 9.56471 4.81572
H 13.6207 11.1746 5.20309
C 13.1325 11.2287 1.89802
H 13.6661 10.4484 18.1967
H 12.5899 11.9846 18.1529
H 13.9322 11.907 2.26468
Si 10.3558 8.42761 1.85315
O 10.7629 8.32538 17.0818
C 8.57138 8.47431 2.13263
H 8.38856 7.74576 2.94596
H 8.24335 9.49483 2.40431
H 8.0011 8.16068 18.1298
C 10.8283 6.62963 2.51192
H 10.6061 6.63162 3.62148
H 10.0695 6.08463 2.04449
Si 11.0203 7.41302 15.6203
O 10.2409 6.01084 15.6724
C 12.7457 6.93614 15.2583
H 13.2721 6.80752 16.246
H 12.6746 5.87203 14.8691
H 13.3899 7.48554 14.5972
C 9.87221 8.61104 14.5604
H 8.9309 8.09004 14.9541
H 10.0868 9.68381 14.8511
H 10.1631 8.3193 13.4689
Si 10.4449 4.32877 15.7855
C 9.56688 3.84132 17.4526
H 9.56672 2.72158 17.4599
H 9.93077 4.28824 18.3754
H 8.54564 4.20449 17.4071
C 12.275 3.99234 15.7037
H 12.3945 2.97532 16.1408
H 12.684 3.9739 14.7082
H 12.8941 4.70006 16.2641
Si 19.6003 7.4064 1.62552
O 18.6348 7.79315 2.91612
C 1.83735 5.81975 2.16838
H 2.43542 5.54458 18.1212
H 2.46914 5.87933 3.09847
H 19.6516 4.99231 2.36779
C 18.6194 7.6838 16.9925
H 18.1986 6.75788 16.6743
H 17.7865 8.2967 17.1228
H 19.1618 8.24329 16.2871
Si 17.1646 7.85872 3.70097
O 16.5523 6.42487 4.40123
C 17.3241 9.00845 5.1522
H 16.4671 9.66631 4.93972
H 17.274 8.51499 6.12712
H 18.2952 9.57524 4.95352
C 15.6839 8.2901 2.50255
H 15.7799 8.04488 18.2931
H 14.9771 7.58308 2.91652
H 15.5381 9.33725 2.65107
Si 15.83 5.04125 3.57233
O 14.1942 5.17799 4.03487
C 15.9582 5.33531 1.77215
H 15.922 4.39099 18.1201
H 15.1846 5.92793 18.1965
H 16.9306 5.75345 1.5999
C 16.739 3.51005 4.13718
H 16.2549 2.56474 3.79819
H 17.6871 3.62367 3.51039
H 17.1171 3.32623 5.1032
Si 12.7651 4.58009 3.1439
O 11.5795 4.30011 4.32555
C 12.1348 5.97892 2.14441
H 13.0373 6.57138 2.02333
H 12.0335 5.5324 17.9813
C 13.0639 2.91424 2.20793
H 12.0819 2.5679 1.9394
H 13.6523 3.19791 18.1253
H 13.5642 2.24228 2.95093
Si 11.1883 5.09512 5.7653
O 12.0727 4.2668 6.93984
C 9.4194 4.9892 5.87587
H 9.11699 4.19277 6.56146
H 8.8408 5.81648 6.20739
H 9.00539 4.83184 4.82365
C 11.8453 6.81632 5.9049
H 11.7614 6.95756 7.02156
H 12.9174 6.92625 5.56302
H 11.2747 7.62625 5.41533
Si 13.4021 3.24218 7.27708
C 14.2679 2.39312 5.76212
H 14.284 3.13327 4.94936
H 15.2189 1.96101 6.08482
H 13.5777 1.68281 5.30947
C 14.2625 4.31606 8.46581
H 14.446 5.33621 7.96342
H 13.8194 4.43815 9.39712
H 15.2538 3.9808 8.62651
Si 1.78064 13.5131 4.63698
O 2.69424 14.8178 5.19562
C 18.6776 14.3099 4.1608
H 17.8735 13.6603 3.90502
H 18.185 14.7389 5.06621
H 18.7961 14.9315 3.23507
C 20.1472 12.0703 5.90739
H 19.114 11.9862 6.05578
H 2.09032 11.0924 5.66443
H 1.75954 12.4578 6.94589
Si 4.11176 15.3309 5.82846
O 4.90204 13.9289 6.2666
C 3.78227 16.5486 7.12463
H 4.40201 16.3894 8.01249
H 4.07211 17.5126 6.67538
H 2.74204 16.5676 7.35536
C 5.32818 16.508 4.59465
H 4.73471 15.8791 3.83798
H 5.11368 17.5427 4.85451
H 6.13947 15.944 5.21527
Si 5.11384 12.8664 7.59582
O 4.84152 11.3978 7.06735
C 4.11403 13.3558 9.08497
H 4.53663 14.2829 9.36017
H 3.01583 13.3783 9.03054
H 4.13271 12.5433 9.93217
C 6.95126 13.2564 8.27409
H 7.22152 12.3779 8.81719
H 7.59132 13.5393 7.48136
H 7.02075 14.0038 9.0482
Si 5.69821 9.98969 6.67201
O 7.22449 9.94841 7.48696
C 4.51752 8.66218 7.27629
H 4.4905 8.68042 8.39049
H 3.51376 9.11773 7.12643
H 4.66186 7.59352 7.05228
C 5.84193 10.32 4.78605
H 6.50851 11.2212 4.79954
H 6.38226 9.61965 4.1207
H 4.93874 10.6433 4.45614
Si 8.80367 9.87964 7.58827
O 9.34272 8.51702 8.34378
C 9.3409 9.87019 5.74454
H 9.06734 8.9072 5.28635
H 8.76025 10.7418 5.55018
H 10.3923 10.0975 5.52217
C 9.6184 11.2577 8.51282
H 9.27865 11.3795 9.54859
H 10.6416 10.7987 8.57651
H 9.64021 12.0985 7.87981
Si 10.058 7.85555 9.81251
C 10.5411 6.11559 9.4535
H 9.7102 5.79093 8.87994
H 11.487 6.03208 8.86505
H 10.6218 5.59993 10.3954
C 11.3549 8.97763 10.4382
H 11.7584 8.47681 11.2907
H 10.695 9.80491 10.8427
Si 9.90978 2.22063 10.7895
O 9.75677 1.69978 9.22853
C 8.2305 3.31767 10.7667
H 8.9683 3.78109 10.1555
H 7.69373 2.35732 10.7612
H 8.34243 3.55422 11.8298
C 11.4776 3.07683 11.1245
H 11.1766 3.88084 11.765
H 12.0326 2.40917 11.7752
H 11.9937 3.46363 10.298
Si 9.58371 16.9733 7.83043
O 10.8572 15.7947 7.99639
C 7.99055 16.1015 7.82242
H 8.04488 15.2715 8.49541
H 7.34043 16.8499 8.16757
H 7.62547 15.7853 6.80769
C 9.89027 17.6381 5.95532
H 10.9238 17.5955 5.72463
H 9.23725 16.7386 5.57025
H 9.49497 2.46311 5.57845
Si 12.2889 15.8126 8.68962
O 13.4694 15.2114 7.70371
C 12.6513 15.1892 10.4009
H 12.2058 15.6673 11.2844
H 12.3214 14.1406 10.3683
H 13.7586 15.13 10.532
C 12.8381 1.72984 8.56251
H 13.415 17.4515 7.70948
H 11.762 1.77456 8.28658
H 13.2963 1.9186 9.53605
Si 13.6476 13.6104 7.19986
O 14.7573 12.7767 8.23976
C 14.606 13.5597 5.59908
H 14.1514 13.1503 4.69468
H 14.9101 14.5334 5.0766
H 15.522 13.1225 5.89723
C 11.9545 12.699 7.26971
H 11.3664 12.5837 8.20478
H 11.2339 12.9723 6.48778
H 12.2999 11.614 7.24095
Si 15.8298 11.8427 9.04273
O 15.0082 10.4582 9.53706
C 16.4963 12.8352 10.4412
H 16.4423 12.2178 11.4162
H 17.5819 12.9554 10.2421
H 16.0174 13.855 10.6892
C 17.1126 11.2537 7.83181
H 17.9221 10.877 8.40011
H 16.7224 10.3628 7.36633
H 17.4517 11.9652 7.07429
Si 14.2572 9.02385 9.47723
C 12.3433 9.45218 9.38387
H 11.9596 9.04004 8.41467
H 12.5343 10.5552 9.23196
C 14.6267 8.01842 7.94091
H 14.6221 8.67458 7.00932
H 15.5344 7.39947 7.77632
H 13.8745 7.29399 7.92887
Si 19.8153 6.7082 9.10858
O 2.4769 6.21362 8.09091
C 19.2325 5.39642 10.2988
H 18.5133 4.6438 10.0452
H 19.9771 4.92782 11.0102
H 18.6546 6.0788 10.9845
C 18.6462 7.87103 8.33214
H 18.388 7.34858 7.37193
H 17.7489 8.03802 8.96978
H 19.1817 8.8351 8.03797
Si 2.38702 4.97468 6.92694
O 2.06704 3.36946 7.42443
C 19.6161 5.39974 5.80266
H 19.5998 4.61456 5.00617
H 18.6074 5.43664 6.15093
H 19.9306 6.35951 5.31878
C 3.96809 4.64954 5.91281
H 4.90446 5.05848 6.40245
H 4.07646 3.62207 5.98065
H 3.72563 5.03402 4.94118
Si 19.2174 2.4735 7.24832
O 19.3898 17.1571 8.17785
C 17.7493 3.30232 8.06325
H 16.8871 3.4008 7.45324
H 17.3774 2.62632 8.84502
H 18.0668 4.19619 8.71207
C 19.1761 1.92703 5.50691
H 20.1263 1.47138 5.1435
H 18.4579 17.1877 5.31836
H 18.9177 2.60665 4.7266
Si 18.158 15.9438 8.49873
O 17.593 16.2813 10.0148
C 16.6973 16.1005 7.30973
H 16.0468 15.2334 7.3853
H 16.0966 17.0302 7.42129
H 16.9252 16.0137 6.28901
C 19.1917 14.3603 8.25096
H 19.7402 14.2057 9.18615
H 18.5954 13.5015 7.86805
H 20.0148 14.5146 7.49955
Si 18.5722 16.7783 11.3299
O 17.5394 17.0531 12.7232
C 19.3518 15.157 11.7392
H 1.82477 14.9846 11.362
H 19.4415 14.8217 12.77
H 18.707 14.3521 11.3367
C 19.657 2.17949 11.071
H 19.5046 2.55949 10.0719
H 19.5838 2.90939 11.8526
H 2.21449 1.92798 11.0366
Si 16.57 2.19696 13.0928
C 14.8541 17.4802 12.9178
H 14.1391 2.19089 12.9133
H 14.7849 16.9809 11.9127
H 14.4844 16.8344 13.7601
C 16.5119 3.7743 11.8036
H 17.4589 4.12218 11.4818
H 15.8761 3.33708 11.0479
H 15.9049 4.54984 12.263
Si 3.91643 13.5754 13.372
O 2.82462 12.6673 12.4562
C 4.5927 12.5396 14.8259
H 5.60405 12.5862 15.1125
H 4.11991 12.9585 15.7388
H 4.46963 11.4149 14.7589
C 3.06989 15.0217 14.1789
H 3.79054 15.4964 14.8272
H 2.68545 15.7582 13.457
H 2.30147 14.6437 14.8297
Si 1.7906 11.4226 12.0983
O 2.50294 9.88983 12.5908
C 20.0352 11.2897 10.2375
H 19.9823 12.2446 9.66804
H 2.20191 10.7585 9.53629
H 19.1688 10.7277 10.0307
C 18.8716 11.6533 13.2624
H 18.1689 10.7678 13.3999
H 19.2533 12.2025 14.1877
H 18.2035 12.4239 12.7992
Si 3.51491 8.86133 11.8177
O 3.84352 7.67353 12.8476
C 4.84563 9.9125 11.0333
H 4.29362 10.5241 10.2446
H 5.21437 10.7611 11.6365
H 5.67906 9.46841 10.4316
C 2.46536 7.85437 10.4621
H 3.21762 6.99862 10.612
H 20.1628 7.93434 11.0954
H 2.66482 8.52244 9.58309
Si 3.02658 6.4424 13.57
O 3.51722 5.11136 12.7139
C 19.6923 6.81766 13.2982
H 19.3823 7.79623 13.0277
H 19.1772 6.10214 12.6696
H 19.2418 6.79952 14.318
C 3.2666 6.30133 15.4682
H 4.28633 6.65328 15.7531
H 2.46675 6.62477 16.0817
H 3.36062 5.23634 15.7513
Si 4.71276 3.96196 12.7405
O 5.48919 3.98429 11.3069
C 5.95726 4.51734 13.9824
H 6.72492 3.79326 14.0363
H 6.43437 5.42494 13.4891
H 5.62695 4.82881 14.9812
C 3.91135 2.32326 13.1415
H 2.82724 2.28801 13.2524
H 3.92873 1.7873 12.1729
H 4.34057 1.84258 14.096
Si 6.45983 3.948 10.0438
C 5.78839 2.68631 8.81949
H 4.76502 2.87419 8.62386
H 6.40752 2.53843 7.96678
H 5.85103 1.73473 9.3146
C 6.80946 5.83822 9.67328
H 6.0407 6.066 8.92251
H 7.79343 5.75551 9.14488
Si 5.80815 14.4001 12.4671
O 6.26315 15.2104 13.9088
C 7.11828 13.0946 12.176
H 6.91203 12.4879 11.3071
H 8.15681 13.1947 12.3605
H 6.81236 12.2873 12.9687
C 5.75732 15.6729 11.08
H 6.54046 15.8031 10.2843
H 4.7787 15.3885 10.6666
H 5.75279 16.662 11.5248
Si 7.2834 15.4637 15.1276
O 8.84878 15.4266 14.3805
C 7.1079 17.0163 15.9371
H 6.61626 1.56065 15.1415
H 6.49886 17.1147 16.9065
H 8.11598 17.3738 16.1306
C 7.3906 13.8792 16.1083
H 8.15503 13.8469 16.961
H 6.45357 13.7092 16.634
H 7.46761 13.0246 15.5009
Si 10.1309 15.2746 13.4564
O 10.4403 13.8056 12.981
C 11.5146 16.0181 14.216
H 12.4743 16.1485 13.7068
H 11.3182 17.0462 14.4931
H 11.6804 15.3926 15.1271
C 9.68865 16.8857 11.9009
H 8.71602 17.007 12.4332
H 10.5798 17.1521 12.5082
H 9.65292 15.8929 11.2535
Si 10.7818 12.2969 13.6725
O 9.61514 11.2089 13.2103
C 10.969 12.5847 15.5945
H 12.0717 12.7185 15.8742
H 10.3057 13.3924 15.9287
H 10.4662 11.7723 16.2025
C 12.3001 12.175 12.5862
H 12.8681 11.1774 12.4746
H 11.8514 12.4168 11.6505
Si 8.64603 9.97087 13.5351
O 8.21129 9.0638 12.2947
C 7.42499 10.1826 14.874
H 6.70063 11.0061 14.7234
H 6.71307 9.32165 15.0712
H 7.9892 10.3641 15.7805
C 9.48818 3.73242 14.274
H 9.46863 2.62356 14.2395
H 9.99922 4.20442 13.3822
H 8.40219 3.97152 14.3165
Si 8.38361 7.66352 11.3314
C 6.69594 7.02868 10.6534
H 6.27891 7.81854 10.0099
H 5.8927 6.73798 11.3683
C 8.7241 6.32163 12.5818
H 8.55187 5.25207 12.2695
H 9.7113 6.3193 12.9392
H 8.02865 6.52275 13.3495
Si 16.8693 3.08351 15.3024
O 16.0912 2.2777 16.5719
C 18.7138 3.49654 15.6326
H 19.4363 2.89224 15.0825
H 18.8273 4.53874 15.1849
H 19.1916 3.43008 16.5876
C 16.0014 4.6818 15.3623
H 16.6076 5.47212 15.8248
H 15.7813 4.99689 14.3236
H 15.003 4.50369 15.8537
Si 16.62 16.8025 17.0404
O 15.3975 15.7892 16.4954
C 18.11 16.123 16.1988
H 18.0109 16.1855 15.1284
H 19.0596 16.6223 16.3949
H 18.0463 15.029 16.3706
C 16.5153 16.4686 2.0905
H 15.706 17.0467 2.68766
H 16.3285 15.4293 2.26775
H 17.444 16.5095 2.67117
Si 14.7857 14.2793 16.8966
O 14.4921 13.4091 15.6022
C 16.0099 13.2264 17.8754
H 17.0107 13.619 17.4892
H 15.8189 13.4111 2.16432
H 16.0154 12.1542 17.6665
C 13.3857 14.8811 18.2413
H 14.0623 15.5923 1.86684
H 12.9062 15.3111 17.3781
H 13.239 13.8049 1.7411
Si 14.7794 12.888 14.0673
O 15.2728 11.3254 13.794
C 13.4274 13.1957 12.8116
H 13.1443 14.2642 13.0014
H 13.9604 13.2987 11.8155
C 16.1797 14.0974 13.5625
H 17.1933 13.8176 14.0891
H 16.3006 14.1275 12.4797
H 15.8536 15.1337 13.7339
Si 14.8828 9.71878 14.3024
O 14.4544 8.91005 12.9739
C 16.2928 8.74436 15.0434
H 16.6533 9.65826 15.6812
H 15.8298 8.05894 15.7663
H 17.0324 8.31564 14.3579
C 13.3654 9.90508 15.4544
H 13.447 10.8937 15.847
H 12.597 9.86847 14.7223
H 13.0456 9.19452 16.2459
Si 14.73 8.08657 11.5412
C 14.0287 6.4128 11.8049
H 12.9702 6.46356 11.8796
H 14.2813 5.63507 11.0265
H 14.4747 5.99112 12.7273
C 16.6185 7.87055 11.4073
H 16.914 8.86419 11.0792
H 16.8793 7.55649 12.4304
H 16.9137 7.1653 10.6171
523
 Atoms. Timestep: 10500
Si 3.08633 13.0102 2.28645
O 2.43418 11.6409 1.49313
C 3.27275 14.4534 18.0392
H 4.00069 15.2731 18.3219
H 3.82934 13.9297 17.2233
H 2.40761 14.8556 17.5434
C 4.83935 12.3585 2.84425
H 5.31289 12.2042 1.9362
H 5.53321 12.9172 3.47246
H 4.76397 11.386 3.41656
Si 1.6099 10.4478 17.8795
O 2.09312 8.71101 1.60681
C 2.29847 10.2032 16.214
H 3.40014 9.95232 15.9814
H 1.71954 9.47582 15.6885
H 2.04563 11.223 15.7287
C 18.5561 10.7985 17.975
H 18.1267 11.1872 1.71412
H 18.3017 11.5422 17.2065
H 18.033 9.85493 17.5755
Si 3.75659 8.33323 2.273
O 4.48155 6.90336 2.0044
C 3.5041 8.98083 3.95804
H 3.18378 10.0763 3.67867
H 2.67791 8.44565 4.46833
H 4.39875 9.14783 4.55509
C 4.99064 9.25611 18.1895
H 5.23502 8.60927 17.3777
H 4.53922 10.2068 17.9282
H 5.86691 9.38914 1.68961
Si 5.29834 5.32195 1.98441
O 4.19861 4.08213 2.13946
C 6.43272 5.39985 3.43953
H 5.72397 5.44516 4.33353
H 7.20898 4.64141 3.42378
H 7.09768 6.23399 3.43153
C 6.49108 5.49839 17.6553
H 7.43591 5.79097 18.1651
H 6.82882 4.48125 17.3204
H 6.33164 6.24713 16.9222
Si 3.57949 2.67523 1.72711
O 4.2473 1.44321 2.62833
C 3.5814 2.38158 16.9975
H 4.50522 2.72379 16.5176
H 3.57834 17.591 16.8542
H 2.76008 2.63753 16.3946
C 1.73407 2.78069 2.19221
H 20.042 2.68033 18.3027
H 20.0371 2.02547 2.74534
H 20.3035 3.81174 2.46455
Si 5.41044 17.3205 3.60859
C 6.7225 16.6118 2.52202
H 6.36116 15.6442 2.01389
H 6.71817 17.3043 1.60317
H 7.75767 16.4014 2.76833
C 5.91117 2.13954 4.97154
H 5.93433 3.16614 4.62588
H 5.29852 1.89217 5.79678
H 6.91055 1.95921 5.4509
Si 11.3563 15.3622 1.84221
O 10.8959 13.7382 2.16
C 10.4019 16.4735 17.8311
H 10.379 16.0045 16.8283
H 9.39149 16.6004 18.2198
H 10.8773 17.4651 17.747
C 11.8451 16.2022 3.54266
H 12.5241 15.4466 4.04411
H 12.4194 17.0393 3.21628
H 11.0508 16.4327 4.24062
Si 9.9272 12.7588 2.98591
O 11.0112 11.6689 3.75533
C 8.57132 11.8263 2.13053
H 8.22445 12.22 18.3396
H 8.9603 10.8759 2.22317
H 7.61687 11.9026 2.65341
C 9.14368 13.6904 4.49965
H 9.84976 13.4883 5.40372
H 8.91563 14.7656 4.35498
H 8.19284 13.1951 4.87837
Si 11.9806 10.5197 2.92587
O 10.8944 9.51578 2.12164
C 13.1875 9.76778 4.13602
H 13.795 10.5715 4.46386
H 12.7498 9.206 4.9719
H 13.7455 9.04898 3.59474
C 13.0813 11.3471 1.52004
H 14.1152 11.1285 1.72786
H 12.8319 10.7937 17.7482
H 12.6885 12.3705 1.51148
Si 10.3629 8.10776 18.5536
O 11.2266 7.87617 17.1712
C 8.59882 8.46627 18.0537
H 7.93935 8.38603 1.87462
H 8.58055 9.50306 17.5714
H 8.16362 7.67359 17.4805
C 10.6927 6.5246 2.43135
H 10.6485 6.93934 3.51691
H 10.0591 5.6814 2.40198
Si 11.3046 7.12175 15.6393
O 10.4765 5.76067 15.5888
C 12.9612 7.04121 14.8501
H 13.0987 6.11071 14.3354
H 13.2222 7.9284 14.2046
H 13.6684 7.03161 15.7232
C 10.2599 8.46175 14.6637
H 9.36173 8.13219 15.2293
H 10.6106 9.27396 15.2237
H 10.4279 8.1605 13.6726
Si 10.6498 4.0847 15.7431
C 10.1812 3.70654 17.4817
H 9.5686 4.43231 17.9804
H 9.43447 2.90599 17.3316
H 11.0239 3.43989 18.1952
C 12.4348 3.59397 15.6147
H 12.4689 2.48742 15.8699
H 12.921 3.71556 14.6473
H 13.0154 4.09178 16.4104
Si 19.552 7.7867 2.04278
O 18.5606 8.72258 2.90532
C 20.2495 6.1896 2.80142
H 19.3967 5.44658 2.97574
H 2.11359 5.72741 2.09723
H 2.01547 6.39115 3.68571
C 18.6787 7.16535 17.6563
H 19.4442 6.50925 17.2858
H 17.982 6.42387 17.9494
H 18.2801 7.90213 16.9268
Si 17.0595 8.72991 3.78541
O 16.6582 7.09738 3.88289
C 17.0083 9.21684 5.57647
H 16.1164 8.88037 6.08236
H 17.7658 8.65484 6.12655
H 17.106 10.3421 5.62888
C 16.016 9.51396 2.4521
H 16.5652 9.24077 1.57354
H 14.9626 9.18618 2.48667
H 15.9373 10.6052 2.54497
Si 15.8206 5.82462 3.20377
O 14.3045 5.54642 3.75438
C 15.52 6.29329 18.4883
H 15.2682 7.31142 18.3517
H 16.2249 6.10248 17.7282
H 14.6249 5.69893 18.312
C 16.6048 4.14842 3.70341
H 16.4132 3.78541 4.72331
H 16.2807 3.36276 3.02135
H 17.7772 4.20716 3.60207
Si 12.9684 4.76511 3.215
O 11.9296 4.37546 4.41358
C 12.1369 6.10324 2.15868
H 12.6989 7.08129 2.00487
H 12.1905 5.72496 18.2674
C 13.4209 3.26003 2.30114
H 12.5767 2.56719 1.97666
H 13.9452 3.64294 18.5219
H 14.1555 2.63859 2.94388
Si 11.3261 4.85786 5.7605
O 11.7968 3.75089 6.93619
C 9.39519 4.76593 5.71052
H 8.78645 5.37511 6.49219
H 8.8185 5.1663 4.86064
H 8.96373 3.74401 5.68873
C 11.7532 6.65366 6.04019
H 12.8731 6.77369 5.9293
H 11.2634 7.35352 5.34104
H 11.5728 6.89031 7.07078
Si 13.2315 2.96866 7.47836
C 14.4069 2.73738 6.15167
H 14.9175 3.69663 5.94787
H 15.2647 2.08427 6.29784
H 13.8896 2.23752 5.34697
C 13.6882 3.95865 8.96794
H 12.9363 3.70352 9.80111
H 14.5008 3.48011 9.44679
H 13.6973 5.06976 9.0429
Si 1.6493 13.5791 4.06066
O 2.48547 14.2321 5.37889
C 19.5185 15.1073 3.50986
H 19.4999 15.1566 2.37348
H 18.4865 15.1436 3.7717
H 19.8932 16.042 3.9493
C 19.4089 12.2947 4.88193
H 18.6489 12.7638 5.48216
H 18.849 11.6263 4.10203
H 20.1043 11.7108 5.50215
Si 3.97689 14.447 5.92265
O 4.9505 13.1565 5.9261
C 3.99877 15.1998 7.5581
H 5.02188 15.2468 7.89175
H 3.46888 16.2092 7.69595
H 3.42816 14.6416 8.28951
C 4.76256 15.7232 4.53471
H 4.91498 14.8069 3.89227
H 3.81301 16.2223 4.68585
H 5.44998 15.7688 5.36797
Si 5.15009 11.9628 7.14101
O 5.66428 10.5992 6.3794
C 3.53028 11.8249 7.92952
H 3.25501 12.6071 8.77457
H 2.84713 12.0996 7.15044
H 3.39937 10.8361 8.36524
C 6.34806 12.7059 8.36315
H 6.8365 12.3542 9.29302
H 7.17386 13.0225 7.67521
H 5.92334 13.6861 8.72968
Si 6.63614 9.2465 6.38404
O 7.7377 9.37262 7.61806
C 5.63304 7.66162 6.33783
H 4.64088 7.99788 6.51807
H 5.90743 7.05152 5.44355
H 5.76684 7.00018 7.16303
C 7.49218 9.42182 4.74371
H 8.11266 10.3125 4.77717
H 8.08189 8.48643 4.34195
H 6.7659 9.66674 3.92738
Si 9.29439 9.72503 8.09364
O 9.94059 8.36949 8.66504
C 10.139 10.294 6.63361
H 9.76814 9.80562 5.74555
H 10.1481 11.3775 6.43427
H 11.1633 10.0255 6.89226
C 9.07727 11.0061 9.44991
H 8.41904 10.5728 10.2601
H 9.97582 11.4757 9.81431
H 8.43994 11.7467 8.95058
Si 10.584 7.79723 10.1636
C 11.6766 6.30141 10.0395
H 11.4885 5.94811 9.02771
H 12.7479 6.6368 10.3324
H 11.3524 5.4623 10.706
C 11.3317 9.22682 10.9957
H 11.9503 9.06909 11.8547
H 10.6673 9.97514 11.3056
Si 9.53024 1.83764 10.6749
O 9.59815 17.584 9.11584
C 8.09356 3.08776 10.9329
H 8.16874 3.55507 9.90812
H 7.14943 2.44648 10.9998
H 8.52504 3.5219 11.8499
C 11.0663 2.59661 11.2334
H 11.9064 2.1982 10.5273
H 10.9447 3.64764 10.9496
H 11.5675 2.59239 12.187
Si 9.23575 16.4822 7.82283
O 10.4028 15.3054 8.19836
C 7.52524 15.9363 7.98087
H 7.32521 15.7765 9.03869
H 6.8116 16.6877 7.66132
H 7.51859 14.9741 7.49344
C 9.68043 17.3039 6.30146
H 9.38202 16.6813 5.49941
H 9.3692 2.0119 6.04002
H 10.779 17.4101 6.40434
Si 12.007 15.5069 8.38103
O 13.0315 14.8529 7.37072
C 12.2608 14.8737 10.0971
H 13.3267 14.8806 10.3705
H 11.6478 15.286 10.9189
H 12.0729 13.8087 9.85448
C 12.6227 17.4142 8.10982
H 12.6065 17.4404 6.9744
H 11.8691 1.55753 8.64585
H 13.5945 17.3909 8.58044
Si 13.9882 13.6572 6.69891
O 15.2025 13.3489 7.69484
C 14.7872 14.0971 5.05468
H 15.7545 13.6024 5.05064
H 14.1854 14.0783 4.11655
H 15.1077 15.1927 4.87163
C 13.0212 12.0762 6.4494
H 13.5226 11.1226 6.73056
H 12.0035 12.0511 6.97968
H 12.7654 12.0675 5.395
Si 15.7975 12.2843 8.84966
O 14.7529 11.0646 9.07687
C 15.9177 13.0789 10.4824
H 15.0164 13.0159 11.0432
H 16.6771 12.4861 11.1748
H 16.3801 14.1104 10.4535
C 17.4138 11.9736 8.03648
H 17.8318 11.0494 8.11989
H 17.2403 12.2364 7.01749
H 18.0103 12.6909 8.56501
Si 14.116 9.52338 9.5426
C 12.416 10.0227 10.0978
H 11.8538 10.4996 9.26055
H 12.6423 10.9418 10.6863
C 14.2906 8.4549 8.03049
H 15.4007 8.23985 7.95769
H 13.7106 7.585 8.1624
H 14.073 8.82183 7.01375
Si 20.2681 7.07362 9.14931
O 2.5287 5.99308 8.40676
C 18.6926 6.2448 9.86858
H 17.9311 6.06458 9.15225
H 18.9257 5.39924 10.4825
H 18.1824 6.95034 10.5515
C 20.0104 8.47598 7.98086
H 19.2378 8.29708 7.22235
H 19.7828 9.37262 8.57439
H 2.1362 8.69955 7.57616
Si 2.12963 5.01136 7.13648
O 1.69652 3.63213 7.83764
C 19.4994 5.77822 6.28483
H 19.0825 5.30196 5.40459
H 18.7266 6.04098 7.01946
H 19.9055 6.68328 5.75061
C 3.55848 4.88941 5.93356
H 3.24806 4.08319 5.20142
H 3.56082 5.73868 5.31775
H 4.56008 4.81475 6.34412
Si 19.3178 2.59289 7.40519
O 19.69 17.486 8.24982
C 17.6011 3.30681 7.86123
H 17.67 4.26532 7.34998
H 16.6992 2.72063 7.5594
H 17.4457 3.74944 8.94063
C 19.482 2.41697 5.60039
H 1.69778 2.67607 5.33592
H 19.2327 1.44062 5.13913
H 18.8468 3.09736 4.9458
Si 18.5761 16.3274 8.61124
O 18.0648 16.7477 10.1527
C 17.0868 16.3534 7.48512
H 16.2247 16.2405 8.23546
H 16.8172 17.3493 7.05397
H 16.9182 15.6575 6.70425
C 19.8294 14.882 8.5158
H 1.90217 15.1904 9.12081
H 19.5997 13.9049 8.84659
H 20.2456 14.7323 7.53143
Si 18.7542 16.6024 11.6124
O 17.5012 16.7852 12.8122
C 19.4852 14.9618 11.8608
H 20.3116 14.5804 11.2035
H 20.0161 14.7848 12.8145
H 18.7534 14.1315 11.8342
C 20.0221 1.54479 12.0126
H 19.5194 2.38812 11.5398
H 20.1138 1.75342 13.0482
H 2.16175 1.4053 11.5182
Si 16.6448 1.83514 13.0165
C 14.9156 1.50849 13.4626
H 14.3413 2.33472 13.0359
H 14.5021 16.8358 13.0493
H 14.7623 17.6174 14.5127
C 16.6832 2.98326 11.4834
H 15.9162 3.77353 11.5583
H 17.6597 3.40341 11.208
H 16.4232 2.44652 10.5517
Si 3.90961 13.4679 13.6373
O 3.02461 12.559 12.4857
C 4.67505 12.0998 14.7612
H 5.75357 11.8491 14.6709
H 4.49355 12.343 15.8287
H 4.17192 11.1285 14.7585
C 2.58243 14.3654 14.7613
H 3.10644 14.6673 15.7123
H 2.24552 15.3204 14.3494
H 1.65615 13.7781 14.9025
Si 1.79714 11.5968 12.1179
O 2.22221 9.95652 12.0826
C 19.6147 11.5985 10.3664
H 19.2131 12.6049 10.4275
H 20.1115 11.5047 9.41185
H 18.8265 10.8277 10.3964
C 19.3261 11.7536 13.5038
H 18.3127 11.8494 13.0402
H 19.1885 10.7167 14.0489
H 19.5031 12.5087 14.2746
Si 3.31989 8.8136 12.151
O 3.41173 7.67443 13.3948
C 4.96197 9.49268 11.8772
H 5.20184 9.94685 12.8821
H 5.64949 8.73468 11.5201
H 5.11617 10.3491 11.1288
C 2.47017 7.57481 10.6815
H 3.26511 6.8169 10.6603
H 20.3353 7.41465 11.2595
H 2.49122 8.49285 10.0511
Si 2.63776 6.38153 13.9527
O 3.182 5.09463 13.1105
C 19.6182 6.56445 13.5958
H 18.999 6.19871 14.3762
H 19.0745 7.52169 13.4683
H 19.5529 5.92102 12.6543
C 2.88423 6.25764 15.7313
H 3.88261 6.56641 16.0947
H 1.99561 6.78752 16.2141
H 2.92137 5.18188 16.0286
Si 4.71877 4.38778 12.977
O 5.45526 5.00795 11.501
C 5.81092 4.91472 14.4212
H 6.7668 5.00217 13.8905
H 5.3053 5.78297 14.8318
H 5.87676 4.19257 15.2188
C 4.37514 2.58353 12.7245
H 3.5797 2.37289 13.4458
H 4.00158 2.26875 11.7065
H 5.32715 1.98434 12.7778
Si 6.25976 4.35007 10.2119
C 5.28229 3.17019 9.06097
H 4.20952 2.95649 9.18791
H 5.32382 3.61983 8.06861
H 5.81913 2.18373 9.04682
C 7.13215 5.79106 9.42817
H 6.6028 6.00895 8.45523
H 8.15701 5.76621 9.06929
Si 5.4369 14.5522 12.4672
O 6.50063 15.2881 13.5133
C 6.431 13.3594 11.5727
H 5.82522 12.5329 11.2545
H 6.77393 14.0109 10.7303
H 7.43666 12.9626 11.918
C 4.73016 15.6652 11.2513
H 4.84141 16.7 11.216
H 4.8456 15.2209 10.1348
H 3.58455 15.5106 11.3692
Si 7.08862 15.5807 15.0918
O 8.66717 15.8702 14.6959
C 6.27558 17.267 15.5948
H 6.05273 17.3885 16.6271
H 6.99802 1.75271 15.4502
H 5.37042 17.5463 14.9538
C 7.02611 13.949 16.0897
H 7.34233 14.0611 17.1542
H 6.09883 13.4081 16.1747
H 7.66763 13.3604 15.4181
Si 9.75769 15.4325 13.5569
O 9.66404 13.7699 13.3093
C 11.4893 16.1383 13.8165
H 11.9667 16.4562 12.8092
H 11.502 17.024 14.4907
H 12.0889 15.4219 14.4662
C 9.17778 16.7475 11.9203
H 9.50987 17.1832 12.8518
H 9.84956 16.0682 11.4044
H 8.06523 16.4301 11.7854
Si 10.4717 12.3372 13.8572
O 9.41876 11.1054 13.4537
C 10.4004 12.5635 15.6719
H 11.3705 12.6531 16.1649
H 9.881 13.4525 15.8711
H 9.81368 11.7937 16.1905
C 12.0556 12.2226 12.8655
H 12.3398 11.2066 13.1199
H 11.6839 12.2977 11.7796
Si 8.88013 9.54752 13.78
O 8.41127 8.75573 12.38
C 7.44517 9.49487 14.9002
H 6.78063 10.1696 14.3777
H 6.99538 8.47203 14.7416
H 7.71094 9.6327 15.9169
C 9.40901 3.24107 14.6701
H 9.36162 2.18837 14.9756
H 9.77773 3.29417 13.6686
H 8.36141 3.64357 14.5418
Si 8.67802 7.29081 11.5559
C 7.22052 7.0997 10.3239
H 7.17823 8.06062 9.77191
H 6.34295 7.2543 10.9795
C 8.99943 5.78891 12.6936
H 9.78862 5.11795 12.3239
H 9.1464 6.25149 13.7607
H 8.20114 5.09062 12.9117
Si 17.2861 2.8494 14.9528
O 16.5744 1.77934 16.0528
C 19.0933 3.1038 15.3944
H 19.5074 2.28449 16.0076
H 19.653 3.14026 14.4454
H 19.336 4.08431 15.862
C 16.1131 4.36569 15.0962
H 15.1335 4.04366 15.6133
H 16.5348 5.30219 15.5758
H 15.7426 4.6492 14.0667
Si 16.8787 16.6155 16.8572
O 15.3196 15.9089 16.6746
C 18.1893 15.5 16.0638
H 18.4392 15.8562 15.0233
H 19.0598 15.4183 16.6972
H 17.83 14.5304 15.7526
C 17.0885 17.0065 1.73536
H 18.0881 17.4813 2.08246
H 16.324 17.6768 2.126
H 17.1534 16.0508 2.17493
Si 14.7507 14.4423 17.1196
O 14.2908 13.5721 15.8424
C 15.8962 13.5862 18.3469
H 16.4415 12.703 18.1221
H 16.7501 14.2599 1.45314
H 15.2296 13.3163 2.14778
C 13.1649 15.0409 17.9671
H 13.3393 16.1113 17.9487
H 12.4662 14.6881 17.1853
H 13.2217 14.644 1.83355
Si 14.5784 13.2449 14.2065
O 15.3802 11.8644 13.9357
C 13.1564 13.2301 12.946
H 12.6779 14.2434 12.9302
H 13.8911 13.2362 12.0747
C 15.833 14.5189 13.7175
H 15.5879 15.5559 14.1839
H 16.8982 14.2966 14.0123
H 15.9789 14.5992 12.5818
Si 15.0758 10.1977 14.2181
O 14.6696 9.45686 12.9184
C 16.5636 9.25537 14.9414
H 16.485 9.04997 16.0531
H 16.6817 8.22025 14.4512
H 17.4804 9.74149 14.7295
C 13.6856 10.0751 15.3947
H 13.0857 10.9877 15.4179
H 12.8587 9.29976 15.3189
H 14.0848 9.85244 16.4109
Si 15.2529 8.78759 11.5413
C 15.0503 6.85738 11.5351
H 14.2282 6.63254 12.1966
H 14.9231 6.27426 10.6039
H 15.9279 6.44978 12.0144
C 17.1028 9.23797 11.5375
H 17.1969 10.1806 12.0333
H 17.6626 8.64586 12.2341
H 17.5439 9.35504 10.5523
523
 Atoms. Timestep: 11000
Si 2.68779 12.4724 2.51254
O 2.4645 10.8876 2.27811
C 2.05981 13.477 18.3001
H 19.9643 13.9348 18.3466
H 2.66334 14.3921 18.0953
H 2.09984 12.814 17.4465
C 4.60322 12.7143 2.42288
H 4.92669 12.2279 1.47818
H 4.71124 13.8356 2.5593
H 5.16905 12.14 3.22186
Si 1.69517 10.0699 18.2878
O 1.82726 8.50001 1.82563
C 2.52822 9.86392 16.5701
H 3.55315 10.2106 16.5458
H 2.41437 8.86318 16.3319
H 2.10316 10.5459 15.7074
C 18.8368 10.6466 18.2677
H 18.2575 10.3271 2.01951
H 18.789 11.7341 18.1334
H 18.4232 10.0906 17.4785
Si 3.53269 8.03455 2.35346
O 3.67537 6.57533 1.69663
C 3.72454 7.9525 4.14913
H 4.45392 8.81447 4.2688
H 2.79199 8.24536 4.76536
H 3.99561 6.93927 4.58172
C 4.87518 9.05237 1.54137
H 4.51569 9.78935 18.0087
H 5.44223 9.68772 2.23108
H 5.6806 8.47204 18.219
Si 4.81557 5.24535 1.82762
O 3.71091 3.9547 1.89229
C 6.0012 5.64037 3.22686
H 6.96094 5.50759 2.70254
H 6.0402 6.57521 3.83764
H 6.08464 4.83819 3.9633
C 5.75858 5.2232 17.4922
H 6.80176 4.82928 17.6344
H 5.33748 4.76384 16.6449
H 5.82712 6.2647 17.3469
Si 3.53001 2.31053 1.78984
O 4.20044 1.49607 3.20323
C 4.15491 1.52172 17.5119
H 5.24996 1.63897 17.4723
H 3.90766 16.8624 17.5812
H 3.86713 1.84364 16.4912
C 1.76779 1.88994 2.12853
H 19.9476 2.59347 1.73569
H 20.4335 17.3159 1.6851
H 20.4384 1.70198 3.1795
Si 5.45722 17.4394 4.01919
C 6.89344 17.3234 2.91076
H 6.96331 1.72999 2.26812
H 7.89017 17.2689 3.38133
H 6.97355 16.4077 2.35679
C 5.65916 2.00345 5.61054
H 6.0792 2.99272 5.42326
H 4.63398 2.27609 5.93731
H 6.35591 1.49833 6.37965
Si 11.0952 15.3983 1.81076
O 10.7087 13.8602 2.23648
C 9.74796 16.4255 18.4
H 9.83736 17.2503 1.97141
H 10.0206 16.9761 17.5025
H 8.76109 15.9615 18.216
C 11.9956 16.4199 3.20385
H 12.5374 17.2832 2.69464
H 11.229 16.7332 3.93912
H 12.6451 15.7358 3.75912
Si 9.48198 12.94 2.97118
O 10.2833 11.6504 3.69109
C 8.35098 12.168 1.73467
H 8.20789 12.8721 18.0146
H 8.80443 11.2589 1.47653
H 7.27352 11.9776 2.06068
C 8.46907 13.832 4.34133
H 7.41817 14.1345 3.96774
H 8.45991 13.3661 5.27971
H 9.05899 14.7345 4.58738
Si 11.1739 10.4221 2.97542
O 10.1698 9.28136 2.28679
C 11.9882 9.35024 4.2348
H 13.0616 9.42963 4.22655
H 11.7345 9.58708 5.2762
H 11.7884 8.34391 3.99272
C 12.5192 11.0843 1.83648
H 13.2198 10.2693 1.56129
H 12.1149 11.5408 18.1189
H 13.066 11.9266 2.30007
Si 10.0126 7.83937 1.47611
O 10.7986 7.99778 17.1567
C 8.24489 7.51603 18.2439
H 8.12082 6.48059 18.019
H 7.52501 7.74276 1.87364
H 7.86013 8.08596 17.4862
C 10.7564 6.33866 2.3228
H 10.6803 6.48929 3.38376
H 10.1844 5.47377 1.92218
Si 11.0305 7.27077 15.6839
O 10.2865 5.84914 15.4368
C 12.801 6.96688 15.1712
H 13.2774 6.40307 15.9699
H 12.8596 6.35932 14.2443
H 13.2926 7.9556 14.9583
C 10.1097 8.4305 14.3401
H 9.59383 7.52477 13.9155
H 9.85561 9.06709 15.1853
H 10.9253 8.65874 13.7577
Si 10.3311 4.10435 15.5375
C 9.75903 3.62424 17.2964
H 8.67331 3.33179 17.4573
H 10.3233 2.73819 17.5931
H 10.1474 4.40148 18.0133
C 12.1273 3.37449 15.5526
H 12.3821 3.03598 14.5042
H 12.7954 4.20782 15.8311
H 12.3061 2.60274 16.3097
Si 19.4949 7.3088 2.00542
O 18.4256 7.80378 3.14347
C 19.8997 5.66332 2.5475
H 19.8632 5.74555 3.67245
H 19.0644 5.02856 2.29263
H 1.79004 5.09028 2.10826
C 18.8009 7.34203 17.5153
H 19.3121 7.36667 16.5016
H 18.0626 6.42551 17.3322
H 18.1579 8.24499 17.4832
Si 16.8445 8.19781 3.37706
O 16.0696 6.76279 3.75188
C 17.2051 9.52141 4.56359
H 16.2658 10.0139 4.81942
H 17.7762 9.16449 5.44984
H 17.7118 10.3643 4.13274
C 15.9548 9.09023 1.95361
H 16.3159 8.61725 18.232
H 14.8709 8.97198 1.93154
H 16.1962 10.1516 1.77915
Si 15.9948 5.19175 3.3324
O 14.4643 4.72284 3.5154
C 16.2836 4.89319 1.56856
H 17.3337 5.01139 1.40415
H 16.0954 3.8717 18.4207
H 15.8025 5.63958 18.1528
C 17.2221 4.50441 4.63826
H 16.739 4.60438 5.63508
H 17.3427 3.38589 4.59708
H 18.2287 4.97357 4.53556
Si 13.0129 4.55558 2.83968
O 12.0436 3.93654 4.00254
C 12.2124 6.1366 2.06272
H 12.7139 7.06668 2.2888
H 12.468 6.08745 18.2506
C 13.1268 3.45477 18.5439
H 12.089 2.95325 18.5296
H 13.4338 3.98972 17.5971
H 13.9505 2.65345 18.5793
Si 11.8514 4.28144 5.67752
O 12.0316 2.86958 6.57958
C 10.0101 4.70939 5.92677
H 9.61329 4.74758 6.98792
H 9.76209 5.74574 5.55329
H 9.47512 3.95131 5.33226
C 13.0594 5.54255 6.33896
H 13.1008 5.56773 7.42474
H 14.068 5.36508 6.00205
H 12.8283 6.53212 5.96085
Si 13.4681 2.22648 7.1086
C 14.5295 2.12381 5.6503
H 14.771 2.97968 5.02301
H 15.471 1.62056 5.79789
H 14.0895 1.45035 4.9057
C 14.1741 3.01201 8.65265
H 14.4364 4.04532 8.24271
H 13.667 3.03077 9.64944
H 15.2122 2.82253 8.76868
Si 1.63919 13.5846 4.32096
O 2.70231 13.8837 5.69714
C 19.8824 15.356 3.94459
H 18.8278 15.5252 4.28876
H 1.66214 16.0515 4.43412
H 19.8553 15.5816 2.90952
C 19.2171 12.4833 5.17045
H 19.3884 12.0219 6.07945
H 18.2054 12.843 5.22238
H 19.2012 11.6581 4.46733
Si 4.24231 14.191 6.19887
O 5.02479 12.7317 6.35088
C 3.98779 15.0784 7.75617
H 4.75984 15.5816 8.26424
H 3.25664 15.8288 7.40481
H 3.48439 14.3001 8.37683
C 5.02644 15.5551 4.91771
H 5.21574 14.8443 4.03522
H 4.06109 16.0052 5.23883
H 5.86297 15.6243 5.53901
Si 4.63539 11.3166 7.16837
O 5.28677 10.0178 6.40151
C 2.74409 11.3215 7.26998
H 2.19042 11.4292 6.28168
H 2.64372 10.2372 7.44875
H 2.20276 11.8657 8.00664
C 5.26246 11.1981 8.87639
H 5.08042 10.1906 9.26895
H 6.32531 11.3632 8.93905
H 5.06987 11.8443 9.75835
Si 6.80979 9.47503 5.93902
O 7.8233 10.3724 6.89618
C 6.9495 7.61958 6.2991
H 6.6668 7.09243 5.42302
H 7.88488 7.14235 6.6072
H 6.15874 7.43455 7.00273
C 7.43068 9.7871 4.25122
H 7.12551 9.0558 3.5271
H 7.12691 10.7902 3.80908
H 8.54022 9.81008 4.24192
Si 9.14405 10.6853 7.89194
O 10.0248 9.33523 8.2269
C 10.2119 11.9403 6.93789
H 9.69512 12.5796 6.24101
H 10.269 12.7506 7.61785
H 11.2225 11.8464 6.57439
C 8.70144 11.4306 9.53448
H 7.90127 10.925 10.0613
H 9.5693 11.2316 10.1452
H 8.4293 12.4942 9.45847
Si 10.3717 8.4103 9.42417
C 10.9264 6.96394 8.42819
H 10.1419 6.63857 7.66332
H 11.6147 7.24493 7.66084
H 11.1004 6.01863 8.97475
C 11.6683 9.09269 10.6079
H 12.2772 8.23189 11.0318
H 11.0441 9.64847 11.3918
Si 9.69067 1.48177 10.6493
O 9.75466 16.9743 9.28371
C 8.33967 2.70757 10.7908
H 7.48947 2.11623 11.0534
H 8.81524 3.45781 11.6085
H 8.39765 3.2861 9.87012
C 11.3692 2.24408 10.8778
H 12.263 1.65712 10.7832
H 11.5708 3.13969 10.2005
H 11.6298 2.68521 11.9136
Si 9.11708 16.3364 7.89058
O 10.3416 15.1815 7.41151
C 7.52955 15.3699 7.86453
H 7.49081 14.7114 6.98604
H 7.33595 14.8749 8.90912
H 6.68033 16.0436 7.61785
C 9.11953 17.5988 6.44153
H 8.98504 17.1695 5.41186
H 8.34558 1.95765 6.71072
H 10.1141 1.6655 6.4462
Si 11.9528 15.0269 7.72165
O 12.7086 14.0389 6.65759
C 12.0832 14.5111 9.49304
H 11.0611 14.1287 9.84852
H 12.6764 13.5816 9.37658
H 12.4539 15.0493 10.3566
C 12.719 16.9336 7.55626
H 12.1523 16.668 6.6101
H 12.084 17.1167 8.40893
H 13.6626 16.4576 7.81633
Si 14.2935 13.3437 6.21153
O 15.2787 13.2843 7.54881
C 14.9998 14.6865 5.03156
H 15.257 15.5393 5.68634
H 15.7853 14.478 4.37079
H 14.2298 14.9243 4.31888
C 13.9269 11.7085 5.4391
H 14.7743 11.0354 5.49672
H 13.1305 11.1548 6.04768
H 13.5678 11.939 4.44543
Si 16.0209 12.5697 8.85869
O 15.1125 11.205 9.33639
C 16.0654 13.7091 10.3666
H 15.0322 13.9574 10.608
H 16.4219 13.1483 11.277
H 16.8014 14.5312 10.1998
C 17.74 12.1125 8.10055
H 18.3222 11.5991 8.82183
H 17.6177 11.4638 7.26308
H 18.1297 13.0444 7.71666
Si 14.4758 9.64982 9.64173
C 12.6503 10.0717 9.97046
H 12.0549 10.5404 9.18754
H 12.7825 10.8711 10.7504
C 14.8378 8.46104 8.14059
H 15.8519 8.16412 8.13522
H 14.2365 7.5384 8.25368
H 14.5313 8.8846 7.15786
Si 20.0464 7.51547 9.05082
O 2.33468 6.46404 8.86605
C 18.5696 6.6192 9.86804
H 17.6212 6.5197 9.35861
H 18.7571 5.56087 10.0859
H 18.3331 7.03342 10.8337
C 19.2986 8.70048 7.73586
H 18.8905 9.61809 8.10521
H 20.0496 8.8295 6.95313
H 18.4679 8.12745 7.34323
Si 2.85917 5.36016 7.68412
O 2.51518 3.73141 7.94522
C 2.04653 5.95751 6.20505
H 2.40758 5.24286 5.38933
H 19.9307 6.27078 6.17088
H 2.53175 6.87353 5.77667
C 4.61941 5.36613 7.37781
H 5.13994 6.19869 6.83886
H 5.03008 5.29882 8.32542
H 4.80866 4.53921 6.71933
Si 20.1091 2.85116 7.46109
O 19.8687 1.44437 8.33993
C 18.7754 3.913 8.00975
H 17.8022 3.63164 7.42207
H 18.6136 3.76464 9.1133
H 18.9587 4.91782 7.79416
C 20.3896 2.37747 5.6968
H 2.57371 2.19068 5.63301
H 19.7866 1.48768 5.39222
H 20.2867 3.22748 5.05067
Si 18.7815 16.7508 9.04154
O 18.3509 17.1522 10.5486
C 17.1251 16.851 8.11465
H 17.2709 17.046 7.02424
H 16.3674 16.0465 8.36202
H 16.6395 1.38011 8.63817
C 19.8913 15.3178 9.07068
H 1.88755 15.6392 9.45592
H 19.5232 14.5257 9.77826
H 20.1571 14.8008 8.15212
Si 19.0093 17.733 11.945
O 17.6898 17.5026 12.9106
C 20.3475 16.7042 12.5782
H 1.64024 15.8503 12.03
H 2.29638 17.2274 12.8746
H 20.0357 16.0867 13.4916
C 19.8398 2.94177 11.5456
H 19.143 3.71596 11.774
H 1.69913 3.22354 12.2052
H 20.1327 2.97244 10.4746
Si 16.2436 1.93317 13.1293
C 14.597 17.6382 12.4495
H 13.6201 1.53427 12.8233
H 14.8283 17.4478 11.4204
H 14.5186 16.6458 12.8067
C 16.5354 3.36832 11.9502
H 15.5746 3.91779 11.6848
H 17.1624 4.26141 12.1417
H 16.9585 2.97009 11.0252
Si 4.0218 13.7041 13.6336
O 2.90251 12.9802 12.7052
C 4.97487 12.3794 14.646
H 5.23502 13.0797 15.4359
H 4.31087 11.5419 14.8375
H 5.89725 12.2135 14.1548
C 3.0895 14.8644 14.6846
H 3.33117 14.7483 15.7455
H 3.4096 15.9306 14.4579
H 1.98963 14.9615 14.6201
Si 1.81552 11.8493 12.3726
O 2.4685 10.3723 12.5459
C 20.1945 11.9052 10.5337
H 19.9549 13.0454 10.2874
H 1.87535 11.4026 9.78541
H 19.1983 11.3674 10.5437
C 19.3378 12.245 13.6536
H 19.7193 11.9409 14.6419
H 19.1532 13.3313 13.6005
H 18.4411 11.7908 13.534
Si 3.02365 8.90909 12.2522
O 2.71824 8.04796 13.5621
C 4.84893 8.92678 11.7555
H 5.47865 9.81505 11.7126
H 5.24938 8.44229 12.6106
H 4.95123 8.39484 10.8339
C 1.92094 8.49367 10.5449
H 2.60702 9.12461 9.94373
H 2.42827 7.47995 10.8937
H 20.0256 8.83318 11.1692
Si 2.46183 6.34653 13.6451
O 3.54201 5.6912 12.6653
C 19.6552 5.82744 13.1766
H 18.9916 6.51714 13.5987
H 19.5429 6.03255 12.0737
H 19.2587 4.85582 13.4728
C 2.62461 5.89834 15.5341
H 3.50145 5.25795 15.8235
H 2.57444 6.86182 16.017
H 1.7682 5.34582 15.9049
Si 4.92892 4.73899 12.9204
O 5.42649 4.31339 11.4162
C 6.31838 5.5789 13.9213
H 7.12541 6.02698 13.2586
H 5.69222 6.28799 14.4874
H 6.78491 4.89646 14.6159
C 4.26035 3.30719 13.7555
H 3.27699 3.38297 14.1881
H 4.34498 2.35121 13.1732
H 4.79763 3.23128 14.7263
Si 6.46279 4.10577 10.204
C 5.71957 2.89216 8.98964
H 4.65638 3.19681 8.73443
H 6.19245 3.06158 7.99608
H 5.68108 1.81248 9.37354
C 7.28743 5.68124 9.44057
H 6.70957 5.87077 8.52542
H 8.2405 5.22546 9.27256
Si 5.50873 15.0791 12.3481
O 6.47422 15.6788 13.6728
C 6.61285 13.836 11.4181
H 5.91056 13.6122 10.5488
H 7.606 14.0099 11.0258
H 6.64055 13.018 12.2329
C 5.01758 16.6237 11.3513
H 3.93722 16.7727 11.5313
H 5.46687 17.4422 11.7396
H 5.18933 16.3607 10.2623
Si 7.07107 15.948 15.1212
O 8.71039 15.7846 14.8492
C 7.16848 17.646 15.8335
H 8.14704 1.69394 15.537
H 6.39281 1.99485 15.615
H 7.2594 17.583 16.9437
C 6.51867 14.6984 16.4334
H 6.99118 14.809 17.4272
H 5.4004 14.6925 16.4442
H 6.82201 13.6569 16.2671
Si 9.8635 15.4293 13.8281
O 9.97735 13.7909 13.3793
C 11.4268 16.1458 14.5924
H 12.1968 16.4191 13.8392
H 11.1043 17.0246 15.1203
H 11.8748 15.356 15.1561
C 9.72488 16.5656 12.261
H 9.3918 17.4926 12.7535
H 10.7237 16.4312 11.8892
H 8.91304 16.0933 11.5651
Si 10.5587 12.3263 13.8116
O 9.63353 11.029 13.2059
C 10.7435 12.3999 15.6433
H 10.5485 11.5648 16.2957
H 11.6843 12.8641 15.8223
H 10.0112 13.2201 15.9059
C 12.2019 12.0719 12.9169
H 12.5397 11.0216 13.012
H 11.7202 12.0676 11.9284
Si 8.89884 9.61386 13.4353
O 8.45864 8.85929 12.0791
C 7.47183 9.88578 14.6787
H 7.50012 8.94884 15.3227
H 7.38758 10.864 15.1313
H 6.61421 9.71005 13.9825
C 9.49577 3.34626 13.9598
H 9.185 2.39325 14.3329
H 10.1383 3.22809 13.1314
H 8.49955 3.7787 13.7928
Si 8.82852 7.56579 10.9195
C 7.19605 6.90362 10.3215
H 6.66195 7.73396 9.82891
H 6.65341 6.64454 11.2337
C 9.8721 6.27019 11.9451
H 10.7299 6.82835 12.36
H 9.37988 5.86469 12.8811
H 10.367 5.56466 11.2634
Si 16.4801 2.94343 15.3164
O 15.9355 1.92139 16.6378
C 18.4009 2.97683 15.642
H 18.9414 2.16221 15.15
H 18.6895 3.95044 15.2456
H 18.5852 3.06216 16.7269
C 15.9055 4.79646 15.2945
H 15.4055 5.36734 16.0989
H 16.7688 5.45716 14.9431
H 15.2886 4.8785 14.3382
Si 16.2555 16.9269 17.3328
O 15.001 15.8313 16.9584
C 17.7728 16.1021 16.7609
H 17.8213 15.3774 15.864
H 18.5988 16.7597 16.5399
H 17.9869 15.5385 17.6569
C 16.2067 16.687 1.9825
H 16.9097 15.9855 2.40216
H 16.3492 1.33703 2.46431
H 15.1886 16.398 2.32757
Si 14.233 14.4223 16.9631
O 13.768 13.6927 15.5969
C 15.3046 13.1499 17.8386
H 14.866 12.2703 18.2219
H 16.1231 12.8665 17.1977
H 15.8847 13.5223 1.44952
C 12.5715 14.834 17.7637
H 12.7085 15.9182 17.5028
H 12.0511 14.1508 17.1036
H 12.8819 14.4162 1.49018
Si 14.5813 13.2657 14.1764
O 15.3218 11.7858 14.2508
C 13.3473 13.1215 12.9075
H 12.9327 14.0814 12.8391
H 13.8019 12.8098 11.9821
C 15.924 14.4829 13.8548
H 15.6989 15.4511 14.2683
H 16.9743 14.1954 14.194
H 16.068 14.583 12.7504
Si 15.4988 10.1588 14.4217
O 15.0636 9.26521 13.0667
C 17.2292 10.0396 14.8198
H 17.3585 9.61877 15.8375
H 18.051 9.39844 14.3814
H 17.7699 10.9457 14.8349
C 14.4522 9.78292 15.9164
H 13.3945 9.99741 15.6408
H 14.5583 8.74283 16.3232
H 14.3961 10.6389 16.6116
Si 15.3907 8.70761 11.5716
C 15.3512 6.8018 11.5119
H 16.0899 6.35838 12.2328
H 14.4987 6.1218 11.5647
H 15.765 6.62397 10.4914
C 17.1905 9.22129 11.3399
H 17.4246 10.2955 11.2612
H 17.9317 8.76223 12.0308
H 17.5358 8.86652 10.3384
523
 Atoms. Timestep: 11500
Si 2.87992 13.1661 2.20625
O 2.5068 11.5753 1.63623
C 2.68949 14.3664 18.165
H 2.63419 13.767 17.2531
H 1.87335 15.1285 18.164
H 3.55092 15.0401 18.0353
C 4.7817 12.8442 2.15447
H 5.12447 12.6409 18.5119
H 5.44308 13.776 2.38112
H 5.22719 11.948 2.70801
Si 1.70328 10.4573 18.1706
O 1.8372 8.81695 1.43886
C 2.30967 10.4813 16.2826
H 2.23877 9.51106 15.7689
H 1.90257 11.2309 15.6901
H 3.48449 10.6312 16.2971
C 18.9921 11.0138 18.1056
H 18.3584 10.7875 1.53476
H 19.1166 12.0604 17.7395
H 18.7316 10.5452 17.103
Si 3.43291 8.42869 2.38311
O 3.70351 6.80765 2.03387
C 3.17395 8.8618 4.17311
H 2.58649 8.03865 4.69231
H 4.11787 9.17821 4.68605
H 2.30748 9.53571 4.32494
C 4.74185 9.53279 1.60945
H 5.49676 8.96733 18.4734
H 4.41631 10.2835 18.2445
H 5.11847 10.0849 2.52897
Si 4.65846 5.57033 2.45158
O 3.67473 4.33129 2.63435
C 5.53211 5.75455 4.09674
H 4.93233 5.58031 4.92454
H 6.28064 4.92531 4.1688
H 5.9726 6.77133 4.29924
C 6.01929 5.3253 18.5357
H 5.82835 4.99445 17.559
H 6.5079 6.3357 18.551
H 6.53352 4.44235 1.59194
Si 3.37434 2.93751 1.89787
O 4.57848 1.90894 2.38972
C 3.46633 2.97148 17.4361
H 3.76305 3.96839 17.0531
H 4.17162 2.24978 17.0217
H 2.50064 2.57229 17.0098
C 1.64848 2.45476 2.44827
H 20.3125 3.4311 2.57336
H 20.1298 2.14653 1.58755
H 1.54116 1.72547 3.2749
Si 5.58228 17.6946 3.36438
C 6.91757 16.8717 2.40267
H 7.95054 16.6503 2.93701
H 6.52328 15.8586 2.13743
H 7.22766 17.495 1.5198
C 6.04524 2.19704 4.82366
H 6.0358 3.21821 4.47782
H 5.53806 2.14804 5.80301
H 7.13705 1.91064 5.01361
Si 11.3843 14.9111 2.13171
O 10.2935 13.7814 1.59967
C 10.6167 16.676 1.77511
H 9.76434 16.384 18.6084
H 10.2779 17.0094 2.71865
H 11.0607 17.5268 18.6071
C 12.1668 14.548 3.91763
H 12.4223 15.4917 4.33517
H 11.4439 14.082 4.63412
H 13.0972 14.0225 3.78191
Si 9.18624 12.6082 2.11613
O 9.80306 11.1041 2.71842
C 8.09733 12.1669 18.0047
H 7.19881 12.9119 17.8755
H 8.72503 12.5383 17.1463
H 7.7903 11.144 17.9084
C 8.10524 13.4291 3.44267
H 7.64575 14.3403 3.0077
H 7.32776 12.792 3.78037
H 8.63791 13.9398 4.28297
Si 11.2226 10.2308 2.64443
O 10.9725 9.13801 1.39995
C 11.6164 9.30306 4.12815
H 12.6298 9.50689 4.35816
H 11.0169 9.67251 4.93448
H 11.4391 8.24215 4.10735
C 12.7602 11.0694 1.96365
H 13.3815 11.5406 2.76474
H 13.4651 10.3293 1.59666
H 12.7357 11.7891 18.533
Si 10.5684 7.55635 18.6407
O 11.032 7.24057 17.1203
C 8.66841 7.54015 18.5524
H 8.34069 6.655 18.0256
H 8.04885 7.58551 2.16731
H 8.23798 8.37437 17.8179
C 11.2646 6.23595 2.3673
H 11.0174 6.41004 3.4378
H 10.8835 5.25177 2.08106
Si 11.0065 6.68512 15.5587
O 9.80851 5.53134 15.4066
C 12.7037 6.6859 14.8406
H 12.9587 7.60664 14.2838
H 13.417 6.65976 15.6695
H 12.8838 5.84158 14.0779
C 10.2057 8.31503 14.5793
H 9.17775 7.96898 15.1554
H 10.8303 9.03847 15.1069
H 10.6624 7.72483 13.7742
Si 9.76854 3.83336 15.6253
C 8.57139 3.54504 17.0153
H 8.83591 4.24437 17.8395
H 7.49952 3.58356 16.7204
H 8.64777 2.52382 17.4537
C 11.6282 3.45531 16.0503
H 12.3727 3.69677 15.2576
H 12.0001 3.88303 16.993
H 11.692 2.37068 16.1554
Si 19.4953 7.72972 1.72054
O 18.7105 8.40878 2.95649
C 20.1505 6.12813 2.22939
H 20.5819 6.25059 3.23527
H 19.205 5.5307 2.30327
H 1.74583 5.52608 1.70262
C 18.4382 7.43884 17.4209
H 18.8646 6.35631 17.2528
H 17.3843 7.48566 17.6368
H 18.71 8.03371 16.5509
Si 17.2225 7.9711 3.63997
O 16.9403 6.37924 3.30866
C 17.0461 8.18508 5.46478
H 16.042 8.589 5.77787
H 16.997 7.14947 5.91612
H 17.8377 8.72447 5.97519
C 16.0145 9.23141 2.83258
H 16.1174 9.26866 1.71619
H 14.9735 8.97105 3.00985
H 16.084 10.2293 3.34102
Si 16.6172 4.81922 3.17234
O 14.9863 4.69105 3.49621
C 17.1349 4.18093 1.45861
H 17.0471 4.87818 17.974
H 18.1475 3.89075 1.53193
H 16.4143 3.41433 18.6254
C 17.6572 3.80545 4.31285
H 17.5088 4.10417 5.3126
H 17.6235 2.7326 3.965
H 18.6741 4.10515 4.08336
Si 13.4135 4.44558 3.05865
O 12.5523 4.00618 4.36395
C 12.7941 6.05218 2.3628
H 13.2635 6.76191 3.04586
H 13.308 6.25567 1.44491
C 13.4476 2.92423 1.93951
H 14.472 2.57028 2.3032
H 12.8545 2.0003 2.1032
H 13.4788 3.07329 18.224
Si 12.2012 4.3048 6.02172
O 12.5779 2.95872 6.78891
C 10.3115 4.52415 6.11116
H 10.0977 4.04909 7.12757
H 10.0726 5.62208 6.12867
H 9.71822 3.98429 5.34046
C 13.1211 5.94144 6.61182
H 13.4637 5.95808 7.67803
H 14.0458 5.94039 5.94495
H 12.4898 6.81736 6.41805
Si 13.9803 2.14226 7.13488
C 15.1709 1.9546 5.63363
H 16.2039 1.60517 5.90517
H 14.9974 1.38056 4.73559
H 15.272 2.97904 5.31785
C 14.6897 2.81031 8.76738
H 14.7041 3.82141 8.84986
H 14.186 2.35808 9.59153
H 15.7794 2.47992 8.89985
Si 20.3966 13.7608 3.92639
O 2.13161 14.4336 5.19669
C 19.3625 15.1684 3.33143
H 19.5481 15.6639 2.34781
H 18.3033 14.972 3.45776
H 19.4606 15.9057 4.10233
C 19.3638 12.4036 4.52042
H 18.2548 12.5656 4.49534
H 19.4406 11.3755 3.97714
H 19.6993 12.0352 5.56012
Si 3.71892 14.8211 5.52449
O 4.57812 13.4086 5.30912
C 3.97968 15.5915 7.18401
H 4.77105 16.3427 7.17299
H 3.0705 15.9552 7.75931
H 4.37812 14.9143 7.94519
C 4.4233 16.0375 4.1826
H 4.20452 15.4925 3.2658
H 3.71522 16.9477 4.12738
H 5.36714 15.8365 4.63193
Si 4.72235 12.0177 6.25005
O 5.56906 10.8115 5.5048
C 3.00762 11.4241 6.64358
H 2.63515 10.6964 5.8654
H 2.91311 10.8216 7.61925
H 2.34794 12.2963 6.78985
C 5.36735 12.4762 8.02404
H 5.74824 11.675 8.75548
H 6.08944 13.2418 8.27883
H 4.51378 12.8424 8.5789
Si 6.74614 9.6175 6.07258
O 7.49668 10.567 7.20857
C 5.77704 8.30962 6.92608
H 4.83235 7.98824 6.38107
H 6.33953 7.35376 6.93869
H 5.76942 8.60048 8.02252
C 7.63204 9.04243 4.58732
H 8.04503 8.02364 4.66961
H 6.92616 8.99708 3.8406
H 8.34488 9.82681 4.17837
Si 8.7078 10.9864 8.21406
O 9.52135 9.55788 8.69634
C 9.66429 12.2798 7.43072
H 9.41014 13.2946 7.71753
H 10.7195 12.1594 7.30098
H 9.31002 12.3134 6.3668
C 8.18646 11.587 9.99612
H 7.25676 11.0998 10.3115
H 9.04187 11.4453 10.6392
H 7.9733 12.6834 9.99313
Si 10.2957 8.48371 9.66568
C 11.2731 7.15178 8.81659
H 10.578 6.69566 8.03521
H 12.1633 7.54366 8.23115
H 11.7279 6.38473 9.47351
C 11.7352 9.3919 10.6754
H 12.079 8.62508 11.3543
H 11.2417 10.0475 11.3246
Si 9.68067 1.27067 10.4155
O 9.11704 17.1595 9.08245
C 8.19717 2.5278 10.76
H 7.3176 1.92482 10.8666
H 8.58004 3.19568 11.6266
H 8.41324 2.85709 9.72526
C 11.3237 2.25455 10.2509
H 12.2115 1.5871 10.5517
H 11.558 2.63311 9.27545
H 11.3043 3.04453 10.9829
Si 9.336 16.4571 7.56335
O 10.8553 15.7185 7.55838
C 7.77479 15.438 7.30087
H 7.57279 14.6143 7.97067
H 7.02033 16.2053 7.16978
H 7.85253 14.9382 6.32677
C 9.54288 17.5832 6.03164
H 8.55559 1.51584 5.73235
H 10.3289 1.74593 6.27602
H 9.80013 16.9594 5.21801
Si 12.3022 15.3135 8.06467
O 12.9046 14.1206 6.93528
C 12.5083 14.7568 9.74041
H 13.0683 13.8627 9.65643
H 12.9471 15.476 10.4322
H 11.5491 14.4585 10.195
C 13.323 16.9725 7.55438
H 12.9568 16.7586 6.51218
H 12.5886 17.424 8.28618
H 14.2307 16.4239 8.10969
Si 14.1452 13.096 6.56795
O 15.0989 13.1225 7.94254
C 15.5685 13.6435 5.49627
H 15.9685 14.5798 6.03721
H 16.34 12.8575 5.63087
H 15.5183 13.9499 4.43552
C 13.746 11.318 6.01739
H 13.1228 11.5031 5.09154
H 14.6422 10.6552 5.75982
H 13.0934 10.6304 6.57429
Si 16.0817 12.1483 8.80639
O 15.3191 10.8168 9.28043
C 16.4727 13.0305 10.363
H 16.4638 12.4955 11.286
H 17.477 13.4318 10.3574
H 15.9168 13.9506 10.5343
C 17.5227 11.6761 7.66814
H 18.3561 12.4726 7.79471
H 18.0191 10.8091 8.10702
H 17.2115 11.5585 6.62025
Si 14.6023 9.50235 9.92196
C 12.7249 9.93041 9.62004
H 12.6959 9.34682 8.66257
H 12.726 11.0166 9.49702
C 15.2297 8.13305 8.85913
H 16.2113 8.20379 8.54731
H 15.2756 7.18191 9.46383
H 14.6794 8.03705 7.91216
Si 19.8036 6.81633 9.67424
O 1.7952 5.86569 8.99988
C 18.6076 5.89992 10.6331
H 17.6453 6.39214 10.8277
H 18.2704 4.87422 10.3013
H 19.0193 5.55077 11.5666
C 19.1927 8.0544 8.47089
H 19.2193 7.83703 7.42649
H 18.1727 8.33695 8.84989
H 19.8038 9.02551 8.68567
Si 2.53242 5.22282 7.79685
O 2.15018 3.5591 7.86859
C 1.71933 5.77828 6.08694
H 20.1753 5.07561 5.51771
H 20.2215 6.65144 6.12978
H 2.59651 5.95517 5.50179
C 4.40472 5.47216 7.58843
H 4.72926 5.9991 6.7592
H 4.84042 5.72072 8.60071
H 4.75383 4.48708 7.42365
Si 20.0074 2.52996 7.66572
O 20.0519 1.41877 8.82121
C 18.3226 3.22778 7.74629
H 18.1569 4.34853 7.49858
H 17.5687 2.69654 7.23854
H 18.0562 3.16696 8.86952
C 20.1429 1.80779 5.93092
H 2.14 1.87645 5.70581
H 20.044 17.275 5.92574
H 19.6224 2.36128 5.16889
Si 19.3115 16.5314 9.13863
O 18.7225 16.8291 10.7104
C 17.8459 16.1937 7.94793
H 16.9254 16.6751 8.02101
H 18.2783 16.4488 7.00621
H 17.6646 15.0554 7.99539
C 20.2277 14.8789 9.28945
H 1.57888 14.7148 10.2311
H 19.4476 14.1281 9.14503
H 1.68731 14.6815 8.3581
Si 18.7184 17.5569 12.1816
O 17.1108 17.7512 12.6059
C 19.3598 16.6594 13.8066
H 20.4865 16.7274 13.9239
H 18.911 17.2511 14.5901
H 19.0707 15.6803 14.0521
C 19.5986 2.60332 12.0817
H 19.1576 3.33104 12.7458
H 1.50638 2.40391 12.4547
H 19.6625 2.99113 11.0774
Si 15.869 1.98408 13.4051
C 14.3061 17.6119 13.6075
H 14.142 17.2889 14.6515
H 13.436 1.74011 13.3947
H 14.1343 16.7683 12.9216
C 15.3825 3.56716 12.6024
H 15.4183 4.40572 13.3539
H 16.1664 3.82454 11.8488
H 14.4236 3.64276 12.1085
Si 3.84475 13.6203 12.7731
O 2.69491 13.0141 11.6851
C 5.24858 12.3418 13.122
H 5.93823 12.7897 13.7898
H 4.93306 11.3562 13.5775
H 5.65763 12.0974 12.1231
C 2.83629 14.2458 14.296
H 1.75266 13.8739 14.2784
H 3.40672 14.1344 15.2268
H 2.71434 15.3356 14.287
Si 1.66903 11.7321 11.9055
O 2.45993 10.3497 12.4639
C 20.2982 11.3548 10.163
H 19.669 12.1539 9.62771
H 2.1346 11.1325 9.63372
H 19.6954 10.4496 9.97486
C 19.429 11.9264 13.1275
H 19.0505 12.9927 12.9232
H 18.7843 11.1377 12.8016
H 19.6374 11.9055 14.1354
Si 3.22508 9.0515 12.0194
O 3.77124 8.27736 13.4415
C 4.45128 9.32217 10.6113
H 4.5518 8.38536 10.0239
H 4.03857 10.0004 9.85981
H 5.22497 9.92155 10.9434
C 1.9214 7.79626 11.1389
H 2.24361 8.38078 10.2081
H 2.44054 6.91178 11.3396
H 20.0883 8.10004 11.6135
Si 3.48025 6.76431 14.115
O 4.30505 5.75636 13.1892
C 1.57341 6.53076 14.1133
H 20.1883 5.95662 14.8336
H 20.4143 7.61936 14.241
H 20.2453 6.29679 13.1327
C 4.31329 6.83707 15.849
H 4.42046 5.95981 16.4602
H 5.26991 7.26605 15.5578
H 3.94612 7.68044 16.4561
Si 5.13261 4.33518 13.0743
O 5.68734 4.0267 11.608
C 6.65464 4.98825 14.098
H 6.81113 4.42888 15.0197
H 7.41464 5.04744 13.337
H 6.5643 6.03366 14.3832
C 4.16567 2.87823 13.7523
H 4.64886 1.886 13.5122
H 4.02157 2.84615 14.8351
H 3.08118 3.06138 13.3791
Si 6.58494 3.92703 10.2782
C 5.60533 2.95007 9.10397
H 5.34647 1.94708 9.46055
H 4.67081 3.59298 8.95346
H 6.14888 2.93576 8.13123
C 7.33847 5.3465 9.55436
H 6.88516 5.50342 8.58597
H 8.2934 5.02819 9.03233
Si 4.90851 15.4532 12.003
O 5.76469 15.7909 13.3885
C 6.37824 14.9751 10.8138
H 7.11289 14.4337 11.4659
H 5.86021 14.2374 9.99939
H 6.78832 15.9614 10.3748
C 3.48777 16.6257 11.5024
H 3.61615 17.667 11.9937
H 3.32186 16.6846 10.4437
H 2.57875 16.2547 12.1192
Si 6.52512 15.927 14.878
O 8.09364 15.3836 14.3865
C 6.58051 17.77 15.3791
H 6.38108 1.7967 14.5251
H 5.71247 1.38666 16.1225
H 7.44597 1.5228 15.9264
C 5.78002 14.7864 16.183
H 6.57745 14.2231 16.6842
H 5.27615 15.4206 17.0055
H 5.10037 14.119 15.7303
Si 9.54876 15.2383 13.6162
O 9.80544 13.8022 12.9035
C 10.9864 16.0262 14.4282
H 10.916 17.0985 14.5379
H 11.0243 15.687 15.4494
H 11.9304 15.68 14.1191
C 9.64924 16.5412 11.9036
H 9.27124 17.3534 12.5802
H 10.8086 16.4729 11.8549
H 8.94005 15.8719 11.3736
Si 10.6743 12.4854 13.5821
O 9.73216 11.065 13.3956
C 10.7562 12.7523 15.3545
H 11.7108 13.3403 15.4161
H 9.94884 13.2787 15.8687
H 10.9022 11.7866 15.89
C 12.343 12.4441 12.6472
H 12.7954 11.4797 12.9618
H 12.1267 12.236 11.5412
Si 8.99957 9.61182 13.5081
O 8.38716 8.44854 12.4003
C 7.63865 9.9372 14.8104
H 8.00127 10.8763 15.3308
H 6.7062 10.1106 14.2648
H 7.58774 9.12949 15.5357
C 9.38274 2.83565 14.1162
H 9.31435 1.82967 14.5283
H 10.1734 2.8597 13.3194
H 8.34287 3.04448 13.7064
Si 9.00822 7.42164 11.2076
C 7.43175 6.72488 10.2137
H 7.21392 7.47795 9.41471
H 6.54103 6.85959 10.8583
C 10.0757 5.90284 11.6658
H 11.0315 5.90354 11.211
H 10.1133 5.73393 12.8037
H 9.61776 4.98766 11.229
Si 16.4006 2.89287 15.4691
O 16.2593 1.5661 16.5216
C 18.2451 3.4871 15.4824
H 18.8734 2.63117 15.6946
H 18.6838 3.90864 14.5715
H 18.4659 4.30453 16.1971
C 15.1229 4.10219 16.1724
H 14.2728 3.35318 16.0643
H 15.1076 4.25024 17.2524
H 14.9725 5.02848 15.6406
Si 16.4407 16.6815 17.3057
O 15.129 15.87 16.8645
C 18.0188 15.6638 16.9345
H 18.0519 15.1887 15.8919
H 18.8704 16.213 17.302
H 18.1421 14.7818 17.5481
C 16.6029 17.1359 1.71881
H 16.6256 16.2746 2.34726
H 17.5592 17.7352 1.85352
H 15.856 17.8008 2.17539
Si 14.4808 14.369 17.0569
O 13.9259 13.8496 15.6319
C 15.5789 13.1854 17.9665
H 15.9928 13.4566 1.56581
H 15.1116 12.2214 18.056
H 16.5349 12.835 17.3735
C 13.0091 14.7064 18.1268
H 12.4102 13.86 17.675
H 13.6252 14.519 1.6624
H 12.7486 15.6659 17.7277
Si 14.6049 13.5011 14.1607
O 15.2034 11.9916 14.2375
C 13.3783 13.5925 12.7808
H 12.8556 14.487 12.5304
H 14.013 13.4402 11.8483
C 16.2502 14.5248 13.8505
H 16.5302 15.2067 14.7127
H 17.1196 13.7443 13.7213
H 16.1334 15.2391 12.9747
Si 14.6916 10.4927 14.7611
O 14.2854 9.57679 13.4102
C 16.1924 9.69982 15.5922
H 16.0617 9.77042 16.7325
H 16.2093 8.52746 15.5698
H 17.2319 9.94915 15.4319
C 13.252 10.477 15.8536
H 12.2844 10.4243 15.3988
H 13.3937 9.58671 16.4677
H 13.3005 11.3258 16.5416
Si 15.2832 9.0791 12.2234
C 15.3647 7.20514 12.3034
H 15.0424 6.59291 11.4279
H 16.4261 6.92873 12.3305
H 15.0498 6.71151 13.2191
C 16.9871 9.8767 12.2586
H 16.9899 10.9804 12.0168
H 17.4283 9.9049 13.3209
H 17.6483 9.34251 11.5686
523
 Atoms. Timestep: 12000
Si 2.84026 13.4386 2.03392
O 2.33609 11.8883 1.60129
C 2.48119 14.2654 18.1024
H 3.05045 13.8094 17.3054
H 1.40871 14.1722 17.7649
H 2.81447 15.3065 18.0892
C 4.6861 13.4738 2.45844
H 5.11559 13.137 1.49386
H 5.05333 14.5129 2.5175
H 5.08223 12.9418 3.24024
Si 2.29388 10.7896 18.1023
O 2.22987 9.14534 1.40696
C 3.90824 10.572 17.219
H 3.65094 10.6909 16.1184
H 4.68675 11.2003 17.5765
H 4.45487 9.53135 17.1918
C 20.1623 11.2417 17.0821
H 20.5254 11.3644 16.0712
H 19.3199 10.4725 16.9438
H 19.6602 12.2362 17.4862
Si 3.69286 8.78583 2.51552
O 3.88183 7.11927 2.24925
C 3.1287 9.34359 4.11138
H 4.01594 9.69805 4.70915
H 2.37664 10.1107 3.89785
H 2.40318 8.7631 4.66961
C 5.34053 9.37889 1.95357
H 5.40795 10.457 1.88357
H 6.07047 8.8417 2.62606
H 5.44235 8.93802 18.6197
Si 5.01979 5.8592 2.12721
O 4.38824 4.42521 2.76302
C 6.11252 6.16263 3.59083
H 6.90034 5.38806 3.52543
H 6.72026 7.11046 3.43089
H 5.54539 6.10112 4.57616
C 5.75442 5.63308 18.0508
H 6.82261 5.50078 18.0393
H 5.32807 4.61 17.6534
H 5.20722 6.37101 17.4214
Si 3.54806 3.0466 2.17052
O 4.23395 1.68995 2.77946
C 3.64336 3.08846 18.0211
H 3.13944 4.04839 17.7081
H 4.63297 2.89133 17.5802
H 2.92718 2.32025 17.5574
C 1.75318 2.8544 2.79706
H 1.50369 2.38246 3.73718
H 20.6445 3.81665 2.89488
H 1.38046 2.31409 1.92879
Si 5.5366 17.6592 3.34029
C 6.30223 16.8042 1.91301
H 7.14956 16.2728 2.23851
H 5.67173 16.1997 1.23901
H 6.63085 17.6333 1.24296
C 6.67609 1.91504 4.08092
H 6.15368 2.45683 4.85742
H 7.51913 1.38105 4.50851
H 6.96844 2.69453 3.40598
Si 11.2816 15.4039 2.12163
O 10.918 13.8813 2.52907
C 10.0724 16.4896 1.25871
H 10.1093 16.6311 17.8805
H 8.97815 16.1695 1.49965
H 10.1614 17.5397 1.69519
C 12.1085 16.2573 3.54331
H 12.2994 15.5664 4.36953
H 13.0242 16.669 3.15622
H 11.6319 17.1263 4.08895
Si 9.80621 12.7104 3.05773
O 10.745 11.4592 3.62546
C 8.56671 11.8847 1.91455
H 8.11716 12.6289 1.30696
H 8.90371 10.886 1.49335
H 7.98478 11.6049 2.77476
C 8.70061 13.4097 4.45638
H 8.08597 14.2317 4.08487
H 8.08819 12.6311 4.91519
H 9.38334 13.6881 5.36917
Si 11.6578 10.3427 2.72402
O 10.6613 9.56038 1.68826
C 12.268 9.13889 4.06839
H 11.5462 8.88731 4.85595
H 12.6385 8.30344 3.55215
H 13.1831 9.44612 4.62253
C 12.968 11.1966 1.8684
H 13.3607 10.9334 18.5476
H 12.7653 12.3007 1.81427
H 13.8689 11.1853 2.52214
Si 10.3101 8.23733 18.5318
O 11.0697 8.08495 17.0555
C 8.37497 8.21551 18.4113
H 8.0103 7.29306 18.5035
H 7.87667 8.83043 1.50625
H 7.98467 8.64032 17.4762
C 10.8455 6.79215 1.81538
H 10.6152 6.86151 2.94125
H 10.2565 5.92819 1.46725
Si 11.0076 6.86904 15.9639
O 10.4211 5.32118 16.0467
C 12.5805 6.58337 15.0912
H 12.9377 7.34989 14.3872
H 13.5379 6.36405 15.6362
H 12.4172 5.68126 14.5669
C 9.89987 7.72981 14.6154
H 9.20083 6.90705 14.1817
H 9.41581 8.58534 15.1995
H 10.6764 8.15028 13.9435
Si 10.0929 3.68072 16.2318
C 8.65454 3.44687 17.4758
H 8.84033 2.90837 18.412
H 8.37667 4.50173 17.7524
H 7.87766 2.84867 16.9871
C 11.574 2.72458 16.6141
H 12.3866 3.36841 16.2325
H 11.8586 2.61503 17.665
H 11.5097 1.83391 16.0188
Si 20.2295 8.10906 18.8426
O 18.8147 8.92106 1.55469
C 20.2453 6.69831 2.25775
H 19.9367 7.14667 3.19672
H 19.5139 5.95035 1.91176
H 1.81248 6.38115 2.40705
C 20.1489 7.53662 17.0213
H 19.6595 6.50673 16.9194
H 19.4261 8.11309 16.487
H 1.60662 7.53542 16.4865
Si 17.3097 8.76401 2.2864
O 17.3225 7.19746 2.81575
C 17.3345 10.0161 3.56382
H 16.92 9.66578 4.54564
H 18.3634 10.337 3.8395
H 16.8826 10.9414 3.16974
C 15.7994 9.18428 1.19649
H 15.9207 8.80723 17.851
H 14.9173 8.73467 1.64355
H 15.7254 10.2936 1.20604
Si 16.4265 5.79491 3.15651
O 14.8795 5.85737 2.6193
C 17.2182 4.2998 2.36235
H 17.4285 3.43984 3.03299
H 16.4058 4.19106 1.64686
H 18.0603 4.29473 1.57127
C 16.3221 5.79208 5.03126
H 17.2609 6.02727 5.45052
H 15.7304 6.71689 5.25322
H 15.9158 4.88535 5.45359
Si 13.3301 5.2378 2.63864
O 12.8887 5.31647 4.2214
C 12.4341 6.40784 1.61838
H 13.164 7.26145 1.44819
H 12.466 5.93511 18.3235
C 13.0683 3.55119 1.94118
H 13.5349 2.714 2.47935
H 12.0122 3.41125 1.88139
H 13.3737 3.36485 18.5388
Si 12.01 4.79714 5.53376
O 12.5495 3.28796 6.03287
C 10.1512 4.85385 4.96562
H 9.49075 4.3565 5.68628
H 9.87582 5.91058 4.72509
H 10.2633 4.43746 3.95301
C 12.2122 5.8797 7.02448
H 11.6197 5.39007 7.77897
H 13.3128 5.85693 7.32532
H 11.8509 6.90167 6.85605
Si 13.7825 2.324 6.47502
C 15.0116 2.29994 5.06252
H 15.777 1.53663 5.35962
H 14.6283 1.70716 4.22458
H 15.6833 3.08539 4.70708
C 14.6547 2.97175 7.9374
H 15.4057 3.82126 7.64453
H 13.9028 3.48232 8.63993
H 15.3477 2.1885 8.41955
Si 1.26266 14.2786 3.67564
O 2.22678 14.6765 5.09712
C 19.8902 15.8518 3.36574
H 20.5523 16.6691 3.02754
H 19.0556 15.6991 2.5278
H 19.3355 16.2289 4.24644
C 19.6895 12.7559 4.1579
H 20.0145 12.0597 3.37459
H 19.6764 12.4039 5.17029
H 18.7239 13.1033 3.97794
Si 3.55818 15.2052 5.83826
O 4.74635 13.9451 5.95151
C 3.39875 16.2774 7.36295
H 4.4089 16.617 7.64555
H 2.8396 17.234 7.1802
H 2.96351 15.8678 8.25818
C 4.59961 16.4319 4.7024
H 4.05578 16.1692 3.7536
H 4.47573 17.4162 5.19194
H 5.67678 16.0522 4.77726
Si 4.70463 12.4356 6.61925
O 5.89868 11.5356 5.90859
C 2.99749 11.6616 6.34644
H 2.67572 11.5387 5.33157
H 2.98464 10.6447 6.91059
H 2.13973 12.2496 6.81793
C 4.95446 12.477 8.3657
H 5.30514 11.4612 8.77783
H 5.82034 13.1956 8.51067
H 4.18369 12.7999 9.00524
Si 6.67226 10.2133 6.38505
O 7.40787 10.8108 7.8219
C 5.43637 9.07891 7.13188
H 5.03709 8.38292 6.39817
H 6.05493 8.44527 7.7356
H 4.63803 9.50603 7.70848
C 7.80656 9.52409 4.93813
H 6.98074 9.3982 4.18845
H 8.60164 10.2717 4.54581
H 8.21641 8.47407 5.00652
Si 8.76284 11.255 8.64808
O 9.32021 9.90579 9.4219
C 10.0606 11.8583 7.54184
H 9.75681 11.5786 6.56088
H 10.2796 12.9296 7.44305
H 11.1172 11.6054 7.64448
C 8.35331 12.6154 9.80589
H 8.67777 12.399 10.8238
H 8.96332 13.5408 9.64588
H 7.32144 12.9295 9.6687
Si 9.84707 8.36313 9.55929
C 9.54724 7.61545 7.87674
H 8.62552 7.97815 7.53164
H 10.3177 7.91021 7.05903
H 9.51059 6.51251 7.84266
C 11.5636 8.242 10.0181
H 12.1808 7.54195 9.4575
H 11.5512 7.94559 11.1116
Si 9.9555 17.4067 10.9206
O 9.95084 16.71 9.43941
C 8.37589 1.6582 10.9587
H 8.36133 1.98224 12.0443
H 8.60753 2.41103 10.1181
H 7.52644 17.9154 10.8306
C 11.5101 1.66395 11.2872
H 11.8252 1.48431 12.2843
H 12.3001 1.35116 10.5164
H 11.3599 2.74113 10.9897
Si 9.55779 16.357 7.80481
O 10.9927 15.4495 7.26956
C 7.96469 15.3907 7.53885
H 7.08184 15.9116 7.92803
H 7.7106 15.1253 6.45883
H 8.27511 14.3473 7.87204
C 9.35614 1.19691 6.98298
H 10.3146 1.62155 6.66908
H 8.70667 17.8584 6.08117
H 8.71689 1.94093 7.55564
Si 12.6142 15.5919 7.56442
O 13.6517 14.7615 6.65116
C 12.9784 15.2594 9.33066
H 14.0718 15.5072 9.54672
H 12.2908 15.7569 10.0362
H 12.7567 14.1566 9.43489
C 13.1865 17.4595 6.92122
H 13.116 16.8946 5.91565
H 12.2471 17.9586 7.47024
H 14.1553 17.2342 7.45496
Si 14.7023 13.6325 6.05224
O 14.988 12.498 7.31183
C 16.3983 14.4614 5.87235
H 16.3218 15.6343 5.78161
H 17.0068 14.2351 6.72609
H 16.9801 14.1267 4.99812
C 14.0528 12.6188 4.65331
H 13.306 11.9351 5.11816
H 13.4872 13.1071 3.77306
H 14.9013 11.981 4.24794
Si 15.742 11.7472 8.46824
O 14.8893 10.7319 9.34248
C 16.1985 12.9718 9.78345
H 16.2838 12.4302 10.7563
H 17.146 13.4367 9.7342
H 15.4698 13.7831 9.90142
C 17.0367 10.7924 7.51661
H 17.3724 11.6267 6.79505
H 17.8087 10.3908 8.1707
H 16.6889 9.97744 6.92524
Si 14.354 9.1976 9.69965
C 12.5168 9.48183 9.89625
H 11.9845 10.1156 9.2136
H 12.3795 10.1243 10.7385
C 14.8552 7.91558 8.36983
H 15.8749 7.43149 8.46948
H 14.1384 7.13513 8.50864
H 14.6661 8.27615 7.39476
Si 19.6531 7.01271 8.69687
O 20.5448 5.92108 7.95406
C 18.7016 6.13721 9.92158
H 18.5513 6.5147 10.926
H 17.6236 5.99428 9.62949
H 19.0462 5.09392 10.1947
C 18.8255 8.04256 7.36948
H 17.7512 8.03345 7.47764
H 19.0156 9.10236 7.52882
H 19.0419 7.66492 6.37815
Si 2.01231 4.57119 7.53387
O 1.47543 3.14782 8.23683
C 2.12453 4.57051 5.60477
H 1.3304 4.38635 4.86736
H 2.2709 5.6316 5.37253
H 3.05754 4.09353 5.44481
C 3.74776 4.77394 8.05788
H 4.12901 5.76337 7.89164
H 3.73517 4.55374 9.22263
H 4.51679 4.04655 7.65855
Si 19.4329 2.40443 7.83579
O 19.3292 1.35817 9.1645
C 18.1926 3.75716 7.54697
H 18.73 4.65506 7.09894
H 17.307 3.61215 6.9385
H 17.7176 4.037 8.51644
C 19.7588 1.57276 6.21183
H 20.3741 2.37144 5.70864
H 20.4739 17.6663 6.41338
H 18.8469 1.26822 5.72528
Si 18.478 16.8934 9.56384
O 18.7512 16.6948 11.114
C 16.6338 17.0383 9.21056
H 16.1795 17.5291 10.0545
H 16.2383 17.5047 8.18171
H 16.3594 15.9574 9.32672
C 19.1336 15.2806 8.66133
H 18.7215 15.2254 7.58865
H 20.198 15.3186 8.7608
H 18.7939 14.3943 9.30795
Si 18.944 17.0852 12.6941
O 17.572 17.7155 13.3854
C 19.3243 15.4499 13.4089
H 20.1948 15.0448 12.9089
H 19.4887 15.4057 14.4518
H 18.486 14.7744 13.1035
C 20.3869 1.50187 12.8996
H 1.33385 1.52912 11.9115
H 20.0095 2.51431 13.2029
H 1.77195 1.22583 13.5552
Si 16.3957 1.97348 13.7785
C 14.783 18.0091 14.1229
H 14.5757 17.639 15.1579
H 13.8436 1.72707 13.8264
H 14.8478 17.1284 13.4255
C 16.3784 3.29499 12.5232
H 16.1172 4.28855 12.9076
H 17.4113 3.36472 12.1877
H 15.6295 3.14433 11.7707
Si 3.82319 13.1017 12.9964
O 2.61059 12.7816 11.8271
C 5.21673 11.854 12.8115
H 6.14995 12.2976 13.1274
H 5.10618 10.8248 13.2747
H 5.35886 11.5748 11.7535
C 3.01901 12.9792 14.6335
H 2.3322 12.0684 14.7066
H 3.87199 12.883 15.3062
H 2.57028 13.9758 14.8411
Si 1.47253 11.6172 11.6874
O 2.21056 10.1067 11.8329
C 20.2155 11.7027 9.912
H 20.0234 10.7752 9.45792
H 19.1843 12.2031 9.88409
H 1.38941 12.3179 9.23989
C 19.5775 11.5489 12.9221
H 19.3647 12.5121 13.3939
H 18.6852 11.2521 12.3895
H 20.0374 10.7691 13.6256
Si 2.76926 8.65336 11.3467
O 2.81285 7.45509 12.4162
C 4.39502 8.9915 10.4378
H 4.0472 9.53965 9.5524
H 5.15165 9.62501 11.0305
H 4.90031 8.02114 10.107
C 1.74716 7.96746 9.73412
H 1.84539 8.83897 8.98804
H 2.35807 7.08634 9.5625
H 20.309 7.98815 10.338
Si 2.93368 6.07739 13.4095
O 4.06036 5.07524 12.5815
C 20.5874 5.6397 13.4667
H 20.1397 4.98331 12.6601
H 20.2522 4.9802 14.343
H 20.021 6.58831 13.4086
C 3.54839 6.57466 15.0171
H 4.6398 6.5508 15.0703
H 3.28094 7.64266 14.9605
H 3.29578 5.95662 15.9106
Si 5.32232 4.31562 13.114
O 6.03566 3.58776 11.7635
C 6.53992 5.51777 13.7886
H 7.56868 5.04196 13.6631
H 6.61295 6.50704 13.2754
H 6.30243 5.49843 14.8255
C 4.97242 2.97782 14.2705
H 3.8921 2.77621 14.5041
H 5.23461 1.99011 13.9028
H 5.53405 3.22088 15.2007
Si 6.79806 3.15421 10.4246
C 5.73094 1.98618 9.41769
H 4.67059 2.33243 9.50951
H 5.96458 1.99268 8.30736
H 5.79224 17.8359 9.83897
C 7.3488 4.60717 9.54393
H 6.53373 4.56342 8.75267
H 8.30527 4.34028 9.03174
Si 4.71176 15.1476 12.4598
O 5.57932 15.9154 13.7502
C 6.04691 14.8546 11.141
H 6.46238 13.834 11.4525
H 5.67945 14.8129 10.18
H 6.77015 15.642 11.1878
C 3.38999 16.3452 11.6649
H 3.75466 17.4291 11.708
H 3.26105 15.989 10.6251
H 2.43814 16.2779 12.0641
Si 6.55773 15.7123 15.0224
O 7.8305 14.8697 14.237
C 7.35584 17.3218 15.4042
H 7.68807 1.02445 14.5109
H 6.72507 17.9175 16.1206
H 8.31957 17.1195 15.9067
C 5.99007 14.5526 16.3677
H 6.62691 14.6153 17.258
H 4.84965 14.5904 16.6204
H 6.02724 13.5765 15.9282
Si 9.42548 14.6978 13.8832
O 9.60081 13.1413 13.4553
C 10.5404 15.2969 15.3304
H 11.2082 14.5318 15.738
H 11.0812 16.1413 14.8169
H 9.87629 15.7354 16.0992
C 9.67702 16.1236 12.34
H 9.42202 16.6996 13.1682
H 10.7316 15.6651 12.251
H 8.86455 15.6313 11.7892
Si 10.3697 11.6642 13.9758
O 9.2503 10.4556 13.3764
C 10.3419 11.6511 15.8923
H 10.6807 12.6757 16.2215
H 9.28717 11.5436 16.2896
H 11.0031 10.9182 16.331
C 11.9016 11.9178 12.8812
H 12.5778 11.0894 12.6747
H 11.4964 12.1742 11.9108
Si 8.41065 9.02751 13.412
O 8.09422 8.21082 12.0211
C 7.14243 9.37641 14.6742
H 6.69668 8.57375 15.361
H 7.61558 10.1349 15.2796
H 6.21893 9.84493 14.2453
C 9.45321 3.13658 14.6304
H 9.75235 2.03712 14.5364
H 9.87765 3.64603 13.7359
H 8.38677 3.12331 14.5416
Si 8.73002 6.98738 10.9498
C 7.22137 6.05046 10.1228
H 6.96448 6.79677 9.30547
H 6.42944 5.93564 10.9394
C 9.63926 5.69367 11.9657
H 10.4156 6.048 12.6611
H 8.90942 4.92488 12.3465
H 10.2423 5.03012 11.3203
Si 16.8509 2.51298 16.0518
O 16.1049 1.3487 17.0991
C 18.7064 2.74632 16.5574
H 18.8944 2.07995 17.4397
H 19.3241 2.4627 15.718
H 18.9426 3.78616 16.9045
C 15.863 4.01868 16.4092
H 14.7561 3.85425 16.5002
H 16.1768 4.54444 17.3366
H 15.9773 4.64901 15.4951
Si 16.3643 16.7072 17.5933
O 15.0495 15.8315 17.0683
C 18.0378 16.3553 16.9216
H 18.2978 15.2306 16.8706
H 18.2337 16.7121 15.9312
H 18.6605 16.7094 17.7196
C 16.1594 16.7007 1.82429
H 16.371 15.728 2.32052
H 16.9366 17.3463 2.27482
H 15.2475 17.0953 2.28757
Si 14.3896 14.3904 17.4437
O 13.8032 13.7122 16.0354
C 15.4901 13.203 18.3984
H 15.2681 13.4329 1.78814
H 14.9823 12.2969 18.2942
H 16.5117 12.9904 18.1869
C 12.8759 14.875 18.5779
H 12.8685 15.9109 18.2249
H 12.2122 14.1308 18.0581
H 13.4243 14.3444 1.78114
Si 14.2695 13.2065 14.511
O 14.7849 11.6597 14.5903
C 12.8049 13.1672 13.3375
H 12.1023 13.9439 13.6413
H 13.2881 13.6319 12.3788
C 15.6991 14.29 13.9081
H 15.7361 15.2771 14.425
H 16.7109 13.7477 14.1399
H 15.4749 14.5681 12.8867
Si 15.1401 10.0815 14.7167
O 14.7064 9.25692 13.2289
C 16.7613 9.81872 15.4442
H 16.7199 10.1061 16.4986
H 16.9954 8.80202 15.5758
H 17.3976 10.4653 14.8355
C 13.9121 9.35125 15.8757
H 12.9085 9.4122 15.4926
H 14.125 8.27127 16.0023
H 13.8686 9.9078 16.8127
Si 15.2439 8.56919 11.8203
C 15.3048 6.68617 12.0491
H 14.3886 6.30465 12.5794
H 15.5668 6.12845 11.173
H 16.1298 6.40676 12.7218
C 17.0423 9.05143 11.5707
H 17.1677 10.0894 11.3719
H 17.6421 8.74152 12.4683
H 17.6139 8.51712 10.7168
523
 Atoms. Timestep: 12500
Si 2.37994 12.8998 2.20654
O 1.7517 11.3237 1.94391
C 2.13832 13.853 18.4729
H 2.86182 13.3356 17.8664
H 1.03444 13.8494 18.1973
H 2.3805 14.8634 18.7192
C 4.25859 12.9046 2.31645
H 4.55882 12.5556 1.27724
H 4.37269 14.0306 2.46878
H 4.67896 12.3961 3.11766
Si 1.72249 10.3901 18.6342
O 1.60594 8.66874 1.32638
C 3.30449 10.3197 17.5819
H 3.84155 11.1976 17.5851
H 3.96809 9.53593 17.992
H 3.142 10.0754 16.4759
C 20.0078 10.7781 17.6965
H 19.0046 10.7237 18.3164
H 20.2229 11.7856 17.3201
H 19.8746 10.1797 16.7981
Si 2.52143 7.8518 2.78005
O 2.95508 6.40677 2.16402
C 1.19059 7.96236 4.13043
H 19.9869 7.38603 4.0996
H 1.75324 7.73944 5.099
H 20.5134 8.93442 4.10243
C 3.78196 9.17912 3.16271
H 3.36525 10.1313 3.67589
H 4.51166 8.76672 3.94146
H 4.44603 9.45349 2.39859
Si 4.41456 5.58475 1.84123
O 4.03606 4.04007 1.74152
C 5.60024 5.77914 3.34335
H 6.60035 5.65327 2.85088
H 5.56407 6.59098 4.09909
H 5.39324 4.87106 3.96327
C 5.22718 6.14869 18.2611
H 4.48568 6.1528 17.4231
H 5.72298 7.19342 18.3668
H 6.03725 5.43447 18.1218
Si 3.28286 2.5174 1.67958
O 4.09445 1.67535 2.99619
C 3.41755 1.31831 18.1283
H 3.74266 17.4764 18.459
H 2.50992 1.27231 17.5007
H 4.2537 1.73965 17.5017
C 1.53759 2.71093 2.19459
H 1.31467 3.5565 2.88887
H 20.8366 2.99433 1.19348
H 20.8562 1.75373 2.48653
Si 5.21618 1.03632 3.94352
C 6.62448 17.3043 3.19849
H 7.3345 17.1098 4.06289
H 6.27516 16.2709 3.05993
H 7.12524 17.7474 2.33498
C 5.78104 2.22798 5.36161
H 4.94928 2.74906 5.93304
H 6.43733 1.67053 6.11616
H 6.42417 2.97863 4.82979
Si 11.7998 15.586 18.8547
O 10.9936 14.1143 18.8467
C 10.9783 17.0958 18.4197
H 11.5269 17.9847 18.8229
H 11.0041 17.2451 17.3323
H 9.97376 17.207 18.7668
C 12.3968 15.7697 2.6998
H 11.6836 16.4645 3.1812
H 12.3377 14.7795 3.23542
H 13.35 16.2963 2.80278
Si 10.1813 12.8826 1.59854
O 10.9377 11.3924 1.49825
C 8.52513 12.6908 18.6776
H 8.38602 13.7312 18.3856
H 8.77373 11.9321 17.9193
H 7.56632 12.4197 1.31388
C 9.89978 13.1692 3.433
H 8.90883 13.5739 3.66405
H 10.2548 12.2385 3.86473
H 10.531 14.0408 3.88741
Si 11.9335 10.2123 2.07842
O 11.8124 8.78799 1.29556
C 11.3855 9.7267 3.81417
H 10.8808 10.5214 4.38764
H 10.5812 8.93762 3.85642
H 12.259 9.27484 4.44097
C 13.7295 10.7676 1.8834
H 14.0274 11.2286 2.86146
H 14.2855 9.83182 1.69931
H 13.7257 11.413 1.0189
Si 10.9909 7.50849 19.0089
O 11.0598 7.02383 17.5176
C 9.1752 7.81661 1.38329
H 8.62539 7.61906 18.3895
H 8.77977 7.06931 2.09662
H 8.83653 8.9375 1.60109
C 11.6036 6.04688 2.00529
H 10.9905 5.89622 2.91615
H 11.2168 5.22909 1.4028
Si 11.1389 6.53504 15.9409
O 10.2519 5.25187 15.5856
C 12.9621 6.52586 15.4226
H 12.939 6.42235 14.2964
H 13.4475 7.42217 15.852
H 13.641 5.69067 15.771
C 10.3535 7.95185 14.685
H 9.38325 7.47952 15.1301
H 10.8952 8.78347 15.2063
H 10.8547 7.48937 13.774
Si 10.0064 3.62784 15.9816
C 8.90348 3.58591 17.5128
H 9.12444 4.47204 18.1112
H 7.78708 3.47879 17.4457
H 9.22183 2.69943 18.071
C 11.7038 2.80163 16.3647
H 12.0064 2.07034 15.6012
H 12.4418 3.61463 16.4239
H 11.568 2.28399 17.3155
Si 20.0212 7.72525 18.8109
O 18.6673 8.40577 1.4072
C 20.0961 5.89409 1.14662
H 19.0428 5.71604 18.8756
H 20.6762 5.27256 18.4753
H 20.1742 5.65254 2.22669
C 19.932 7.37643 16.9444
H 1.19538 7.14147 16.6541
H 19.2487 6.46456 16.8761
H 19.4798 8.20663 16.348
Si 17.164 8.14481 2.03641
O 17.2513 6.66322 2.64492
C 16.8826 9.55918 3.19061
H 17.7314 10.1806 2.69763
H 16.0861 10.3076 2.90851
H 17.031 9.47791 4.30506
C 15.9654 8.06101 18.5974
H 16.4588 7.38619 17.8647
H 14.9332 7.71677 18.7201
H 15.8614 8.97984 17.9346
Si 16.7611 5.27424 3.53283
O 15.3767 4.48684 3.11349
C 17.9754 3.81278 3.04444
H 17.8046 2.80764 3.46435
H 17.9442 3.65875 1.98876
H 19.0359 4.02567 3.35677
C 16.7473 5.92697 5.29647
H 17.4781 6.70172 5.44224
H 15.6984 6.33246 5.47173
H 16.8596 5.15841 6.08318
Si 13.7641 4.40185 3.02828
O 13.1561 3.80461 4.47625
C 13.1055 6.00108 2.30112
H 13.4104 6.74291 3.01574
H 13.7212 6.16117 1.38171
C 13.543 2.89723 1.9009
H 14.4925 2.48558 1.89106
H 12.8936 2.15597 2.31768
H 13.4596 2.91458 18.7861
Si 12.1064 4.05094 5.81051
O 12.4985 2.77533 6.70898
C 10.3293 4.17971 5.44745
H 10.0731 4.71666 6.36817
H 10.2396 4.91973 4.67355
H 9.89333 3.2137 5.33642
C 12.491 5.74755 6.58438
H 12.3944 5.68 7.6659
H 13.5365 5.88818 6.348
H 11.942 6.6376 6.07697
Si 13.6956 2.24624 7.70328
C 15.2533 2.05886 6.88774
H 15.8464 1.50741 7.621
H 15.3277 1.45953 5.93727
H 15.8142 3.01956 6.71826
C 13.5967 2.91525 9.40917
H 12.899 2.44344 10.0843
H 14.4852 2.52536 9.78483
H 13.4467 3.93245 9.57706
Si 1.12568 14.3319 3.79072
O 1.9549 14.7814 5.1129
C 20.2894 15.8771 2.77673
H 1.40853 16.218 2.16959
H 19.4926 15.4795 2.07451
H 19.9702 16.6744 3.37519
C 19.3215 13.5446 4.36507
H 18.5097 14.3233 4.60675
H 18.9595 12.7814 3.52889
H 19.4283 12.9956 5.32124
Si 3.34792 14.9499 5.8941
O 4.26014 13.4773 5.74171
C 3.3843 15.5741 7.71968
H 4.27266 16.2183 7.67183
H 2.47168 16.2411 7.64673
H 3.36543 14.748 8.42117
C 4.09738 16.5857 4.94233
H 3.84422 16.4368 3.91674
H 3.49766 17.3227 5.41263
H 5.12239 16.3703 5.37636
Si 4.14993 12.0261 6.4759
O 5.36347 11.1641 5.88316
C 2.45558 11.2674 6.12435
H 2.66149 10.1957 5.98515
H 1.46009 11.3224 6.63741
H 2.27894 11.5003 5.03352
C 4.07836 12.3126 8.32074
H 4.33909 11.4047 8.9873
H 4.73799 13.1551 8.75539
H 3.0999 12.6863 8.65984
Si 6.68007 10.1888 6.26737
O 7.48064 10.9033 7.55837
C 5.94184 8.54505 6.87147
H 4.85613 8.5212 6.70109
H 6.54699 7.6778 6.42062
H 6.18325 8.48068 7.98063
C 7.82613 10.0571 4.91601
H 8.77514 10.0638 5.33921
H 7.71713 9.06855 4.41721
H 7.747 10.8525 4.18473
Si 8.72386 11.4013 8.4563
O 9.376 10.0629 9.19836
C 9.94878 12.5388 7.69671
H 10.5125 12.992 8.48609
H 10.5201 12.1124 6.91713
H 9.49092 13.4646 7.22784
C 7.7816 12.3336 9.92349
H 8.5748 12.9769 10.436
H 6.8796 12.8615 9.53153
H 7.54094 11.7378 10.8332
Si 9.96518 8.47156 9.22365
C 9.75415 7.76245 7.59202
H 8.73884 7.44291 7.44327
H 9.9642 8.46751 6.74168
H 10.3903 6.89104 7.4611
C 11.9071 8.6524 9.40506
H 12.2628 7.82247 8.75682
H 12.0337 8.34678 10.4278
Si 9.55121 17.6636 11.3397
O 9.64964 16.8819 9.84936
C 8.32378 1.98233 11.2209
H 7.47714 1.40915 11.7913
H 8.80866 2.98099 11.6071
H 8.25914 1.97991 10.1366
C 11.2549 1.12338 11.8263
H 11.4889 1.69315 10.8411
H 11.2381 1.68037 12.769
H 11.934 17.4337 11.7571
Si 9.327 16.9225 8.11908
O 10.6368 15.8869 7.75068
C 7.72765 16.2034 7.55496
H 6.785 16.8719 7.89325
H 7.71979 16.1018 6.44337
H 7.55938 15.2487 7.98992
C 9.34207 1.46375 7.21684
H 9.20967 2.28865 7.9179
H 10.2223 1.69736 6.59402
H 8.45145 1.38184 6.52011
Si 12.2284 15.6672 7.98755
O 12.8717 15.0249 6.64019
C 12.854 14.6048 9.42412
H 12.2124 13.6916 9.36622
H 13.8532 14.2314 9.10295
H 12.8006 15.0693 10.4046
C 12.9883 17.4714 7.84071
H 12.7166 17.4047 6.75039
H 12.1365 17.9031 8.5615
H 14.0406 17.1793 8.09582
Si 14.2294 14.0657 6.20058
O 15.1393 13.9733 7.60126
C 15.2967 15.1033 5.00575
H 14.7532 15.4475 4.06498
H 15.7206 15.9794 5.43834
H 16.0126 14.4076 4.64886
C 13.436 12.4307 5.70859
H 13.5205 12.2101 4.6074
H 13.9228 11.5899 6.25236
H 12.3873 12.4637 6.00244
Si 16.1311 12.7761 8.1586
O 15.2483 11.4935 8.77854
C 17.0535 13.4779 9.62288
H 17.7773 14.389 9.55635
H 16.3609 13.7216 10.4344
H 17.6566 12.706 10.061
C 17.5194 12.1869 6.98358
H 17.3719 12.4897 5.9179
H 18.4778 12.5897 7.30618
H 17.5134 11.141 6.96067
Si 14.5653 9.99672 9.15914
C 12.6099 10.0581 9.27268
H 12.0319 10.6779 8.54964
H 12.8043 10.7278 10.1588
C 15.2424 8.68537 8.06285
H 16.3756 8.80185 8.16218
H 14.8445 7.68398 8.37012
H 14.9442 8.81263 7.01334
Si 20.0979 6.95982 8.7252
O 20.8713 5.97548 7.55375
C 19.0468 6.00589 9.88251
H 17.9693 6.00896 9.66684
H 19.3039 4.92515 10.0183
H 19.0261 6.44069 10.9194
C 19.2949 8.27035 7.75778
H 19.643 8.50588 6.68212
H 18.2755 7.99903 7.7047
H 19.3913 9.20392 8.30872
Si 2.07017 4.68881 7.54304
O 1.36909 3.33488 8.32253
C 2.33497 4.19324 5.83069
H 1.33685 4.09222 5.32324
H 2.9425 4.94853 5.30978
H 2.74554 3.22162 5.65873
C 3.60419 5.2017 8.52533
H 4.15383 6.12033 8.30075
H 3.4189 5.23485 9.55202
H 4.2525 4.35188 8.32023
Si 19.9567 2.26177 7.78611
O 20.0404 1.02588 8.84094
C 18.3832 3.177 7.69931
H 18.6541 4.22973 7.79588
H 17.774 3.03084 6.82331
H 17.7005 3.06778 8.59539
C 20.6114 1.40951 6.25745
H 20.2895 1.70967 5.26498
H 1.87293 1.58976 6.47905
H 20.3555 17.496 6.43891
Si 19.244 17.4832 10.1317
O 19.9736 18.0825 11.5751
C 17.3783 17.7001 9.99362
H 17.2842 16.9362 9.20823
H 16.9589 17.3182 10.8848
H 16.7909 1.45001 9.66139
C 19.9033 15.7742 10.0488
H 1.26698 15.9807 10.0284
H 19.5589 15.2174 10.8417
H 19.645 15.306 9.07594
Si 19.2678 17.7928 13.0428
O 17.9072 1.61712 13.2442
C 18.562 16.0928 13.2442
H 17.9999 15.5401 12.4716
H 19.4409 15.4578 13.462
H 17.8263 16.0226 14.116
C 20.4617 18.096 14.4689
H 1.77319 18.0778 14.2203
H 20.211 1.84324 14.9733
H 20.2443 17.2422 15.1175
Si 16.7046 2.65994 13.8216
C 14.9482 2.17494 13.0481
H 14.7607 1.12636 13.051
H 14.1577 2.88824 13.386
H 15.1864 2.40639 12.0076
C 16.8911 4.3553 13.0728
H 17.9032 4.75962 12.9862
H 16.5959 4.36694 12.0228
H 16.2492 5.07785 13.6285
Si 3.44184 12.9024 13.0839
O 2.30697 12.4341 11.9631
C 4.79187 11.6694 13.1306
H 5.38311 11.6832 13.992
H 4.15129 10.7191 13.1118
H 5.49031 11.6759 12.3038
C 2.56833 12.797 14.8092
H 3.14433 13.5245 15.4041
H 1.53395 13.1109 15.0248
H 2.89946 11.856 15.4171
Si 1.38813 11.1685 11.6322
O 2.3024 9.93338 11.6186
C 20.308 11.253 10.0321
H 19.3955 11.7781 10.1688
H 20.6859 11.5621 9.00117
H 19.9175 10.1716 9.91533
C 19.7188 10.9547 12.8785
H 18.9223 11.5925 12.766
H 19.3282 9.91665 12.6664
H 20.1637 11.1096 13.8718
Si 3.18046 8.63158 11.1762
O 3.10821 7.3 12.0969
C 4.84124 8.86097 10.487
H 4.97775 9.58219 9.63255
H 5.45083 9.03974 11.3273
H 5.06929 7.88318 10.0711
C 1.72496 7.82196 9.85799
H 1.99828 8.5322 9.06187
H 2.37777 6.92172 9.95213
H 20.8412 8.15595 10.6719
Si 3.31007 6.52673 13.6086
O 4.57464 5.49892 13.3422
C 1.58721 5.85458 13.8424
H 1.22656 6.22729 14.7951
H 20.5529 6.06259 13.0559
H 1.59934 4.79348 13.7692
C 3.68276 7.57105 15.0987
H 4.70354 7.84408 15.4036
H 3.18622 8.62806 14.9128
H 2.9564 7.18713 15.8579
Si 4.62179 3.87157 13.2225
O 5.98004 3.47127 12.3899
C 5.00267 3.15359 14.873
H 4.0868 3.27976 15.5383
H 5.23472 2.08468 14.842
H 5.94765 3.65301 15.1777
C 3.26069 3.03803 12.2316
H 2.33753 2.88722 12.8344
H 3.01968 3.57658 11.3445
H 3.57023 1.98301 11.9318
Si 6.67285 3.36339 10.8528
C 5.60632 2.40376 9.7031
H 4.56913 2.38878 10.0182
H 5.6755 2.73577 8.65781
H 5.95218 1.34259 9.56848
C 7.45035 4.90507 10.0661
H 6.90583 5.23929 9.15309
H 8.385 4.65878 9.60512
Si 4.25768 14.9832 12.6985
O 4.93372 15.3631 14.266
C 5.57711 15.1006 11.325
H 6.30528 14.2129 11.2481
H 5.18923 15.2019 10.2659
H 6.27089 15.9394 11.4113
C 2.86912 16.1779 12.3029
H 2.68212 16.2739 11.2513
H 1.94674 15.9813 12.7193
H 3.16997 17.1538 12.5924
Si 6.16226 15.3392 15.3017
O 7.33775 14.6549 14.2528
C 6.78525 16.8287 16.1982
H 6.10322 17.4379 16.8013
H 7.51955 16.3805 16.8918
H 7.38914 17.4665 15.5389
C 5.65449 14.0483 16.6351
H 6.37294 13.8429 17.4527
H 4.89523 14.7051 17.1939
H 5.38978 13.1202 16.1826
Si 8.91628 14.6679 13.906
O 9.32296 13.2944 13.1702
C 10.0845 15.3917 15.1256
H 9.62523 15.2102 16.1145
H 11.1321 15.0109 15.0817
H 10.2321 16.5081 15.1158
C 8.92695 16.2485 12.4794
H 8.34264 16.6349 13.3692
H 9.90927 15.8088 12.6047
H 8.38144 15.6037 11.7953
Si 10.2082 11.9878 13.8027
O 9.59407 10.5795 13.2584
C 10.2164 11.8995 15.6893
H 10.5703 12.7648 16.2635
H 9.12808 12.0327 15.9052
H 10.5111 10.9703 16.1544
C 11.8866 12.3882 12.9265
H 12.6998 11.711 13.2991
H 11.8224 12.1454 11.8105
Si 9.04045 8.97682 13.531
O 8.94742 8.11638 12.267
C 7.5348 9.10868 14.5743
H 7.71566 9.43329 15.6161
H 6.81471 9.80635 14.1375
H 7.01085 8.1159 14.5973
C 9.34739 2.75001 14.3595
H 9.22808 1.67179 14.5436
H 10.0002 2.91459 13.4612
H 8.3852 3.06595 14.0714
Si 9.21435 7.14966 10.9546
C 7.60396 6.27186 10.885
H 6.94375 7.06563 10.5248
H 7.30347 6.26838 11.9234
C 10.654 6.00622 11.3305
H 10.9372 5.35529 10.5064
H 11.5662 6.33777 11.699
H 10.2077 5.25833 12.1375
Si 16.9266 2.7721 16.2059
O 16.5249 1.40276 17.062
C 18.6836 3.08498 16.6485
H 18.6438 3.37431 17.7191
H 19.2446 2.09044 16.6424
H 19.1904 3.87226 16.0882
C 15.8232 4.10492 16.7775
H 14.9813 4.24746 16.1333
H 15.5372 3.91165 17.8725
H 16.2812 5.10256 16.8526
Si 16.792 17.0345 17.7036
O 15.8971 16.0732 16.649
C 18.6551 16.4977 17.5194
H 18.6599 15.4451 17.3293
H 19.2782 16.93 16.6978
H 19.1922 16.7589 18.4502
C 15.9091 17.0025 1.35263
H 16.4396 16.3218 2.13461
H 15.6777 17.9155 1.88527
H 14.9282 16.4633 1.20647
Si 14.9854 14.7521 16.652
O 14.3253 14.3169 15.2321
C 15.5863 13.2542 17.5203
H 16.1172 13.4301 18.5131
H 14.7733 12.5676 17.5483
H 16.4865 12.8965 16.8759
C 13.255 15.3375 17.5643
H 12.8368 14.4297 17.1942
H 14.0429 15.2012 18.3272
H 13.1397 16.3513 17.0232
Si 14.3863 13.8814 13.652
O 15.205 12.4425 13.6558
C 12.566 13.8467 13.0034
H 12.0729 14.6611 13.4939
H 12.8144 14.2454 12.0248
C 15.189 15.2937 12.6603
H 14.3292 15.6633 12.0734
H 15.4296 16.137 13.2523
H 15.9321 15.1482 11.9524
Si 15.331 10.8301 13.9812
O 14.8447 9.97313 12.6785
C 16.9712 10.4453 14.6892
H 17.0661 10.976 15.7184
H 16.8884 9.27525 14.9149
H 17.9011 10.5707 14.0822
C 13.9745 10.3611 15.1556
H 13.0612 10.0734 14.6007
H 14.2236 9.51377 15.923
H 13.7684 11.222 15.8075
Si 15.2756 9.1251 11.2694
C 14.7741 7.2851 11.6392
H 13.8578 7.14073 11.048
H 15.4865 6.66933 11.1563
H 14.7159 7.13165 12.7283
C 17.1176 9.21445 11.0442
H 17.2968 9.66666 10.048
H 17.555 9.68894 11.9127
H 17.4047 8.19026 11.0666
523
 Atoms. Timestep: 13000
Si 2.47575 12.7037 1.8741
O 2.23666 11.0006 1.58069
C 2.22117 13.5404 18.3068
H 1.44692 14.3353 18.4308
H 3.01188 14.239 17.88
H 1.86339 12.9508 17.434
C 4.31903 12.7031 2.14375
H 4.71463 13.627 2.44097
H 4.45782 12.0166 3.04188
H 4.97927 12.1992 1.32152
Si 1.27571 10.3132 18.5725
O 1.55155 8.3431 19.0462
C 2.07317 10.301 16.9225
H 2.08824 9.32967 16.4738
H 1.58461 10.9714 16.2185
H 3.13571 10.6665 17.0702
C 19.4644 10.9082 18.7935
H 18.8177 10.1098 1.15129
H 19.4184 11.9034 1.26745
H 18.9891 11.0939 17.8578
Si 3.04707 7.9433 1.88109
O 3.44217 6.36926 1.75365
C 2.45048 8.40744 3.61422
H 2.32151 9.44875 3.42033
H 1.46968 8.08077 4.09261
H 3.21198 8.20048 4.33606
C 4.51516 9.03172 1.29818
H 4.86531 9.72642 2.01651
H 5.55698 8.51367 1.13861
H 4.29299 9.61883 18.5124
Si 4.66083 5.19308 1.91259
O 3.62645 3.88103 2.19373
C 5.87379 5.36694 3.39027
H 6.54834 4.49525 3.31769
H 6.36379 6.30348 3.2176
H 5.47593 5.20563 4.36507
C 5.57385 5.45784 18.3348
H 5.05953 6.14519 17.6407
H 6.5234 5.94509 18.555
H 5.71268 4.47843 17.8852
Si 3.37211 2.32996 1.7557
O 3.90896 1.34671 2.9673
C 4.49049 1.75088 18.4708
H 4.29184 2.15771 17.4887
H 5.54954 1.6283 18.737
H 4.00489 18.046 18.2805
C 1.54983 2.26806 1.37878
H 1.05703 3.24697 1.40124
H 1.33579 1.79675 18.5141
H 1.16585 1.65098 2.19322
Si 5.17879 17.9507 3.71709
C 6.41932 17.0346 2.66349
H 7.17451 16.393 3.13488
H 5.87402 16.5607 1.8186
H 6.89726 17.9699 2.27951
C 5.84869 1.75918 4.9654
H 5.04998 1.94672 5.68228
H 6.59104 1.16655 5.47737
H 6.24531 2.65415 4.53141
Si 12.0846 15.545 1.83723
O 11.5904 14.075 2.51205
C 10.7517 16.5414 1.02332
H 10.2795 15.9995 18.3001
H 9.98137 16.6068 1.78083
H 11.0687 17.5464 18.7024
C 12.8113 16.6366 3.24485
H 12.076 17.4258 3.20838
H 12.8416 16.3233 4.32116
H 13.7758 16.9953 2.88017
Si 10.8278 12.8111 3.10804
O 11.7984 11.5143 3.21768
C 9.34939 12.4006 2.00774
H 9.48861 12.7033 19.0426
H 9.23462 11.3915 2.02605
H 8.46385 12.8454 2.46978
C 10.2679 13.2695 4.82823
H 10.4064 12.3869 5.43362
H 10.9137 13.9369 5.36153
H 9.1955 13.3468 4.8335
Si 12.2326 10.0612 2.67119
O 11.1219 9.07637 2.03868
C 12.8124 9.2641 4.20862
H 12.3369 9.48059 5.14523
H 12.8205 8.21742 4.04948
H 13.9581 9.43541 4.37283
C 13.4154 10.2627 1.09918
H 14.4918 10.5005 1.29134
H 13.1611 9.33353 18.6357
H 12.8642 11.14 18.8683
Si 10.5982 7.7102 1.29933
O 10.7788 7.88792 17.8168
C 8.78173 7.39427 1.51898
H 8.26224 8.36502 1.34241
H 8.51986 6.69709 18.8238
H 8.53645 7.05367 2.42201
C 11.3506 6.22883 2.07701
H 11.1145 6.43798 3.15507
H 10.7156 5.38704 1.78763
Si 10.7885 7.10441 16.4049
O 10.0479 5.62433 16.5181
C 12.5247 7.20043 15.7276
H 13.1957 6.60667 16.3206
H 12.6638 6.88373 14.6947
H 12.7972 8.24696 15.829
C 9.56118 8.259 15.2655
H 9.08355 7.29136 14.9701
H 9.25713 8.70257 16.2483
H 10.5413 8.6352 14.9421
Si 9.5341 4.01836 16.3716
C 8.73517 3.68876 18.0021
H 9.43597 4.0247 18.7727
H 7.77564 4.17406 18.2187
H 8.6237 2.59426 18.0732
C 11.0296 2.85001 16.1163
H 10.7833 1.97893 16.7486
H 11.2549 2.44426 15.0982
H 12.0403 3.09727 16.5162
Si 20.156 7.36818 18.3945
O 18.9487 7.71586 1.27983
C 20.5675 5.50068 18.598
H 19.6653 5.00177 18.975
H 20.9074 5.04443 17.6839
H 1.43051 5.26446 1.21867
C 19.8555 7.56899 16.6054
H 20.6919 7.65569 15.9634
H 19.6179 6.47894 16.3918
H 19.0201 8.20916 16.3323
Si 17.2447 7.48685 1.19398
O 16.7279 5.95335 1.60735
C 16.363 8.79329 2.27726
H 15.3824 8.47433 2.62363
H 16.9886 9.11509 3.1747
H 16.149 9.72151 1.63841
C 16.6177 7.94644 17.55
H 16.7816 7.42824 16.5551
H 15.5533 8.02363 17.6432
H 16.9951 8.98374 17.3282
Si 16.2382 4.98676 2.98367
O 14.9396 4.0888 2.59377
C 17.5333 3.64632 3.30032
H 17.2477 2.7704 3.84961
H 17.779 3.2736 2.3388
H 18.5355 4.01798 3.61662
C 16.1588 6.10941 4.43013
H 17.1499 6.54786 4.63676
H 15.5421 7.06332 4.29613
H 15.7146 5.59218 5.33633
Si 13.3832 4.2301 2.79833
O 13.1351 4.13789 4.43134
C 12.8653 5.94813 2.03967
H 13.524 6.70544 2.42512
H 13.1799 5.82657 1.01263
C 12.5145 2.99565 1.92582
H 11.8054 3.31696 1.21443
H 13.084 2.25183 1.39855
H 11.9864 2.45582 2.7488
Si 11.8862 4.05703 5.54489
O 12.239 2.72638 6.48922
C 10.2492 3.91153 4.5249
H 9.40368 4.57048 4.77515
H 10.551 3.9331 3.48407
H 9.894 2.89479 4.66575
C 11.9726 5.6454 6.54755
H 12.64 6.22271 5.87144
H 10.9939 6.1396 6.45464
H 12.3658 5.52717 7.64496
Si 13.7085 2.26788 7.21913
C 14.7608 1.76679 5.77086
H 15.8315 1.76329 6.1764
H 14.5362 0.89054 5.21819
H 14.6808 2.54907 5.04737
C 14.3672 3.38664 8.60058
H 13.9348 3.20134 9.56816
H 15.4862 3.16998 8.66915
H 14.1201 4.40725 8.28945
Si 1.13082 13.6691 3.53748
O 2.15342 14.3991 4.68395
C 19.8239 14.963 2.76826
H 19.6358 15.8339 3.38318
H 20.2506 15.2421 1.84047
H 18.9198 14.4393 2.61638
C 19.8759 12.3657 4.37419
H 19.4129 12.7168 5.28517
H 19.0592 12.0347 3.71708
H 20.3573 11.5218 4.77199
Si 3.27409 14.7964 5.73451
O 4.43134 13.6715 5.94195
C 2.55165 15.3238 7.39043
H 2.91438 14.4167 7.94639
H 2.89054 16.2428 7.95195
H 1.48136 15.1695 7.27633
C 4.26644 16.2679 4.90233
H 4.30729 15.8588 3.92142
H 3.46477 17.0312 4.92462
H 5.15145 16.5499 5.56275
Si 4.51834 12.2561 6.80438
O 5.71511 11.1936 6.42156
C 3.00025 11.349 6.46667
H 2.17588 12.026 6.68697
H 2.85119 11.2578 5.35197
H 2.72278 10.4164 6.87447
C 4.79267 12.6525 8.63318
H 4.76829 11.9081 9.44823
H 5.85387 12.9318 8.6505
H 4.13511 13.349 9.15848
Si 7.05697 10.2774 6.42121
O 7.93619 10.5022 7.8245
C 6.49712 8.52901 6.46215
H 5.62497 8.48718 5.85404
H 7.21021 7.974 5.77744
H 6.35887 8.05819 7.45208
C 7.93049 10.7473 4.90024
H 8.74822 10.1397 4.69893
H 7.33529 10.6404 3.98469
H 8.1752 11.789 4.94854
Si 9.07213 10.9589 8.9438
O 9.90868 9.59108 9.15215
C 10.3172 12.2609 8.11009
H 10.463 13.2307 8.58144
H 11.3171 11.8459 8.06681
H 9.94331 12.4301 7.131
C 8.11007 11.551 10.4764
H 7.04426 11.7395 10.3156
H 8.31673 10.8068 11.2651
H 8.61197 12.491 10.8587
Si 10.4816 8.06827 9.50387
C 9.58412 7.08787 8.1642
H 8.59231 7.55475 8.1098
H 10.043 7.47968 7.25361
H 9.5147 6.04523 8.24991
C 12.3555 7.99084 9.64242
H 12.9794 7.59058 8.88122
H 12.4329 7.26368 10.4791
Si 9.3333 17.6168 10.9678
O 9.24425 16.7632 9.56272
C 8.06209 1.78103 10.5338
H 7.139 1.20405 10.461
H 8.33383 2.18143 11.4449
H 8.45324 2.14944 9.55142
C 11.022 1.0093 11.3841
H 11.3525 1.32663 10.4144
H 10.8113 1.82817 12.1116
H 11.6535 17.5279 11.9526
Si 9.40758 16.5405 8.00784
O 10.8995 15.7365 7.7078
C 8.15995 15.4953 7.21409
H 8.28609 14.3974 7.26966
H 7.25387 15.7294 7.78389
H 7.90707 15.6764 6.13931
C 9.34618 18.1977 7.17138
H 10.1592 1.5414 7.44956
H 9.4926 18.0466 6.10704
H 8.37189 1.4941 7.24117
Si 12.5557 15.8228 8.0884
O 13.5612 14.8592 7.15012
C 12.8377 15.4798 9.84759
H 13.026 14.4178 9.9227
H 13.6989 15.9382 10.2736
H 12.0487 15.7853 10.4715
C 13.2892 17.7439 7.85286
H 12.6626 17.5296 6.93703
H 12.7523 17.8944 8.84224
H 14.2988 17.2234 7.93518
Si 14.9567 14.1685 6.4277
O 15.6665 13.4809 7.70058
C 15.9865 15.574 5.73606
H 16.9068 15.019 5.36926
H 15.5878 16.0583 4.80839
H 16.1602 16.3921 6.44257
C 14.8589 12.8001 5.08159
H 15.7171 13.2255 4.46376
H 15.1362 11.8203 5.4583
H 13.9413 12.6999 4.51272
Si 16.3224 12.3698 8.74481
O 15.2638 11.1292 8.96876
C 16.4756 13.351 10.3646
H 15.837 14.2691 10.4675
H 16.0858 12.7399 11.244
H 17.4913 13.5401 10.6498
C 17.9149 11.7418 7.92205
H 18.2274 10.9061 8.66114
H 17.7096 11.3209 6.93821
H 18.7625 12.4014 7.988
Si 14.9343 9.55994 9.53999
C 13.082 9.39656 9.66422
H 12.5287 10.1384 9.02311
H 12.7379 9.87184 10.6051
C 15.5924 8.26841 8.20441
H 16.6029 8.48251 7.94114
H 15.6564 7.18748 8.64326
H 15.1303 8.2515 7.2042
Si 20.2459 6.66851 8.75417
O 20.9406 5.71216 7.58639
C 19.1382 5.58303 9.88761
H 19.255 4.48911 9.78158
H 19.0501 5.92963 10.8969
H 18.0808 5.78799 9.75997
C 19.3959 8.07078 7.90087
H 18.6689 8.54571 8.53988
H 20.1383 8.83084 7.4526
H 18.8332 7.67503 7.0419
Si 1.70637 4.78363 6.50673
O 1.39931 3.24014 6.92686
C 20.8651 5.05641 4.7417
H 1.72799 5.17796 3.9158
H 20.1601 4.25387 4.38886
H 20.2555 6.01175 4.79415
C 3.52448 4.83159 6.58261
H 4.02817 5.90456 6.37792
H 3.79348 4.53996 7.60012
H 4.09122 4.13487 5.89819
Si 20.0949 2.0675 7.09792
O 19.993 1.70853 8.71294
C 18.476 2.79487 6.41118
H 18.6509 3.19516 5.34766
H 17.7731 2.03159 6.28128
H 18.0003 3.55208 7.04612
C 20.6569 17.9555 5.99115
H 20.249 18.0582 4.99306
H 1.83585 17.9665 6.03807
H 20.441 17.0724 6.54383
Si 19.0375 1.03324 9.84301
O 19.6368 1.47454 11.2918
C 17.2817 1.67113 9.38623
H 16.8484 0.920773 8.70586
H 16.4725 1.60381 10.2567
H 17.2438 2.72447 9.13482
C 19.0544 16.4999 9.33214
H 18.1506 15.8263 9.48357
H 19.6185 16.3426 8.41797
H 19.8378 16.145 10.0778
Si 18.835 1.12962 12.7516
O 17.6133 2.09029 13.228
C 18.1899 16.6383 12.8804
H 17.2452 16.4104 12.359
H 18.9588 15.9357 12.5067
H 17.9034 16.3149 13.9536
C 20.3446 1.32273 13.9801
H 19.9177 1.73244 14.8727
H 20.7815 17.6408 14.2333
H 1.08939 2.02188 13.4784
Si 16.5412 2.86616 14.2063
C 14.861 2.10783 13.8601
H 14.6747 1.02242 14.0654
H 14.1005 2.63266 14.4439
H 14.5812 2.23548 12.8176
C 16.6474 4.66253 13.9031
H 17.5877 5.00655 14.291
H 16.624 4.84274 12.8192
H 15.8331 5.21363 14.3974
Si 3.13376 13.5884 13.1001
O 2.91886 12.4023 11.928
C 3.90324 12.7705 14.7736
H 4.14845 13.491 15.4943
H 2.99499 12.2931 15.2843
H 4.67663 12.0277 14.6278
C 1.55978 14.4445 13.5199
H 20.7708 14.6204 12.7042
H 20.9143 14.0079 14.3145
H 1.8066 15.4985 13.8251
Si 1.77795 11.2135 11.7453
O 2.63932 10.0145 10.8542
C 20.3372 11.7207 10.551
H 19.292 11.6048 10.9054
H 20.425 12.7896 10.3152
H 20.2545 11.2446 9.58148
C 20.9525 10.2218 13.1833
H 1.64626 9.40816 13.2052
H 20.835 10.7361 14.1835
H 19.979 9.90729 12.685
Si 3.37541 8.51089 10.8669
O 3.18684 7.64114 12.2605
C 5.04367 8.28106 10.0975
H 5.26056 8.73717 9.17326
H 5.72657 8.66055 10.8888
H 5.26693 7.21272 9.90051
C 1.79525 7.6275 9.64952
H 2.00339 8.36111 8.91545
H 2.45463 6.68445 9.63777
H 1.22794 7.96162 10.5947
Si 2.58852 6.28718 13.1473
O 3.32294 5.11044 12.2379
C 20.6781 6.09227 13.1071
H 20.5298 5.16068 12.5076
H 20.0148 5.81747 13.9967
H 20.1959 6.86658 12.5539
C 3.33905 6.40404 14.8857
H 2.89301 5.7865 15.596
H 4.38301 6.48118 15.1742
H 3.01038 7.45293 15.0354
Si 3.98864 3.57397 11.9802
O 5.69876 3.73381 11.7354
C 3.87951 2.47462 13.4544
H 2.83029 2.10851 13.6278
H 4.48505 1.60578 13.4258
H 3.92033 3.13912 14.3896
C 2.76218 2.90826 10.6844
H 2.01061 2.19735 11.1601
H 2.13829 3.74306 10.4874
H 3.21461 2.47985 9.76702
Si 6.99173 3.617 10.6686
C 6.34628 3.65692 8.8695
H 5.42845 4.18667 8.70875
H 7.12481 4.07106 8.25467
H 6.12049 2.71398 8.38761
C 8.47621 4.8001 10.9041
H 9.05448 4.88474 9.94409
H 9.3401 4.43388 11.4965
Si 4.56218 15.1874 12.3409
O 5.189 16.1751 13.5567
C 5.95797 14.3121 11.364
H 6.1346 14.8584 10.4078
H 6.77319 14.0277 12.1011
H 5.37542 13.3759 10.9748
C 3.59346 16.4312 11.2897
H 3.37387 16.1131 10.2644
H 2.60933 16.766 11.6013
H 4.19756 17.3555 11.2363
Si 5.9852 16.1305 14.9835
O 7.29499 15.19 14.581
C 6.74417 17.8869 15.194
H 6.69145 18.0837 16.2388
H 7.76727 17.9601 14.9107
H 6.25807 1.48465 14.6674
C 5.06529 15.7837 16.5379
H 5.08188 16.7298 17.0664
H 3.96314 15.4812 16.3726
H 5.62 15.0355 17.0747
Si 8.77597 15.2164 13.9542
O 9.12509 13.6004 13.6773
C 10.0607 15.8515 15.087
H 9.85111 15.1818 15.9128
H 11.0733 15.7575 14.676
H 9.90388 16.8454 15.4266
C 8.67175 16.2898 12.2797
H 8.20172 17.0299 12.9713
H 9.78439 15.8277 12.3385
H 7.91681 15.6765 11.7847
Si 9.62684 12.1847 14.4111
O 9.2383 10.7819 13.6386
C 8.9553 12.1514 16.1484
H 9.30758 11.2593 16.679
H 9.22176 13.1168 16.6214
H 7.83512 12.2318 16.1748
C 11.5411 12.1141 14.3351
H 11.9738 11.5821 15.1721
H 11.8436 11.4398 13.4392
Si 8.51953 9.2535 13.778
O 8.82568 8.31627 12.5841
C 6.7147 9.16923 14.3981
H 6.54534 9.99122 15.0986
H 5.99621 9.14782 13.629
H 6.6657 8.14787 14.8521
C 8.4189 3.81544 14.8959
H 8.60792 2.81495 14.416
H 8.79118 4.53913 14.0879
H 7.34877 3.99105 14.9695
Si 9.60937 7.28519 11.5732
C 8.07418 6.27531 11.0923
H 7.94519 6.63822 10.0966
H 7.18893 6.38976 11.6881
C 10.7738 6.30232 12.6847
H 11.401 5.80162 11.9725
H 11.4797 6.88902 13.3169
H 10.4027 5.56615 13.2871
Si 16.5737 2.72176 16.5179
O 16.5941 1.0554 16.7878
C 18.2746 3.38398 17.1084
H 18.7542 2.79188 17.9043
H 18.959 3.26854 16.22
H 18.4479 4.39542 17.4983
C 15.1014 3.63578 17.2925
H 14.6499 4.34162 16.6012
H 14.2835 2.87991 17.4005
H 15.3643 4.1506 18.227
Si 16.6664 16.8744 17.5314
O 15.4805 15.8517 16.9214
C 18.4388 16.5871 17.3026
H 18.5454 16.1467 16.3342
H 19.1743 17.4041 17.5874
H 18.783 15.6863 18.0028
C 16.2535 17.1388 1.22055
H 16.4436 18.0736 1.76066
H 15.2317 16.9214 1.36396
H 16.823 16.4699 1.87828
Si 14.893 14.3706 17.4673
O 14.2837 13.6951 16.1323
C 15.952 13.3248 18.4608
H 16.4625 14.0587 0.986087
H 15.4269 12.6817 0.966067
H 16.7347 12.7266 17.9752
C 13.3607 14.9193 18.6266
H 14.1523 14.9151 1.1681
H 13.0408 15.7889 17.9214
H 12.9569 13.9326 18.3894
Si 13.8652 13.8945 14.5113
O 14.7504 12.7579 13.7334
C 12.0786 13.5461 14.3994
H 11.7694 14.1436 15.2323
H 11.6817 14.1281 13.5525
C 14.5056 15.4506 13.8085
H 14.0724 15.7019 12.7391
H 14.3537 16.4184 14.3272
H 15.5767 15.3497 13.654
Si 15.6256 11.425 13.9252
O 15.4885 10.5137 12.5301
C 17.3996 11.8053 14.075
H 18.1036 10.9081 14.2965
H 17.8551 12.3948 13.2394
H 17.7008 12.4867 14.9093
C 15.2118 10.6308 15.6445
H 14.1257 10.6465 15.7395
H 15.4838 9.55369 15.7723
H 15.5834 11.1863 16.4874
Si 15.7834 9.11032 11.6205
C 14.8799 7.72674 12.3716
H 14.2897 7.204 11.6052
H 15.5741 7.08516 12.9518
H 14.1824 8.11796 13.1718
C 17.6487 8.86237 11.5759
H 18.2472 9.72907 11.4553
H 18.0879 8.32091 12.4151
H 17.8938 8.3264 10.6003
523
 Atoms. Timestep: 13500
Si 3.1202 11.4149 2.0699
O 2.61733 9.95141 1.44644
C 3.79393 12.2804 18.9058
H 3.25294 12.2081 17.9746
H 3.72216 13.4052 18.9238
H 4.86017 12.0865 18.8176
C 4.54305 11.1848 3.29581
H 4.87294 12.1426 3.57862
H 4.41827 10.7307 4.2052
H 5.41314 10.6745 2.82114
Si 1.90259 9.2731 18.3879
O 1.6382 7.53915 19.0254
C 2.93912 9.07021 16.9181
H 3.05633 7.93056 16.7314
H 2.31452 9.46003 16.1182
H 3.92811 9.54426 17.0317
C 20.454 10.3233 18.1049
H 20.7032 11.2109 17.6551
H 19.6371 10.0068 17.484
H 19.9729 10.5482 19.0513
Si 3.06099 7.0704 1.87043
O 3.00047 5.41673 1.80762
C 2.65368 7.70819 3.58971
H 2.38809 8.77208 3.48525
H 1.85046 7.16991 3.97093
H 3.48028 7.58472 4.32512
C 4.74431 7.47856 1.12233
H 4.97553 8.50512 1.0637
H 5.37232 7.0215 1.88656
H 4.79005 7.1685 18.362
Si 4.28151 4.23665 1.60386
O 3.63451 2.79151 1.94588
C 5.59182 4.52356 3.00868
H 5.19296 5.11731 3.82455
H 5.98509 3.64529 3.45138
H 6.34817 5.19019 2.65314
C 4.9241 4.21127 18.0192
H 5.79695 3.58957 17.8818
H 4.13349 3.83398 17.3664
H 5.16005 5.17388 17.6175
Si 2.69412 1.48906 1.50081
O 3.39898 17.5467 2.23582
C 2.78334 1.21577 17.9213
H 2.04697 1.75642 17.341
H 3.74551 1.57016 17.5474
H 2.57443 17.5812 17.752
C 0.989005 1.57495 2.23529
H 0.967734 2.25197 3.08405
H 20.3287 2.01739 1.57136
H 20.7475 18.0091 2.47959
Si 4.73149 17.1849 3.18124
C 6.11833 16.3503 2.14809
H 7.0856 16.5197 2.63856
H 5.71428 15.3578 1.98811
H 6.1623 16.7457 1.11927
C 5.40072 1.11503 4.35636
H 4.52869 1.66356 4.8137
H 6.03881 18.1665 5.18253
H 5.98329 1.7739 3.63936
Si 12.7987 15.4648 1.89516
O 12.2466 14.1099 2.42426
C 11.6254 16.6542 1.2068
H 10.7679 17.1587 1.77792
H 12.2938 17.5487 0.847343
H 11.2273 16.176 18.5795
C 14.0923 16.0887 3.00364
H 13.5483 16.7101 3.71848
H 14.6645 15.2398 3.47024
H 14.7729 16.7949 2.46395
Si 10.9595 13.4881 3.27339
O 11.2589 11.8659 3.54762
C 9.42744 13.6984 2.09364
H 9.11099 12.9334 1.31707
H 8.55976 13.7428 2.68485
H 9.55477 14.6696 1.53286
C 10.6863 14.2911 4.95546
H 11.381 15.1343 4.99485
H 9.6285 14.7657 5.00889
H 10.6892 13.5385 5.70526
Si 11.8659 10.4813 2.96916
O 10.7089 9.56897 2.29559
C 12.5026 9.53256 4.45535
H 13.1826 10.1359 5.08669
H 11.6374 9.2464 5.04807
H 13.1981 8.63593 4.24351
C 13.2192 10.8234 1.70892
H 14.0861 11.0804 2.30376
H 13.418 9.85768 1.19844
H 13.0564 11.5259 0.890724
Si 10.1432 8.11109 1.69522
O 10.3114 8.23552 18.3978
C 8.37837 8.10629 2.29005
H 8.31956 9.28903 2.35371
H 7.69767 7.74401 1.47947
H 8.18343 7.72902 3.24072
C 11.0829 6.59642 2.43976
H 10.8116 6.62224 3.49077
H 10.6017 5.69875 1.90003
Si 10.3229 7.79346 16.7887
O 9.51126 6.33941 16.6834
C 12.051 7.66348 16.1686
H 12.7317 7.73703 17.0403
H 12.1941 6.59804 15.7919
H 12.3193 8.41477 15.3417
C 9.21175 9.11887 15.8295
H 10.0636 9.70948 15.5782
H 8.75765 8.2971 15.3071
H 8.65827 9.55158 16.6714
Si 9.17476 4.73278 16.5988
C 8.43631 4.44666 18.3389
H 8.7947 3.5202 18.8079
H 8.80392 5.23717 18.9442
H 7.35679 4.44675 18.4569
C 10.7251 3.74773 16.3186
H 11.407 4.39114 15.7808
H 11.1302 3.38147 17.267
H 10.6067 2.94512 15.5745
Si 20.1804 6.72613 18.6743
O 18.9405 7.64914 0.897999
C 19.9755 5.03832 1.18468
H 18.9775 4.66176 0.974327
H 20.7166 4.3643 0.738943
H 20.1475 5.08741 2.26831
C 20.0733 6.59925 16.8329
H 19.8181 7.51933 16.2689
H 20.95 5.9832 16.3582
H 19.2425 5.87961 16.7053
Si 17.6094 8.18512 1.69604
O 16.9744 6.79508 2.28209
C 17.4416 9.43685 3.1629
H 17.808 9.24433 4.24897
H 17.7405 10.454 2.82067
H 16.3576 9.57407 3.33385
C 16.6409 8.97459 18.6903
H 16.4364 8.29139 17.8328
H 15.618 9.45324 18.7211
H 17.2492 9.76772 18.225
Si 16.3135 5.73834 3.30916
O 14.9254 5.11405 2.63759
C 17.3627 4.25003 3.30759
H 17.9017 3.93365 2.43577
H 18.1088 4.14429 4.10199
H 16.602 3.4359 3.47621
C 15.9548 6.40381 4.9847
H 16.7671 6.68357 5.68035
H 15.1802 7.15315 4.96662
H 15.606 5.64745 5.66419
Si 13.274 4.96611 2.59302
O 12.6936 4.11115 3.89181
C 12.6478 6.61827 2.40982
H 13.0901 7.32715 3.09567
H 13.0103 6.93548 1.42714
C 12.8076 3.93226 1.08321
H 11.8095 4.0259 18.9958
H 13.1912 4.4162 18.3968
H 13.2497 2.86116 0.991948
Si 11.6425 4.02803 5.11075
O 12.0979 2.72667 6.04776
C 9.91233 3.83454 4.62259
H 9.58342 4.06733 3.60947
H 9.60598 2.84966 4.91111
H 9.3451 4.5429 5.22312
C 11.8899 5.73633 6.11498
H 12.7407 6.33636 5.8847
H 11.0897 6.34213 5.7696
H 11.8091 5.63184 7.25566
Si 13.6145 2.38016 6.5532
C 14.7416 1.85843 5.14121
H 14.186 2.14252 4.17715
H 15.7634 2.14014 5.27073
H 14.7239 18.1884 5.15197
C 14.0689 3.72571 7.8088
H 13.2397 4.27026 8.26292
H 14.7332 3.22252 8.56368
H 14.7372 4.40774 7.23432
Si 1.37108 12.8521 2.91943
O 1.78048 13.6044 4.3021
C 20.9347 14.1557 1.64326
H 21.0529 15.2786 1.80917
H 1.31953 14.0379 18.9347
H 19.8531 13.9278 1.42841
C 19.9637 11.9058 3.48018
H 19.0771 12.5558 3.22227
H 19.93 10.9905 2.92969
H 20.0653 11.61 4.51504
Si 2.70358 14.4662 5.33343
O 3.84965 13.4422 5.99593
C 1.95167 15.2235 6.77506
H 1.38604 14.4667 7.25185
H 2.67634 15.7102 7.47745
H 1.24453 16.0722 6.66619
C 3.844 15.7306 4.33641
H 3.62856 15.2649 3.36373
H 3.30445 16.6339 4.6442
H 4.71316 15.2902 4.78545
Si 4.26118 12.3071 7.19998
O 5.43757 11.2284 6.71738
C 2.85441 11.2095 7.44207
H 1.94277 11.7165 7.93004
H 2.50644 10.9508 6.38829
H 2.99326 10.3006 8.02377
C 4.98665 13.4082 8.5674
H 5.04127 14.43 8.23773
H 4.41847 13.2486 9.48582
H 6.04125 13.2806 8.87566
Si 7.01018 10.8153 6.69937
O 7.69347 11.0986 8.20199
C 7.10838 8.92784 6.36749
H 6.85655 8.78239 5.28639
H 8.07596 8.44976 6.53325
H 6.38581 8.45995 7.0301
C 8.00698 11.693 5.27148
H 8.88192 11.2011 5.00434
H 7.44908 11.7784 4.34054
H 8.30563 12.7099 5.51811
Si 9.03847 11.209 9.06549
O 9.61128 9.63527 9.36494
C 10.4699 12.2506 8.3599
H 10.2205 13.3217 8.36626
H 11.4893 12.0633 8.81978
H 10.6046 11.8647 7.3626
C 8.49734 12.1179 10.7562
H 8.88315 12.0049 11.7334
H 8.88624 13.086 10.4064
H 7.40111 12.0539 10.664
Si 10.4151 8.66201 10.4146
C 10.7308 7.11095 9.42799
H 9.80518 6.54907 9.45625
H 11.0921 7.18896 8.37535
H 11.4512 6.54891 9.95435
C 12.0694 9.53797 10.7579
H 12.5289 9.22776 11.744
H 11.7477 10.5921 10.9008
Si 8.99738 18.0813 11.34
O 9.35112 17.0141 10.071
C 7.29013 1.36048 11.2814
H 6.4836 18.3107 11.7154
H 7.15654 2.39035 11.8866
H 7.05558 1.59419 10.233
C 10.4037 1.89168 11.4108
H 10.4619 2.69703 10.6062
H 10.1792 2.50958 12.297
H 11.2866 1.32041 11.5841
Si 9.36462 16.8282 8.46493
O 10.8136 16.1538 8.14411
C 8.06147 15.4538 8.081
H 7.15327 15.7232 7.6046
H 8.48148 14.5473 7.59129
H 7.57709 15.0413 9.07308
C 8.87085 0.879379 7.37198
H 8.10225 1.69935 7.67491
H 9.69689 1.42784 6.95907
H 8.45909 17.8341 6.51867
Si 12.4472 16.3868 8.55944
O 13.4937 15.1931 8.02086
C 12.8609 16.7404 10.304
H 12.5937 17.7643 10.6265
H 12.5922 16.0332 11.1267
H 14.0177 16.6525 10.284
C 13.0463 17.9741 7.56259
H 12.4987 17.7971 6.65933
H 12.5776 1.25455 8.22329
H 14.0941 17.7748 7.72034
Si 14.4329 14.1732 7.07399
O 15.1354 13.1359 8.16777
C 15.9818 15.0274 6.35176
H 16.8207 14.4307 5.92845
H 15.6163 15.7724 5.63167
H 16.5481 15.4656 7.1739
C 13.5809 13.3482 5.67153
H 14.0098 12.43 5.23223
H 12.7198 12.8582 6.04408
H 13.4255 14.1037 4.89715
Si 16.1107 12.3146 9.21649
O 15.0904 11.2418 9.97613
C 16.5401 13.4828 10.5682
H 15.7435 13.6635 11.2834
H 17.2034 12.8668 11.2316
H 16.999 14.4635 10.3946
C 17.7825 11.7061 8.52283
H 18.1799 10.7028 8.88366
H 17.4228 11.5058 7.50984
H 18.4814 12.5574 8.58868
Si 14.9607 9.6131 9.88377
C 13.1775 9.05532 9.81774
H 13.1495 7.96343 9.85128
H 12.9755 9.40352 8.81536
C 15.7555 8.95242 8.25608
H 16.7613 9.36627 7.99853
H 15.7522 7.82962 8.16425
H 15.1278 9.37845 7.47218
Si 20.5975 7.04532 7.76068
O 1.22003 5.67195 7.21987
C 19.054 6.48443 8.6079
H 19.2545 5.75563 9.46599
H 18.4251 7.26295 9.03668
H 18.4724 5.8663 7.89744
C 20.3017 8.05709 6.19101
H 20.0188 7.30226 5.48468
H 19.4741 8.83332 6.16585
H 1.18093 8.50099 5.80726
Si 1.63456 4.34228 6.34001
O 21.0288 3.05576 7.1419
C 20.9627 4.53105 4.57454
H 20.1391 5.31438 4.73978
H 1.55848 4.89351 3.73782
H 20.6226 3.53373 4.33497
C 3.54163 4.33768 6.34102
H 3.84698 5.22628 5.91869
H 4.10122 4.20843 7.2565
H 3.94172 3.59627 5.68123
Si 19.6664 2.07355 6.90864
O 19.4836 0.976297 8.12902
C 18.2117 3.25588 7.00693
H 18.2313 3.88808 6.11399
H 17.2449 2.72853 7.18547
H 18.367 3.85303 7.87721
C 19.9272 0.973547 5.42282
H 20.1821 1.65899 4.61328
H 20.891 17.871 5.53363
H 19.0641 17.7913 5.13709
Si 18.6803 17.2975 9.0154
O 19.5123 17.2815 10.5013
C 16.856 17.7135 8.973
H 16.6318 17.9161 7.91877
H 16.1272 17.1463 9.40732
H 16.7309 1.37651 9.2537
C 19.0772 15.6326 8.24081
H 18.7348 15.2644 7.23786
H 20.1352 15.4357 8.26158
H 18.5245 14.9789 9.04875
Si 19.2417 17.6836 12.0175
O 18.3749 1.66275 12.1707
C 18.4873 16.23 12.9454
H 19.1845 15.403 12.8332
H 18.457 16.6235 14.0004
H 17.4251 15.9023 12.7758
C 20.9209 18.2651 12.6754
H 1.35233 17.3551 12.814
H 1.28929 1.52894 11.8902
H 20.752 1.35228 13.6219
Si 17.1109 2.27246 12.9162
C 15.5503 1.35523 12.2744
H 15.3829 17.6681 12.398
H 14.7184 1.75798 12.8559
H 15.3865 1.69585 11.2414
C 16.9479 4.09566 12.3212
H 17.6862 4.26206 11.533
H 15.926 4.21328 11.9983
H 17.1586 4.80978 13.0822
Si 2.73915 13.5602 13.4518
O 2.82116 12.2175 12.4047
C 3.37449 12.6493 14.9764
H 3.30787 13.2896 15.8936
H 2.57257 11.8675 15.1844
H 4.31451 12.1902 14.9672
C 1.05025 14.3784 13.7828
H 20.7989 14.0273 14.7822
H 1.19082 15.4503 13.8984
H 20.3597 14.2166 13.0849
Si 1.75666 11.0528 11.9232
O 2.70545 10.0089 10.9013
C 20.5669 12.0581 11.0075
H 20.1479 12.8057 11.8157
H 20.9136 12.795 10.2581
H 19.7871 11.4957 10.5959
C 21.0078 10.1842 13.4882
H 19.9575 10.1948 13.5424
H 1.30726 9.16215 13.4545
H 1.33409 10.7854 14.3749
Si 2.92207 8.42397 10.5881
O 2.64502 7.55914 11.9626
C 4.67692 8.43256 9.94123
H 4.6442 9.16166 9.07424
H 5.21411 9.07372 10.6163
H 5.17185 7.4412 9.80075
C 1.87687 7.62884 9.11137
H 2.2291 8.40883 8.3443
H 2.2882 6.63739 9.23245
H 0.998956 7.92255 9.73011
Si 2.6463 5.92779 12.5895
O 3.09967 4.89423 11.3521
C 20.9321 5.64042 13.1547
H 20.3199 6.43728 13.6636
H 20.242 5.07559 12.4559
H 20.9913 5.05136 14.0953
C 3.63374 6.08789 14.1046
H 4.5423 6.72893 13.8934
H 3.00747 6.61321 14.8263
H 3.97072 5.13964 14.6975
Si 4.15037 3.66488 11.22
O 5.55278 4.46598 10.6309
C 4.42242 2.89836 12.7891
H 3.50677 2.63752 13.3534
H 4.98028 1.97317 12.7341
H 5.043 3.5476 13.4122
C 3.50392 2.4303 10.0037
H 3.85271 1.42867 10.3151
H 2.41845 2.48234 9.92426
H 3.85916 2.62546 8.93469
Si 6.99859 4.7433 9.97941
C 7.10801 5.64152 8.37475
H 7.20142 6.76721 8.55534
H 8.03349 5.41487 7.80154
H 6.23344 5.71941 7.70044
C 8.20315 5.39538 11.2623
H 9.16173 5.49169 10.7889
H 8.24787 4.68282 12.0719
Si 4.53082 15.0783 12.9269
O 5.11321 15.7577 14.3198
C 5.80569 13.8656 12.3219
H 5.25869 12.9275 12.0215
H 6.18165 14.3129 11.4045
H 6.67527 13.5727 12.9069
C 4.1155 16.3801 11.5652
H 3.30321 15.8802 10.8304
H 3.66139 17.3175 12.066
H 5.01823 16.6525 10.969
Si 5.99535 16.3056 15.5367
O 7.63348 16.1944 15.2708
C 5.74439 18.1398 15.9713
H 5.79568 18.2956 17.0131
H 6.47173 1.3479 15.5036
H 4.68497 1.0148 15.7323
C 5.33775 15.3047 17.0487
H 5.9345 15.3559 17.9022
H 4.27517 15.7305 17.2121
H 5.17357 14.2595 16.7648
Si 8.96756 15.8467 14.5029
O 9.03752 14.1979 14.2269
C 10.4913 16.3878 15.3587
H 10.4443 16.1929 16.4303
H 11.4403 15.9285 15.0517
H 10.5846 17.4332 15.3367
C 9.01581 16.8081 12.9026
H 9.06749 17.8605 13.3111
H 9.933 16.3184 12.6123
H 8.13341 16.4586 12.4666
Si 9.59261 12.8818 15.0358
O 9.35366 11.5049 14.1123
C 8.75083 12.6834 16.7424
H 7.66072 12.7682 16.7341
H 9.02494 11.667 17.101
H 9.18521 13.497 17.3968
C 11.4084 13.0213 15.2496
H 11.4917 13.9624 15.8841
H 11.7761 12.1759 15.9024
Si 8.36767 10.1694 14.3619
O 8.72629 9.16698 13.1365
C 6.57673 10.4395 14.5456
H 6.4273 10.88 15.5851
H 6.31691 11.126 13.778
H 5.90295 9.52151 14.4401
C 7.81159 4.23607 15.3348
H 7.55104 3.18242 15.4114
H 8.28087 4.2859 14.3069
H 6.95548 4.87825 15.5337
Si 9.42274 7.85247 12.2792
C 7.8408 6.80695 11.8727
H 7.02817 7.3549 11.3567
H 7.24448 6.62263 12.8621
C 10.8284 6.77565 13.2278
H 11.437 6.05521 12.5027
H 11.6522 7.43298 13.5278
H 10.4485 6.09523 13.9505
Si 17.2991 2.23342 15.1957
O 17.1654 18.0872 15.7557
C 18.9144 3.01051 15.6456
H 18.9682 3.36268 16.6508
H 19.7993 2.44352 15.3648
H 18.9616 3.9231 14.9906
C 15.908 3.25176 15.8705
H 16.1217 4.36207 15.799
H 15.0148 3.04156 15.3275
H 15.7298 3.23244 16.9278
Si 17.2779 16.9236 16.997
O 16.0182 15.9227 16.6986
C 18.9881 16.1985 17.1906
H 18.7857 15.3903 17.8793
H 19.6765 15.8603 16.4218
H 19.5264 16.94 17.8836
C 16.8991 17.5689 18.6304
H 17.7292 18.1416 19.1003
H 15.9794 18.2318 18.7913
H 16.829 16.7694 1.07992
Si 15.2323 14.5276 17.0315
O 14.4043 13.8137 15.7744
C 16.5665 13.3545 17.7202
H 17.0039 13.9085 18.6429
H 16.5225 12.2616 17.9862
H 17.286 13.3014 16.8745
C 13.9304 14.9074 18.3777
H 12.9439 14.4743 18.0002
H 14.4964 14.3385 0.899278
H 14.0737 15.9596 18.3066
Si 14.1112 13.554 14.1868
O 15.0647 12.3389 13.6404
C 12.2511 13.1937 13.9543
H 12.0125 14.1832 13.4368
H 12.0951 12.301 13.3789
C 14.5178 15.1513 13.3837
H 15.5143 15.6112 13.5043
H 14.3144 15.1478 12.2915
H 13.8678 15.9209 13.7097
Si 15.8535 10.9593 14.2272
O 15.8792 9.69684 13.1174
C 17.4999 11.623 14.4363
H 18.2422 11.3038 15.1935
H 18.0663 11.8235 13.5589
H 17.2971 12.6082 14.7793
C 14.7622 10.3378 15.5892
H 13.7281 10.5056 15.3452
H 14.841 9.19977 15.7254
H 15.1055 10.6785 16.5976
Si 16.0076 8.6511 11.8032
C 15.0476 7.11874 12.2965
H 13.9307 7.2448 12.3595
H 15.2377 6.21516 11.7115
H 15.2741 6.79802 13.3724
C 17.7942 8.14444 11.3278
H 18.3592 8.83994 10.7617
H 18.2538 7.95442 12.3523
H 17.7417 7.17959 10.7907
