527
 Atoms. Timestep: 180546
Si 6.90377 37.6837 0.523442
O 5.41447 36.9875 0.787807
C 8.19359 36.3043 0.506712
H 8.23805 35.5813 18.7765
H 9.13203 36.8811 0.620235
H 8.03684 35.7936 1.48086
C 6.97492 38.6626 18.0242
H 5.9555 20.6263 17.7528
H 7.3592 21.4658 18.1246
H 7.58873 38.2278 17.1978
Si 3.83465 36.5193 0.456565
O 3.727 34.9869 18.8437
C 3.11766 37.6472 18.307
H 2.06302 37.5253 18.272
H 3.29498 38.696 18.4461
H 3.58044 37.5019 17.3516
C 2.87321 36.3916 2.04432
H 2.90424 35.3727 2.46514
H 3.45572 37.0685 2.7532
H 1.80935 36.7422 2.14934
Si 4.39918 33.599 18.181
O 4.51354 32.4911 19.3982
C 6.04011 34.0657 17.4671
H 6.69706 34.3679 18.3067
H 6.55009 33.3707 16.8833
H 6.02196 34.9292 16.8299
C 3.22139 32.8696 16.9038
H 3.67031 31.8755 16.8059
H 2.16943 32.7387 17.1559
H 3.32424 33.4156 15.931
Si 3.79098 31.1896 1.11166
O 4.38151 29.8937 19.4915
C 1.96368 31.175 1.38092
H 1.53498 30.6548 0.531001
H 1.80466 30.5085 2.23775
H 1.54466 32.1792 1.65069
C 4.59248 31.3087 2.78957
H 4.65946 32.3469 3.22133
H 4.15258 30.7204 3.60828
H 5.654 31.0014 2.75883
Si 4.28257 28.2971 19.1942
O 3.99008 27.5427 1.42901
C 6.03331 27.7859 18.429
H 5.91064 28.5381 17.6325
H 6.4075 28.1313 19.4648
H 5.45387 26.8087 18.3804
C 3.08336 27.8079 17.8653
H 2.62759 28.5976 17.2139
H 3.49725 27.0191 17.2621
H 2.20597 27.4189 18.3367
Si 3.52854 26.5807 2.70337
C 3.60563 27.5619 4.31664
H 2.8617 28.4045 4.1071
H 3.25809 27.0784 5.28806
H 4.5532 28.0176 4.57649
C 4.72917 25.1992 2.43644
H 4.99135 24.6665 3.4585
H 4.37423 24.4616 1.77733
H 5.66175 25.6736 2.00907
Si 13.7483 21.4495 4.86445
O 14.6373 22.5868 3.94682
C 14.5457 21.5131 6.63252
H 14.5412 38.6478 6.93565
H 15.6048 21.9447 6.61168
H 13.9462 22.1412 7.2689
C 12.0953 22.3041 5.14024
H 11.9566 22.3949 6.29228
H 12.1088 23.3152 4.70558
H 11.3307 21.7041 4.65727
Si 14.7242 24.1091 3.30979
O 13.3097 24.8266 3.64321
C 16.4314 24.6351 3.89976
H 16.7977 25.3981 3.2287
H 16.4382 24.9028 4.94537
H 16.9037 23.6897 3.80102
C 14.6981 24.096 1.42893
H 15.4059 24.9562 1.1576
H 15.14 23.1164 1.2832
H 13.7067 24.1696 0.891006
Si 12.568 26.2477 3.00277
O 13.7493 27.3553 2.71147
C 11.6076 25.8273 1.46157
H 11.7408 24.8104 1.05396
H 10.6133 25.7348 1.91652
H 11.6964 26.6243 0.704054
C 11.4179 27.0336 4.23662
H 11.9586 27.9365 4.62963
H 10.5225 27.3343 3.7576
H 11.2012 26.3944 5.10882
Si 14.6955 28.6647 2.33025
O 15.9793 28.3543 1.31645
C 13.581 29.9272 1.5629
H 12.7243 29.4713 0.983844
H 13.293 30.4777 2.43657
H 14.2263 30.5492 0.909422
C 15.4197 29.289 3.92537
H 16.2318 28.5632 4.16492
H 15.7732 30.301 3.94928
H 14.7306 29.0917 4.7628
Si 16.4347 28.655 18.8212
O 15.8207 30.137 18.434
C 15.7516 27.331 17.7737
H 14.7058 27.2281 18.0041
H 15.9379 27.4279 16.7125
H 16.2361 26.3484 17.9059
C 18.2995 28.5408 18.7743
H 18.6572 29.3913 19.3708
H 18.6276 27.4908 19.1149
H 18.6011 28.7589 17.7473
Si 16.2746 31.3871 17.3905
C 14.8081 32.5987 17.6291
H 15.137 33.5359 17.2683
H 13.8059 32.5384 17.2166
H 14.6871 32.6889 18.6959
C 16.5566 30.9427 15.6019
H 17.138 31.7142 15.1341
H 17.0574 29.9733 15.7543
H 15.6253 30.8316 15.0123
Si 13.6809 37.4131 4.11298
O 14.8721 36.7482 3.21374
C 13.4779 36.4625 5.75059
H 14.4302 36.4211 6.30526
H 12.6969 36.9778 6.39645
H 13.0712 35.3869 5.6571
C 11.9921 37.1461 3.2467
H 11.6917 37.6592 2.31793
H 12.0339 36.0674 3.11006
H 11.2358 37.4777 3.99181
Si 16.1539 35.7068 2.94343
O 16.6706 36.1233 1.32479
C 17.5863 35.9655 4.1843
H 18.5888 36.2253 3.77311
H 17.4666 36.5705 5.08441
H 17.8991 34.9254 4.46498
C 15.488 34.0391 2.92698
H 15.4349 33.6537 1.93442
H 15.995 33.2732 3.57273
H 14.4443 34.0064 3.33452
Si 17.4493 37.0586 19.3475
O 16.8426 36.7222 17.8777
C 17.1301 20.6696 19.5295
H 17.8994 21.0867 1.12498
H 17.2602 21.2309 18.5142
H 16.1095 20.9536 0.86965
C 19.2762 36.6183 19.3548
H 19.6137 36.458 1.25364
H 19.3845 35.6962 18.8341
H 20.0246 37.2067 18.7681
Si 16.2291 36.4525 16.391
O 14.6462 36.0438 16.3418
C 16.5623 37.9446 15.4152
H 17.5771 37.9791 14.9929
H 15.9631 38.0169 14.5334
H 16.604 20.6786 15.9661
C 16.9393 34.9757 15.469
H 18.0015 35.0758 15.3349
H 16.7664 34.0426 15.9786
H 16.5312 34.9103 14.4723
Si 13.2084 36.5762 17.0239
O 13.1426 38.1761 16.498
C 13.4963 36.4409 18.8649
H 14.5799 36.3667 18.997
H 13.0591 37.3301 19.3387
H 12.8928 35.5994 19.2635
C 11.8353 35.412 16.4767
H 11.5827 34.6793 17.2893
H 10.9534 36.0729 16.3604
H 12.0228 34.9107 15.4495
Si 12.2408 21.3468 16.3536
C 11.9293 21.9619 18.1199
H 10.8948 21.9728 18.3515
H 12.3955 21.3924 18.9341
H 12.3225 22.9338 18.2399
C 10.7112 21.0011 15.2951
H 10.0918 21.8461 15.1142
H 10.928 20.5442 14.3053
H 10.0221 38.5219 15.6952
Si 7.21463 20.8612 2.406
O 7.78662 38.2273 3.76124
C 5.4481 21.3791 2.91548
H 5.61861 22.0458 3.84608
H 4.92339 22.0145 2.11462
H 4.71917 20.562 3.0907
C 8.25654 22.3994 1.92596
H 8.47014 23.0552 2.7583
H 9.19967 22.1928 1.41143
H 7.63948 22.8665 1.13705
Si 8.05832 37.9995 5.3612
O 6.55785 37.5778 5.98609
C 8.69265 21.2108 6.34536
H 8.06354 21.5096 7.25773
H 9.65192 20.9038 6.95494
H 8.83586 22.1361 5.73338
C 9.12793 36.5035 5.6215
H 10.1987 36.4303 5.51859
H 9.05001 36.1439 6.6593
H 8.80845 35.7027 5.00444
Si 5.32869 36.8344 6.72805
O 5.68519 36.7087 8.36737
C 5.09352 35.0876 6.03803
H 4.8513 34.4174 6.96375
H 4.26541 35.1058 5.3326
H 6.02133 34.733 5.53595
C 3.79516 37.9715 6.37113
H 3.67247 38.1046 5.2568
H 2.91543 37.5321 6.76699
H 4.07663 20.7201 6.84298
Si 5.00946 36.7912 9.84439
O 6.06741 36.9917 11.0752
C 3.83412 38.2187 10.0282
H 4.25906 21.003 10.3671
H 3.30092 38.4298 9.08632
H 3.20862 38.0453 10.8984
C 4.23939 35.1074 10.3307
H 3.46387 35.2798 11.066
H 3.76277 34.503 9.511
H 4.94758 34.4539 10.801
Si 6.93825 36.5129 12.416
O 7.37717 34.906 12.3067
C 8.41858 37.5367 12.6833
H 8.5625 37.764 13.7257
H 9.34543 37.1784 12.2972
H 8.26051 38.4357 12.0889
C 5.75649 36.5804 13.8603
H 6.26733 36.5303 14.8697
H 5.09521 37.4697 13.9426
H 5.15633 35.702 13.7196
Si 8.20627 33.5631 11.8627
C 17.9063 31.913 18.0258
H 18.5472 31.009 17.9884
H 17.7814 32.0556 19.1798
H 18.3084 32.7713 17.4987
C 9.4529 33.1525 13.4337
H 9.35724 32.1202 13.7157
H 9.28592 33.8415 14.2985
Si 20.076 35.1832 9.07159
O 18.5233 35.5592 9.59142
C 21.1638 35.8193 10.3775
H 20.7046 35.7715 11.3877
H 1.1945 35.3474 10.3051
H 21.4138 36.8828 10.2093
C 20.3041 36.2042 7.497
H 21.3281 36.3405 7.02812
H 19.665 35.8202 6.70272
H 19.8594 37.1866 7.66359
Si 16.9542 35.8335 9.20639
O 15.8787 35.1198 10.2974
C 16.7157 37.6903 9.33914
H 15.6459 37.8909 9.20514
H 17.1939 38.1914 10.2575
H 17.2286 38.1975 8.44928
C 16.7194 35.1674 7.54163
H 15.7724 34.7352 7.14114
H 16.925 35.9311 6.81956
H 17.5739 34.4802 7.2523
Si 15.6211 33.7331 11.2134
O 15.1277 32.5534 10.1596
C 17.1818 33.1999 12.1681
H 18.0187 33.0327 11.4298
H 17.5846 33.9679 12.8002
H 17.0399 32.2617 12.7068
C 14.1613 34.1579 12.4442
H 13.7576 35.1493 12.1121
H 13.2382 33.5768 12.1754
H 14.2324 34.0699 13.5326
Si 14.1192 31.3713 9.57116
O 13.0433 31.8487 8.4677
C 13.3843 30.5571 11.1003
H 12.7008 29.6754 10.9983
H 14.1583 30.106 11.8238
H 12.7996 31.1961 11.7552
C 15.1296 30.1297 8.67994
H 14.4981 29.2199 8.44337
H 15.4529 30.5033 7.68866
Si 11.3674 32.0121 8.29273
O 10.8011 32.5668 9.69474
C 10.6574 30.4201 7.67236
H 9.66808 30.0453 7.94373
H 10.6206 30.4871 6.57289
H 11.3737 29.5637 7.74758
C 11.2547 33.1408 6.87325
H 12.2402 32.9404 6.4704
H 10.5745 32.9579 5.9739
H 11.3439 34.2327 7.02211
Si 10.3635 33.7615 10.767
C 10.7615 33.3904 12.5849
H 11.3063 34.3461 12.8498
H 11.5058 32.6211 12.9075
C 11.2252 35.3708 10.2214
H 11.086 35.4858 9.13963
H 10.7041 36.3084 10.6209
H 12.2667 35.4861 10.6637
Si 20.3174 32.9533 8.74473
O 19.5819 32.3322 7.46298
C 1.26183 32.7296 8.2798
H 1.34306 33.0802 7.2785
H 1.77265 33.3935 8.99054
H 1.74156 31.7722 8.42525
C 19.8599 31.8811 10.2704
H 20.0867 32.2019 11.2639
H 18.8086 31.6315 10.1142
H 20.3627 30.8994 10.0133
Si 19.7571 31.6886 5.89398
O 19.9173 30.0297 6.06419
C 18.1584 31.8282 4.91976
H 17.3872 31.1784 5.3149
H 17.7749 32.8617 4.89181
H 18.4497 31.6508 3.80947
C 21.2199 32.2743 4.98434
H 20.9619 33.3768 4.74025
H 1.15063 32.0336 5.51555
H 21.3073 31.7151 3.99638
Si 19.6598 28.5908 6.84401
O 18.592 28.7867 8.1102
C 19.0205 27.3523 5.68056
H 18.0119 27.716 5.4433
H 19.4883 27.1066 4.72004
H 18.8516 26.4155 6.19991
C 21.251 28.1013 7.6141
H 21.4108 28.8484 8.43827
H 21.2704 27.0624 8.03373
H 1.00441 28.1674 6.79564
Si 17.3829 28.3175 9.1458
O 17.9224 28.0205 10.6905
C 16.2517 29.7549 9.60134
H 15.6725 29.3086 10.4535
H 16.8431 30.6551 9.97193
C 16.5183 26.7715 8.67972
H 15.5276 26.9721 8.26077
H 17.0409 26.2497 7.86832
H 16.3968 26.0921 9.50134
Si 18.9545 27.2574 11.6992
O 19.4844 25.8967 10.9597
C 20.4167 28.4585 11.9727
H 21.098 28.3956 11.1126
H 20.104 29.4858 11.9861
H 20.9617 28.2532 12.8806
C 18.1181 26.9331 13.3041
H 17.5644 27.8737 13.4401
H 17.4577 26.1126 13.2884
H 18.9251 26.9577 14.0929
Si 6.6304 32.061 5.00746
C 7.00929 30.2178 4.80205
H 8.03356 29.8737 5.03315
H 6.3719 29.5731 5.42158
H 6.94473 29.8954 3.77655
C 7.89926 32.8784 3.81521
H 8.75161 33.3332 4.35226
H 8.26809 32.2651 2.94922
H 7.42817 33.8159 3.28593
Si 20.0527 24.4414 10.5815
O 19.7569 23.3962 11.8179
C 19.1764 23.7901 9.05185
H 19.5926 22.862 8.65077
H 18.133 23.6345 9.336
H 19.1737 24.5427 8.27015
C 0.8643 24.7986 10.3056
H 1.36082 24.2204 9.51042
H 0.871661 25.9412 10.2119
H 1.4094 24.4287 11.212
Si 19.9332 22.3462 13.0424
O 21.5003 22.4823 13.6068
C 19.4148 20.718 12.438
H 18.3343 20.6646 11.997
H 20.0166 38.6251 11.6061
H 19.4131 38.1733 13.2655
C 18.6771 22.777 14.3223
H 18.0888 23.6833 14.0084
H 17.9902 21.8576 14.4232
H 19.0919 22.967 15.3178
Si 1.74965 21.681 14.3443
O 2.02994 22.1017 15.9158
C 3.2877 22.1748 13.3657
H 3.26537 23.2084 12.9334
H 4.16263 22.0316 13.9481
H 3.55408 21.4242 12.5116
C 1.42686 37.9984 14.4975
H 0.634388 37.9209 15.2567
H 0.981534 37.8116 13.5998
H 2.17451 37.374 14.9962
Si 2.06968 23.5186 16.8506
O 1.64742 23.0379 18.3529
C 0.75497 24.8302 16.2232
H 0.615139 25.628 16.9284
H 0.968173 25.2458 15.259
H 20.7993 24.278 16.1443
C 3.86591 24.226 16.6511
H 4.66656 23.798 17.2274
H 4.12297 24.2285 15.5493
H 3.73302 25.3044 16.9543
Si 0.745495 23.2617 0.607352
O 1.02147 24.8295 1.11052
C 19.911 23.1135 19.3018
H 19.6666 22.1245 19.2278
H 19.3772 23.482 1.04314
H 19.684 23.7078 18.3678
C 1.4546 22.0072 1.87511
H 2.00792 21.2243 1.31917
H 2.19973 22.4169 2.58012
H 0.501048 21.7186 2.43092
Si 1.25765 25.7721 2.4348
C 21.2875 27.3608 1.85194
H 0.887863 28.3003 1.96138
H 21.193 27.1723 0.773117
H 20.3047 27.4653 2.29948
C 0.623625 24.9983 4.02027
H 1.15455 24.2206 4.42641
H 0.531518 25.8329 4.70913
H 20.5688 24.6959 3.97296
Si 9.50282 29.6495 17.4687
O 8.65579 28.2734 17.3033
C 8.9643 30.9342 16.2459
H 9.53337 31.8204 16.3711
H 9.16959 30.7638 15.2041
H 7.91618 31.2013 16.3159
C 11.2896 29.2337 17.2485
H 11.7929 30.1936 17.5053
H 11.5926 28.4534 18.0128
H 11.5715 28.9364 16.213
Si 7.63151 27.1118 17.5284
O 7.10748 26.8394 16.0261
C 8.41521 25.7155 18.4668
H 9.46413 26.0119 18.8222
H 7.68501 25.4529 19.2713
H 8.44095 24.8208 17.7845
C 9.16553 30.4072 19.1787
H 9.77329 31.351 19.386
H 7.99899 30.6035 19.255
H 9.37195 29.8153 0.991241
Si 7.41536 26.8152 14.4144
O 6.37704 27.9869 13.7436
C 6.8833 25.1678 13.5781
H 6.40378 25.3633 12.6632
H 7.79992 24.6134 13.3153
H 6.19787 24.4998 14.2066
C 9.17417 27.382 14.0327
H 9.219 27.9051 13.0798
H 9.42808 28.0077 14.8163
H 9.85229 26.5101 13.9622
Si 5.06194 28.0075 12.756
O 4.41712 29.4468 12.9265
C 3.89457 26.6732 13.3257
H 2.94733 26.8796 12.9794
H 4.21062 25.6864 12.8122
H 3.9708 26.5729 14.3871
C 5.27901 27.7115 10.9114
H 5.44248 26.6472 10.7756
H 4.19441 28.0704 10.6609
H 6.16819 28.3674 10.7626
Si 4.5765 31.1177 12.3523
O 5.70277 31.2989 11.1827
C 2.86893 31.5037 11.6023
H 2.05675 31.414 12.3744
H 2.68378 32.5771 11.3933
H 2.59916 30.9108 10.7081
C 4.82104 32.1702 13.8888
H 5.57383 31.8096 14.4736
H 5.05365 33.2102 13.5672
H 3.84256 32.1099 14.4895
Si 7.34181 31.6887 10.7179
C 8.54184 30.256 11.037
H 8.37414 29.537 10.2436
H 9.62485 30.4713 10.9548
H 8.44579 29.8985 12.0635
C 7.15468 32.0038 8.83604
H 6.75472 31.1427 8.29194
H 6.56214 32.887 8.72747
H 8.12499 32.332 8.44433
Si 5.51322 27.3119 8.7938
O 7.00853 26.8013 8.53918
C 4.40392 25.8761 8.48363
H 4.66899 25.0756 9.06974
H 3.38224 26.2044 8.90362
H 4.26197 25.6405 7.43928
C 5.03593 28.9099 8.00594
H 5.45325 29.7358 8.60273
H 5.52942 28.9259 7.01883
H 4.02628 29.1627 7.73531
Si 8.41567 25.9664 8.00792
O 9.72013 26.4472 8.85302
C 8.02444 24.1873 8.25738
H 7.64331 23.9019 9.26278
H 7.21289 23.7942 7.54674
H 8.98209 23.5955 8.18956
C 8.47859 26.4868 6.25868
H 9.16339 25.8268 5.65455
H 7.42586 26.3911 5.94945
H 8.69101 27.5596 6.064
Si 11.2149 26.298 9.53875
O 11.7346 24.8464 10.0622
C 12.4584 26.8673 8.20653
H 13.4929 26.4643 8.53794
H 12.2301 26.537 7.20281
H 12.5541 27.9531 8.29274
C 11.3228 27.3936 11.0277
H 10.9298 26.9703 11.9828
H 12.3969 27.4735 11.1455
H 10.8328 28.3892 10.9438
Si 11.4205 23.322 10.6147
O 12.8596 22.9649 11.254
C 10.1005 23.3514 11.9804
H 9.27465 22.6844 11.7661
H 10.4669 23.008 12.982
H 9.6611 24.4051 12.1512
C 10.9065 22.2761 9.18229
H 9.76938 22.4357 9.1377
H 11.32 22.7727 8.2795
H 10.9827 21.1541 9.1042
Si 13.9231 22.1854 12.2167
O 13.4687 22.564 13.7334
C 13.7041 38.5782 12.1284
H 12.7102 38.2848 12.402
H 13.9295 37.9963 11.1989
H 14.2859 38.1108 12.9529
C 15.5111 22.8219 11.4595
H 15.461 22.4113 10.4711
H 15.5128 23.9315 11.2989
H 16.4664 22.4593 11.8636
Si 13.4953 23.0878 15.3338
C 15.2925 23.4646 15.7227
H 15.4875 23.5003 16.8557
H 16.0515 22.7209 15.4331
H 15.5165 24.4605 15.4114
C 12.5858 24.7937 15.2476
H 11.5889 24.6266 14.7153
H 12.4008 25.2622 16.2641
H 13.158 25.4775 14.6268
