 DBCSR| CPU Multiplication driver                                           XSMM (U)
 DBCSR| Multrec recursion limit                                              512 (U)
 DBCSR| Multiplication stack size                                           1000 (D)
 DBCSR| Maximum elements for images                                    UNLIMITED (U)
 DBCSR| Multiplicative factor virtual images                                   1 (U)
 DBCSR| Use multiplication densification                                       T (D)
 DBCSR| Multiplication size stacks                                             3 (U)
 DBCSR| Use memory pool for CPU allocation                                     F (U)
 DBCSR| Number of 3D layers                                               SINGLE (U)
 DBCSR| Use MPI memory allocation                                              F (U)
 DBCSR| Use RMA algorithm                                                      F (U)
 DBCSR| Use Communication thread                                               T (U)
 DBCSR| Communication thread load                                             87 (D)
 DBCSR| MPI: My process id                                                     0
 DBCSR| MPI: Number of processes                                             192
 DBCSR| OMP: Current number of threads                                         1
 DBCSR| OMP: Max number of threads                                             1
 DBCSR| Split modifier for TAS multiplication algorithm                  1.0E+00 (U)


  **** **** ******  **  PROGRAM STARTED AT               2026-05-20 02:34:14.394
 ***** ** ***  *** **   PROGRAM STARTED ON                                 n0516
 **    ****   ******    PROGRAM STARTED BY                              tangsiqi
 ***** **    ** ** **   PROGRAM PROCESS ID                               2206084
  **** **  *******  **  PROGRAM STARTED IN /scratch/tangsiqi/CP2K_Calculatons/h2
                                           o2_interface/regular_production_witho
                                           ut-O2/with-field

 CP2K| version string:                                       CP2K version 2026.1
 CP2K| source code revision number:                                   757bb76a80
 CP2K| cp2kflags: omp libint fftw3 libxc elpa parallel scalapack mpi_f08 cosma d
 CP2K|            eepmd xsmm plumed2 spglib libdftd4 mctc-lib tblite libvori lib
 CP2K|            bbqb mimic hdf5 trexio libsmeagol greenx
 CP2K| is freely available from                            https://www.cp2k.org/
 CP2K| Program compiled at                                   2026-05-01 04:28:57
 CP2K| Program compiled on                                                 n0528
 CP2K| Program compiled for                                               x86_64
 CP2K| Data directory path    /home/tangsiqi/project/software/cp2k-v202601/insta
 CP2K| Input file name                                                  aimd.inp

 GLOBAL| Force Environment number                                              1
 GLOBAL| Basis set file name                                    BASIS_MOLOPT_UZH
 GLOBAL| Potential file name                                       POTENTIAL_UZH
 GLOBAL| MM Potential file name                                     MM_POTENTIAL
 GLOBAL| Coordinate file name                            assembled_interface.xyz
 GLOBAL| Method name                                                        CP2K
 GLOBAL| Project name                                        aimd_withfield_aimd
 GLOBAL| Run type                                                             MD
 GLOBAL| FFT library                                                       FFTW3
 GLOBAL| Diagonalization library                                            ELPA
 GLOBAL| Cholesky decomposition library                                ScaLAPACK
 GLOBAL| DGEMM library                                                      BLAS
 GLOBAL| Minimum number of eigenvectors for ELPA usage                        16
 GLOBAL| Orthonormality check for eigenvectors                          DISABLED
 GLOBAL| Matrix multiplication library                                     COSMA
 GLOBAL| All-to-all communication in single precision                          F
 GLOBAL| FFTs using library dependent lengths                                  F
 GLOBAL| Grid backend                                                       AUTO
 GLOBAL| Global print level                                               MEDIUM
 GLOBAL| MPI I/O enabled                                                       T
 GLOBAL| Total number of message passing processes                           192
 GLOBAL| Number of distributed systems (nodes)                                 1
 GLOBAL| Number of threads for this process                                    1
 GLOBAL| This output is from process                                           0
 GLOBAL| OpenMP stack size per thread (OMP_STACKSIZE)                    default
 GLOBAL| CPU model name                          AMD EPYC 9A14 96-Core Processor
 GLOBAL| CPUID                                                              1003

 MEMORY| system memory details [Kb]
 MEMORY|                        rank 0           min           max       average
 MEMORY| MemTotal            791724172     791724172     791724172     791724172
 MEMORY| MemFree             735347712     735332248     735347712     735346574
 MEMORY| Buffers                177088        177088        177088        177088
 MEMORY| Cached               17806288      17806072      17806288      17806270
 MEMORY| Slab                  3881076       3881056       3881076       3881074
 MEMORY| SReclaimable           856040        856040        856040        856040
 MEMORY| MemLikelyFree       754187128     754171448     754187128     754185972


 *** Fundamental physical constants (SI units) ***

 *** Literature: B. J. Mohr and B. N. Taylor,
 ***             CODATA recommended values of the fundamental physical
 ***             constants: 2006, Web Version 5.1
 ***             http://physics.nist.gov/constants

 Speed of light in vacuum [m/s]                             2.99792458000000E+08
 Magnetic constant or permeability of vacuum [N/A**2]       1.25663706143592E-06
 Electric constant or permittivity of vacuum [F/m]          8.85418781762039E-12
 Planck constant (h) [J*s]                                  6.62606896000000E-34
 Planck constant (h-bar) [J*s]                              1.05457162825177E-34
 Elementary charge [C]                                      1.60217648700000E-19
 Electron mass [kg]                                         9.10938215000000E-31
 Electron g factor [ ]                                     -2.00231930436220E+00
 Proton mass [kg]                                           1.67262163700000E-27
 Fine-structure constant                                    7.29735253760000E-03
 Rydberg constant [1/m]                                     1.09737315685270E+07
 Avogadro constant [1/mol]                                  6.02214179000000E+23
 Boltzmann constant [J/K]                                   1.38065040000000E-23
 Atomic mass unit [kg]                                      1.66053878200000E-27
 Bohr radius [m]                                            5.29177208590000E-11

 *** Conversion factors ***

 [u] -> [a.u.]                                              1.82288848426455E+03
 [Angstrom] -> [Bohr] = [a.u.]                              1.88972613288564E+00
 [a.u.] = [Bohr] -> [Angstrom]                              5.29177208590000E-01
 [a.u.] -> [s]                                              2.41888432650478E-17
 [a.u.] -> [fs]                                             2.41888432650478E-02
 [a.u.] -> [J]                                              4.35974393937059E-18
 [a.u.] -> [N]                                              8.23872205491840E-08
 [a.u.] -> [K]                                              3.15774647902944E+05
 [a.u.] -> [kJ/mol]                                         2.62549961709828E+03
 [a.u.] -> [kcal/mol]                                       6.27509468713739E+02
 [a.u.] -> [Pa]                                             2.94210107994716E+13
 [a.u.] -> [bar]                                            2.94210107994716E+08
 [a.u.] -> [atm]                                            2.90362800883016E+08
 [a.u.] -> [eV]                                             2.72113838565563E+01
 [a.u.] -> [Hz]                                             6.57968392072181E+15
 [a.u.] -> [1/cm] (wave numbers)                            2.19474631370540E+05
 [a.u./Bohr**2] -> [1/cm]                                   5.14048714338585E+03
 

 CELL_TOP| Volume [angstrom^3]:                                     22593.517630
 CELL_TOP| Vector a [angstrom    20.212     0.000     0.000   |a| =    20.211713
 CELL_TOP| Vector b [angstrom     0.000    17.529     0.000   |b| =    17.529033
 CELL_TOP| Vector c [angstrom     0.000     0.000    63.771   |c| =    63.770933
 CELL_TOP| Angle (b,c), alpha [degree]:                                90.000000
 CELL_TOP| Angle (a,c), beta  [degree]:                                90.000000
 CELL_TOP| Angle (a,b), gamma [degree]:                                90.000000
 CELL_TOP| Numerically orthorhombic:                                         YES
 CELL_TOP| Periodicity                                                       XYZ

 GENERATE|  Preliminary Number of Bonds generated:                             0
 GENERATE|  Achieved consistency in connectivity generation.

 CELL| Volume [angstrom^3]:                                         22593.517630
 CELL| Vector a [angstrom]:      20.212     0.000     0.000   |a| =    20.211713
 CELL| Vector b [angstrom]:       0.000    17.529     0.000   |b| =    17.529033
 CELL| Vector c [angstrom]:       0.000     0.000    63.771   |c| =    63.770933
 CELL| Angle (b,c), alpha [degree]:                                    90.000000
 CELL| Angle (a,c), beta  [degree]:                                    90.000000
 CELL| Angle (a,b), gamma [degree]:                                    90.000000
 CELL| Numerically orthorhombic:                                             YES
 CELL| Periodicity                                                           XYZ

 CELL_REF| Volume [angstrom^3]:                                     22593.517630
 CELL_REF| Vector a [angstrom    20.212     0.000     0.000   |a| =    20.211713
 CELL_REF| Vector b [angstrom     0.000    17.529     0.000   |b| =    17.529033
 CELL_REF| Vector c [angstrom     0.000     0.000    63.771   |c| =    63.770933
 CELL_REF| Angle (b,c), alpha [degree]:                                90.000000
 CELL_REF| Angle (a,c), beta  [degree]:                                90.000000
 CELL_REF| Angle (a,b), gamma [degree]:                                90.000000
 CELL_REF| Numerically orthorhombic:                                         YES
 CELL_REF| Periodicity                                                       XYZ

 *******************************************************************************
 *******************************************************************************
 **                                                                           **
 **     #####                         ##              ##                      **
 **    ##   ##            ##          ##              ##                      **
 **   ##     ##                       ##            ######                    **
 **   ##     ##  ##   ##  ##   #####  ##  ##   ####   ##    #####    #####    **
 **   ##     ##  ##   ##  ##  ##      ## ##   ##      ##   ##   ##  ##   ##   **
 **   ##  ## ##  ##   ##  ##  ##      ####     ###    ##   ######   ######    **
 **    ##  ###   ##   ##  ##  ##      ## ##      ##   ##   ##       ##        **
 **     #######   #####   ##   #####  ##  ##  ####    ##    #####   ##        **
 **           ##                                                    ##        **
 **                                                                           **
 **                                                ... make the atoms dance   **
 **                                                                           **
 **            Copyright (C) by CP2K developers group (2000-2026)             **
 **                      J. Chem. Phys. 152, 194103 (2020)                    **
 **                                                                           **
 *******************************************************************************

 DFT| Spin unrestricted (spin-polarized) Kohn-Sham calculation               UKS
 DFT| Multiplicity                                                             1
 DFT| Number of spin states                                                    2
 DFT| Charge                                                                   0
 DFT| Self-interaction correction (SIC)                                       NO
 DFT| Cutoffs: density                                              1.000000E-10
 DFT|          gradient                                             1.000000E-10
 DFT|          tau                                                  1.000000E-10
 DFT|          cutoff_smoothing_range                               0.000000E+00
 DFT| XC density smoothing                                                  NONE
 DFT| XC derivatives                                                          PW

 FUNCTIONAL| MGGA_X_R2SCAN:
 FUNCTIONAL| [1] J. W. Furness, A. D. Kaplan, J. Ning, J. P. Perdew, and J. Sun.
 FUNCTIONAL| ,  J. Phys. Chem. Lett. 11, 8208-8215 (2020), doi: 10.1021/acs.jpcl
 FUNCTIONAL| ett.0c02405                                                        
 FUNCTIONAL| Optional external parameters:                                      
 FUNCTIONAL|  * c1 parameter                                                    
 FUNCTIONAL|  * c2 parameter                                                    
 FUNCTIONAL|  * d parameter                                                     
 FUNCTIONAL|  * k1 parameter                                                    
 FUNCTIONAL|  * eta parameter                                                   
 FUNCTIONAL|  * dp2 parameter                                                   
 FUNCTIONAL| {scale=1.000, spin-polarized}                                      
 FUNCTIONAL| MGGA_C_R2SCAN:
 FUNCTIONAL| [1] J. W. Furness, A. D. Kaplan, J. Ning, J. P. Perdew, and J. Sun.
 FUNCTIONAL| ,  J. Phys. Chem. Lett. 11, 8208-8215 (2020), doi: 10.1021/acs.jpcl
 FUNCTIONAL| ett.0c02405                                                        
 FUNCTIONAL| Optional external parameters:                                      
 FUNCTIONAL|  * Regularization parameter                                        
 FUNCTIONAL| {scale=1.000, spin-polarized}                                      

 PERIODIC_EFIELD| Use displacement field formulation
 PERIODIC_EFIELD| Displacement field filter: x                      1.000000E+00
 PERIODIC_EFIELD|                            y                      1.000000E+00
 PERIODIC_EFIELD|                            z                      1.000000E+00
 PERIODIC_EFIELD| Polarisation vector:       x                      0.000000E+00
 PERIODIC_EFIELD|                            y                      0.000000E+00
 PERIODIC_EFIELD|                            z                      1.000000E+00
 PERIODIC_EFIELD| Start Frame:                                                 0
 PERIODIC_EFIELD| End Frame:                                                  -1
 PERIODIC_EFIELD| Intensity [a.u.]:                                 7.000000E-03

 vdW POTENTIAL|                                             Non-local Functional
 vdW POTENTIAL| Implementation: G. Roman-Perez, J. Soler, PRL 103: 096102 (2009)
 vdW POTENTIAL|                       T. Thonhauser et al, PRB 76: 125112 (2007)
 vdW POTENTIAL|       R. Sabatini et al, J.Phys:Condens Matter 24: 424209 (2012)
 vdW POTENTIAL| Based on QE implementation by Brian Kolb, Timo Thonhauser (2009)
 vdW POTENTIAL| RVV10 Functional:    R. Sabatini et al, PRB 87: 041108(R) (2013)

 QS| Method:                                                                 GPW
 QS| Density plane wave grid type                        NON-SPHERICAL FULLSPACE
 QS| Number of grid levels:                                                    5
 QS| Density cutoff [a.u.]:                                                300.0
 QS| Multi grid cutoff [a.u.]: 1) grid level                               300.0
 QS|                           2) grid level                               100.0
 QS|                           3) grid level                                33.3
 QS|                           4) grid level                                11.1
 QS|                           5) grid level                                 3.7
 QS| Grid level progression factor:                                          3.0
 QS| Relative density cutoff [a.u.]:                                        40.0
 QS| Interaction thresholds: eps_pgf_orb:                                1.0E-06
 QS|                         eps_filter_matrix:                          0.0E+00
 QS|                         eps_core_charge:                            1.0E-14
 QS|                         eps_rho_gspace:                             1.0E-12
 QS|                         eps_rho_rspace:                             1.0E-12
 QS|                         eps_gvg_rspace:                             1.0E-06
 QS|                         eps_ppl:                                    1.0E-02
 QS|                         eps_ppnl:                                   1.0E-08


 ATOMIC KIND INFORMATION

  1. Atomic kind: Si                                    Number of atoms:      54

     Orbital Basis Set                                   TZVP-MOLOPT-MGGA-GTH-q4

       Number of orbital shell sets:                                           1
       Number of orbital shells:                                               7
       Number of primitive Cartesian functions:                                4
       Number of Cartesian basis functions:                                   18
       Number of spherical basis functions:                                   17
       Norm type:                                                              2

       Normalised Cartesian orbitals:

                        Set   Shell   Orbital            Exponent    Coefficient

                          1       1    2s                1.216446      -0.038800
                                                         0.423729       0.012286
                                                         0.168790      -0.118260
                                                         0.049081      -0.032419

                          1       2    3s                1.216446      -1.082535
                                                         0.423729       0.416470
                                                         0.168790       0.158843
                                                         0.049081      -0.074133

                          1       3    4s                1.216446      -0.718969
                                                         0.423729       0.062528
                                                         0.168790      -0.100256
                                                         0.049081       0.065253

                          1       4    3px               1.216446       0.165950
                                                         0.423729      -0.266417
                                                         0.168790      -0.084079
                                                         0.049081      -0.001268
                          1       4    3py               1.216446       0.165950
                                                         0.423729      -0.266417
                                                         0.168790      -0.084079
                                                         0.049081      -0.001268
                          1       4    3pz               1.216446       0.165950
                                                         0.423729      -0.266417
                                                         0.168790      -0.084079
                                                         0.049081      -0.001268

                          1       5    4px               1.216446       0.199186
                                                         0.423729      -0.338029
                                                         0.168790       0.102334
                                                         0.049081       0.023456
                          1       5    4py               1.216446       0.199186
                                                         0.423729      -0.338029
                                                         0.168790       0.102334
                                                         0.049081       0.023456
                          1       5    4pz               1.216446       0.199186
                                                         0.423729      -0.338029
                                                         0.168790       0.102334
                                                         0.049081       0.023456

                          1       6    5px               1.216446      -1.660648
                                                         0.423729       0.095224
                                                         0.168790      -0.061358
                                                         0.049081       0.023083
                          1       6    5py               1.216446      -1.660648
                                                         0.423729       0.095224
                                                         0.168790      -0.061358
                                                         0.049081       0.023083
                          1       6    5pz               1.216446      -1.660648
                                                         0.423729       0.095224
                                                         0.168790      -0.061358
                                                         0.049081       0.023083

                          1       7    4dx2              1.216446       0.430800
                                                         0.423729       0.205344
                                                         0.168790       0.028687
                                                         0.049081       0.000332
                          1       7    4dxy              1.216446       0.746167
                                                         0.423729       0.355666
                                                         0.168790       0.049687
                                                         0.049081       0.000576
                          1       7    4dxz              1.216446       0.746167
                                                         0.423729       0.355666
                                                         0.168790       0.049687
                                                         0.049081       0.000576
                          1       7    4dy2              1.216446       0.430800
                                                         0.423729       0.205344
                                                         0.168790       0.028687
                                                         0.049081       0.000332
                          1       7    4dyz              1.216446       0.746167
                                                         0.423729       0.355666
                                                         0.168790       0.049687
                                                         0.049081       0.000576
                          1       7    4dz2              1.216446       0.430800
                                                         0.423729       0.205344
                                                         0.168790       0.028687
                                                         0.049081       0.000332

       Atomic covalent radius [Angstrom]:                                  1.110

       Atomic van der Waals radius [Angstrom]:                             2.100

     GTH Potential information for                                   GTH-MGGA-q4

       Description:                       Goedecker-Teter-Hutter pseudopotential
                                           Goedecker et al., PRB 54, 1703 (1996)
                                          Hartwigsen et al., PRB 58, 3641 (1998)
                                                      Krack, TCA 114, 145 (2005)

       Gaussian exponent of the core charge distribution:               2.565716
       Electronic configuration (s p d ...):                       2   2   0   0

       Parameters of the local part of the GTH pseudopotential:

                          rloc        C1          C2          C3          C4
                        0.441449   -6.125207

       Parameters of the non-local part of the GTH pseudopotential:

                   l      r(l)      h(i,j,l)

                   0    0.435533    8.953533   -2.706271
                                   -2.706271    3.510709
                   1    0.495410    2.431366

  2. Atomic kind: O                                     Number of atoms:     145

     Orbital Basis Set                                   TZVP-MOLOPT-MGGA-GTH-q6

       Number of orbital shell sets:                                           1
       Number of orbital shells:                                               7
       Number of primitive Cartesian functions:                                5
       Number of Cartesian basis functions:                                   18
       Number of spherical basis functions:                                   17
       Norm type:                                                              2

       Normalised Cartesian orbitals:

                        Set   Shell   Orbital            Exponent    Coefficient

                          1       1    2s               10.257817      -0.419073
                                                         3.644287      -0.215759
                                                         1.402225       0.311285
                                                         0.522057       0.263821
                                                         0.168189       0.045116

                          1       2    3s               10.257817       0.362459
                                                         3.644287       0.180656
                                                         1.402225      -0.203664
                                                         0.522057      -0.159611
                                                         0.168189       0.244682

                          1       3    4s               10.257817      -2.413417
                                                         3.644287      -0.850901
                                                         1.402225       0.170654
                                                         0.522057      -0.131214
                                                         0.168189       0.003984

                          1       4    3px              10.257817      -1.672017
                                                         3.644287      -1.345385
                                                         1.402225      -0.751048
                                                         0.522057      -0.276645
                                                         0.168189      -0.033014
                          1       4    3py              10.257817      -1.672017
                                                         3.644287      -1.345385
                                                         1.402225      -0.751048
                                                         0.522057      -0.276645
                                                         0.168189      -0.033014
                          1       4    3pz              10.257817      -1.672017
                                                         3.644287      -1.345385
                                                         1.402225      -0.751048
                                                         0.522057      -0.276645
                                                         0.168189      -0.033014

                          1       5    4px              10.257817       1.559903
                                                         3.644287       0.989060
                                                         1.402225       0.672543
                                                         0.522057       0.141420
                                                         0.168189      -0.167208
                          1       5    4py              10.257817       1.559903
                                                         3.644287       0.989060
                                                         1.402225       0.672543
                                                         0.522057       0.141420
                                                         0.168189      -0.167208
                          1       5    4pz              10.257817       1.559903
                                                         3.644287       0.989060
                                                         1.402225       0.672543
                                                         0.522057       0.141420
                                                         0.168189      -0.167208

                          1       6    5px              10.257817       5.420840
                                                         3.644287       0.742781
                                                         1.402225       2.786765
                                                         0.522057      -0.733751
                                                         0.168189       0.023040
                          1       6    5py              10.257817       5.420840
                                                         3.644287       0.742781
                                                         1.402225       2.786765
                                                         0.522057      -0.733751
                                                         0.168189       0.023040
                          1       6    5pz              10.257817       5.420840
                                                         3.644287       0.742781
                                                         1.402225       2.786765
                                                         0.522057      -0.733751
                                                         0.168189       0.023040

                          1       7    4dx2             10.257817      -1.249026
                                                         3.644287       1.475740
                                                         1.402225       0.993741
                                                         0.522057       0.395456
                                                         0.168189      -0.006736
                          1       7    4dxy             10.257817      -2.163376
                                                         3.644287       2.556057
                                                         1.402225       1.721210
                                                         0.522057       0.684950
                                                         0.168189      -0.011667
                          1       7    4dxz             10.257817      -2.163376
                                                         3.644287       2.556057
                                                         1.402225       1.721210
                                                         0.522057       0.684950
                                                         0.168189      -0.011667
                          1       7    4dy2             10.257817      -1.249026
                                                         3.644287       1.475740
                                                         1.402225       0.993741
                                                         0.522057       0.395456
                                                         0.168189      -0.006736
                          1       7    4dyz             10.257817      -2.163376
                                                         3.644287       2.556057
                                                         1.402225       1.721210
                                                         0.522057       0.684950
                                                         0.168189      -0.011667
                          1       7    4dz2             10.257817      -1.249026
                                                         3.644287       1.475740
                                                         1.402225       0.993741
                                                         0.522057       0.395456
                                                         0.168189      -0.006736

       Atomic covalent radius [Angstrom]:                                  0.730

       Atomic van der Waals radius [Angstrom]:                             1.520

     GTH Potential information for                                   GTH-MGGA-q6

       Description:                       Goedecker-Teter-Hutter pseudopotential
                                           Goedecker et al., PRB 54, 1703 (1996)
                                          Hartwigsen et al., PRB 58, 3641 (1998)
                                                      Krack, TCA 114, 145 (2005)

       Gaussian exponent of the core charge distribution:               8.656553
       Electronic configuration (s p d ...):                       2   4   0   0

       Parameters of the local part of the GTH pseudopotential:

                          rloc        C1          C2          C3          C4
                        0.240333  -16.794986    2.452457

       Parameters of the non-local part of the GTH pseudopotential:

                   l      r(l)      h(i,j,l)

                   0    0.221500   18.441562

  3. Atomic kind: C                                     Number of atoms:     108

     Orbital Basis Set                                   TZVP-MOLOPT-MGGA-GTH-q4

       Number of orbital shell sets:                                           1
       Number of orbital shells:                                               7
       Number of primitive Cartesian functions:                                5
       Number of Cartesian basis functions:                                   18
       Number of spherical basis functions:                                   17
       Norm type:                                                              2

       Normalised Cartesian orbitals:

                        Set   Shell   Orbital            Exponent    Coefficient

                          1       1    2s                5.623460      -0.349209
                                                         2.098559      -0.253875
                                                         0.820511       0.248209
                                                         0.317331       0.216287
                                                         0.111116       0.012850

                          1       2    3s                5.623460       0.160090
                                                         2.098559       0.144150
                                                         0.820511      -0.103023
                                                         0.317331       0.001075
                                                         0.111116       0.142208

                          1       3    4s                5.623460      -1.207693
                                                         2.098559      -1.266789
                                                         0.820511       0.734368
                                                         0.317331      -0.329587
                                                         0.111116       0.046451

                          1       4    3px               5.623460      -0.717953
                                                         2.098559      -0.559659
                                                         0.820511      -0.405261
                                                         0.317331      -0.145150
                                                         0.111116      -0.020126
                          1       4    3py               5.623460      -0.717953
                                                         2.098559      -0.559659
                                                         0.820511      -0.405261
                                                         0.317331      -0.145150
                                                         0.111116      -0.020126
                          1       4    3pz               5.623460      -0.717953
                                                         2.098559      -0.559659
                                                         0.820511      -0.405261
                                                         0.317331      -0.145150
                                                         0.111116      -0.020126

                          1       5    4px               5.623460       0.831730
                                                         2.098559       0.877901
                                                         0.820511       0.415963
                                                         0.317331       0.032156
                                                         0.111116      -0.090730
                          1       5    4py               5.623460       0.831730
                                                         2.098559       0.877901
                                                         0.820511       0.415963
                                                         0.317331       0.032156
                                                         0.111116      -0.090730
                          1       5    4pz               5.623460       0.831730
                                                         2.098559       0.877901
                                                         0.820511       0.415963
                                                         0.317331       0.032156
                                                         0.111116      -0.090730

                          1       6    5px               5.623460       1.619151
                                                         2.098559       2.412091
                                                         0.820511       0.659876
                                                         0.317331      -0.314050
                                                         0.111116       0.028213
                          1       6    5py               5.623460       1.619151
                                                         2.098559       2.412091
                                                         0.820511       0.659876
                                                         0.317331      -0.314050
                                                         0.111116       0.028213
                          1       6    5pz               5.623460       1.619151
                                                         2.098559       2.412091
                                                         0.820511       0.659876
                                                         0.317331      -0.314050
                                                         0.111116       0.028213

                          1       7    4dx2              5.623460      -2.005729
                                                         2.098559       1.064556
                                                         0.820511       0.464044
                                                         0.317331       0.120863
                                                         0.111116       0.003311
                          1       7    4dxy              5.623460      -3.474025
                                                         2.098559       1.843865
                                                         0.820511       0.803748
                                                         0.317331       0.209340
                                                         0.111116       0.005735
                          1       7    4dxz              5.623460      -3.474025
                                                         2.098559       1.843865
                                                         0.820511       0.803748
                                                         0.317331       0.209340
                                                         0.111116       0.005735
                          1       7    4dy2              5.623460      -2.005729
                                                         2.098559       1.064556
                                                         0.820511       0.464044
                                                         0.317331       0.120863
                                                         0.111116       0.003311
                          1       7    4dyz              5.623460      -3.474025
                                                         2.098559       1.843865
                                                         0.820511       0.803748
                                                         0.317331       0.209340
                                                         0.111116       0.005735
                          1       7    4dz2              5.623460      -2.005729
                                                         2.098559       1.064556
                                                         0.820511       0.464044
                                                         0.317331       0.120863
                                                         0.111116       0.003311

       Atomic covalent radius [Angstrom]:                                  0.770

       Atomic van der Waals radius [Angstrom]:                             1.700

     GTH Potential information for                                   GTH-MGGA-q4

       Description:                       Goedecker-Teter-Hutter pseudopotential
                                           Goedecker et al., PRB 54, 1703 (1996)
                                          Hartwigsen et al., PRB 58, 3641 (1998)
                                                      Krack, TCA 114, 145 (2005)

       Gaussian exponent of the core charge distribution:               4.454624
       Electronic configuration (s p d ...):                       2   2   0   0

       Parameters of the local part of the GTH pseudopotential:

                          rloc        C1          C2          C3          C4
                        0.335027   -8.822616    1.299117

       Parameters of the non-local part of the GTH pseudopotential:

                   l      r(l)      h(i,j,l)

                   0    0.303798    9.625763

  4. Atomic kind: H                                     Number of atoms:     516

     Orbital Basis Set                                   TZVP-MOLOPT-MGGA-GTH-q1

       Number of orbital shell sets:                                           1
       Number of orbital shells:                                               4
       Number of primitive Cartesian functions:                                5
       Number of Cartesian basis functions:                                    6
       Number of spherical basis functions:                                    6
       Norm type:                                                              2

       Normalised Cartesian orbitals:

                        Set   Shell   Orbital            Exponent    Coefficient

                          1       1    2s                9.168765       0.095357
                                                         2.161194       0.125778
                                                         0.619868       0.162183
                                                         0.161316       0.074849
                                                         0.412255       0.090962

                          1       2    3s                9.168765      -0.435739
                                                         2.161194      -0.868971
                                                         0.619868      -0.406683
                                                         0.161316      -0.142964
                                                         0.412255       0.978336

                          1       3    4s                9.168765       0.385896
                                                         2.161194       1.113624
                                                         0.619868       0.043366
                                                         0.161316      -0.067676
                                                         0.412255       0.053421

                          1       4    3px               9.168765      -1.788640
                                                         2.161194       0.906920
                                                         0.619868       0.273605
                                                         0.161316       0.091389
                                                         0.412255       0.008094
                          1       4    3py               9.168765      -1.788640
                                                         2.161194       0.906920
                                                         0.619868       0.273605
                                                         0.161316       0.091389
                                                         0.412255       0.008094
                          1       4    3pz               9.168765      -1.788640
                                                         2.161194       0.906920
                                                         0.619868       0.273605
                                                         0.161316       0.091389
                                                         0.412255       0.008094

       Atomic covalent radius [Angstrom]:                                  0.320

       Atomic van der Waals radius [Angstrom]:                             1.090

     GTH Potential information for                                   GTH-MGGA-q1

       Description:                       Goedecker-Teter-Hutter pseudopotential
                                           Goedecker et al., PRB 54, 1703 (1996)
                                          Hartwigsen et al., PRB 58, 3641 (1998)
                                                      Krack, TCA 114, 145 (2005)

       Gaussian exponent of the core charge distribution:              12.429142
       Electronic configuration (s p d ...):                       1   0   0   0

       Parameters of the local part of the GTH pseudopotential:

                          rloc        C1          C2          C3          C4
                        0.200569   -4.177243    0.723816


 MOLECULE KIND INFORMATION


 All atoms are their own molecule, skipping detailed information


 TOTAL NUMBERS AND MAXIMUM NUMBERS

  Total number of            - Atomic kinds:                                   4
                             - Atoms:                                        823
                             - Shell sets:                                   823
                             - Shells:                                      4213
                             - Primitive Cartesian functions:               4061
                             - Cartesian basis functions:                   8622
                             - Spherical basis functions:                   8315

  Maximum angular momentum of- Orbital basis functions:                        2
                             - Local part of the GTH pseudopotential:          2
                             - Non-local part of the GTH pseudopotential:      2


 MODULE QUICKSTEP: ATOMIC COORDINATES IN ANGSTROM

   Atom Kind Element         X             Y             Z       Z(eff)     Mass
      1    1 Si   14     18.534236      5.586723      6.128720   4.0000  28.0855
      2    2 O     8     18.849036      4.279283      7.202340   6.0000  15.9994
      3    3 C     6      2.641966      4.535193     22.910770   4.0000  12.0107
      4    4 H     1      2.906556      4.771633     21.857070   1.0000   1.0079
      5    4 H     1      3.607356      4.949023      5.173490   1.0000   1.0079
      6    4 H     1      1.883726      5.246633     23.082270   1.0000   1.0079
      7    3 C     6     19.305136      7.075753      6.079740   4.0000  12.0107
      8    4 H     1     18.764036      8.202603      5.597250   1.0000   1.0079
      9    4 H     1      0.734146     12.320273     19.858970   1.0000   1.0079
     10    4 H     1     20.004836      7.106333      6.985520   1.0000   1.0079
     11    1 Si   14     18.894336      3.370663      8.500520   4.0000  28.0855
     12    2 O     8     20.312036      2.579123      8.626520   6.0000  15.9994
     13    3 C     6     17.608136      4.883143     23.056470   4.0000  12.0107
     14    4 H     1     17.059736      3.950923     23.251770   1.0000   1.0079
     15    4 H     1     17.105836      5.768143     22.688070   1.0000   1.0079
     16    4 H     1     18.310836      4.795863     22.199570   1.0000   1.0079
     17    3 C     6     17.352236      3.398603      9.357950   4.0000  12.0107
     18    4 H     1     18.184636     17.109073      9.674750   1.0000   1.0079
     19    4 H     1      1.339826     10.392173      5.278450   1.0000   1.0079
     20    4 H     1     16.515836      3.230013      8.781120   1.0000   1.0079
     21    1 Si   14      1.492296      2.205023      7.806780   4.0000  28.0855
     22    2 O     8      1.234036      2.621123      6.280620   6.0000  15.9994
     23    3 C     6      1.691886     17.952073      8.159230   4.0000  12.0107
     24    4 H     1      1.782376     17.784773      9.262910   1.0000   1.0079
     25    4 H     1      0.931796     17.360773      7.927240   1.0000   1.0079
     26    4 H     1      2.564086     17.393273      7.711410   1.0000   1.0079
     27    3 C     6      2.796646      3.241133      8.530110   4.0000  12.0107
     28    4 H     1      2.673606      4.256033      8.173980   1.0000   1.0079
     29    4 H     1      2.938856      3.209883      9.694600   1.0000   1.0079
     30    4 H     1      3.762726      3.037013      8.126780   1.0000   1.0079
     31    1 Si   14      1.806316      2.868113     23.135770   4.0000  28.0855
     32    2 O     8      0.596519      2.641553     22.082470   6.0000  15.9994
     33    3 C     6     17.718536     14.707373     22.042170   4.0000  12.0107
     34    4 H     1     17.744636     15.973373     22.708170   1.0000   1.0079
     35    4 H     1     18.116436     13.652873     22.211170   1.0000   1.0079
     36    4 H     1     19.696736     17.316173     23.148570   1.0000   1.0079
     37    3 C     6      2.790906      1.168223     22.931970   4.0000  12.0107
     38    4 H     1      3.125676     17.945773     22.023570   1.0000   1.0079
     39    4 H     1      4.289576      0.831933     23.174270   1.0000   1.0079
     40    4 H     1      1.859526      0.571833      5.150820   1.0000   1.0079
     41    1 Si   14     20.175836      1.866293     20.831370   4.0000  28.0855
     42    2 O     8     20.414336     17.739273     21.199270   6.0000  15.9994
     43    3 C     6     18.437436      2.109123     20.535570   4.0000  12.0107
     44    4 H     1     17.804436      2.167833     21.432170   1.0000   1.0079
     45    4 H     1      6.324956     12.296873     20.458370   1.0000   1.0079
     46    4 H     1     18.055736      1.285843     19.925970   1.0000   1.0079
     47    3 C     6      0.971626      2.063233     19.354970   4.0000  12.0107
     48    4 H     1      1.096406      3.214823     18.995170   1.0000   1.0079
     49    4 H     1      2.044476      1.824653     19.592870   1.0000   1.0079
     50    4 H     1      0.699566      1.408713     18.541870   1.0000   1.0079
     51    1 Si   14     20.105936     16.641373     22.299070   4.0000  28.0855
     52    3 C     6     16.424436     14.729973     21.644770   4.0000  12.0107
     53    4 H     1     16.232336     12.683173      6.673750   1.0000   1.0079
     54    4 H     1     15.751136     13.943973     21.600970   1.0000   1.0079
     55    4 H     1     15.835136     15.634073     21.636070   1.0000   1.0079
     56    3 C     6      1.280046     15.307173     22.392970   4.0000  12.0107
     57    4 H     1      0.611496     14.372373     22.138370   1.0000   1.0079
     58    4 H     1      2.229166     15.261873     21.976070   1.0000   1.0079
     59    4 H     1      1.271706     15.119973      5.359650   1.0000   1.0079
     60    1 Si   14      8.038626     14.736373      8.927420   4.0000  28.0855
     61    2 O     8      7.840406     14.359373      7.325250   6.0000  15.9994
     62    3 C     6      7.640196     16.534773      9.092510   4.0000  12.0107
     63    4 H     1      8.239886     17.145373      8.412780   1.0000   1.0079
     64    4 H     1      6.597326     16.738673      8.851060   1.0000   1.0079
     65    4 H     1      7.826216     16.887373     10.110260   1.0000   1.0079
     66    3 C     6      6.866546     13.653573      9.900510   4.0000  12.0107
     67    4 H     1      7.173116     12.618673      9.710860   1.0000   1.0079
     68    4 H     1      6.930916     13.822373     10.980740   1.0000   1.0079
     69    4 H     1      5.818286     13.737373      9.607980   1.0000   1.0079
     70    1 Si   14      7.081246     13.552273      6.132370   4.0000  28.0855
     71    2 O     8      7.699696     12.012473      6.014830   6.0000  15.9994
     72    3 C     6      7.326486     14.435773     22.914270   4.0000  12.0107
     73    4 H     1      6.982336     15.474973     23.010470   1.0000   1.0079
     74    4 H     1      8.373896     14.463573     22.614270   1.0000   1.0079
     75    4 H     1      6.768916     13.975473     22.086670   1.0000   1.0079
     76    3 C     6      5.287876     13.384173      6.564810   4.0000  12.0107
     77    4 H     1      5.158476     12.828773      7.495950   1.0000   1.0079
     78    4 H     1      4.832726     14.368673      6.705210   1.0000   1.0079
     79    4 H     1      4.715616     12.848473      5.804550   1.0000   1.0079
     80    1 Si   14      7.817056     10.683273      5.060852   4.0000  28.0855
     81    2 O     8      8.683866      9.560423      5.899870   6.0000  15.9994
     82    3 C     6      8.739746     11.018173     21.861670   4.0000  12.0107
     83    4 H     1      8.495276     11.961173     21.366870   1.0000   1.0079
     84    4 H     1      9.805236     11.073473     22.116570   1.0000   1.0079
     85    4 H     1      8.630186     10.194973     21.148370   1.0000   1.0079
     86    3 C     6      6.153636     10.013973     23.025770   4.0000  12.0107
     87    4 H     1      5.653706      9.672233      5.554730   1.0000   1.0079
     88    4 H     1      5.466036     10.728473     22.568170   1.0000   1.0079
     89    4 H     1      6.204586      9.144123     22.348770   1.0000   1.0079
     90    1 Si   14      9.024586      8.853873      7.311300   4.0000  28.0855
     91    2 O     8      8.174936      7.390223      7.257970   6.0000  15.9994
     92    3 C     6      8.301076      9.816173      8.714700   4.0000  12.0107
     93    4 H     1      8.792196     10.785773      8.811170   1.0000   1.0079
     94    4 H     1      7.225786      9.971573      8.588960   1.0000   1.0079
     95    4 H     1      8.427606      9.256943      9.645760   1.0000   1.0079
     96    3 C     6     10.789236      8.398333      7.536320   4.0000  12.0107
     97    4 H     1     10.481636      7.852213      9.658910   1.0000   1.0079
     98    4 H     1     11.294236      9.348323      7.753050   1.0000   1.0079
     99    1 Si   14      7.135866      6.293643      7.629860   4.0000  28.0855
    100    2 O     8      7.181996      4.896293      6.917270   6.0000  15.9994
    101    3 C     6      5.900986      6.503263      8.976210   4.0000  12.0107
    102    4 H     1      6.425416      6.409033      9.930930   1.0000   1.0079
    103    4 H     1      5.505126      7.519553      8.941720   1.0000   1.0079
    104    4 H     1      5.124086      5.745213      8.915910   1.0000   1.0079
    105    3 C     6      8.944676      6.023143     11.189730   4.0000  12.0107
    106    4 H     1      9.544396      5.560383     10.404040   1.0000   1.0079
    107    4 H     1      8.543026      6.973143     10.823920   1.0000   1.0079
    108    4 H     1      8.083056      5.381313     11.398470   1.0000   1.0079
    109    1 Si   14      7.394676      4.415743      5.242770   4.0000  28.0855
    110    3 C     6      6.967286      5.965383     22.688970   4.0000  12.0107
    111    4 H     1      8.193776     14.264273     19.417370   1.0000   1.0079
    112    4 H     1      5.981496      6.270773     23.049970   1.0000   1.0079
    113    4 H     1      7.617056      6.811933     22.969570   1.0000   1.0079
    114    3 C     6      6.154926      3.104913     23.332470   4.0000  12.0107
    115    4 H     1      5.121566      3.335663      5.000000   1.0000   1.0079
    116    4 H     1      6.253226      2.509523     22.473270   1.0000   1.0079
    117    4 H     1      6.199046      2.343383      5.777300   1.0000   1.0079
    118    1 Si   14     13.244936     14.644973      7.726780   4.0000  28.0855
    119    2 O     8     13.226036     13.071073      8.367150   6.0000  15.9994
    120    3 C     6     14.886036     15.520473      7.985710   4.0000  12.0107
    121    4 H     1     15.701436     14.784973      7.926050   1.0000   1.0079
    122    4 H     1     15.049436     16.204973      7.134400   1.0000   1.0079
    123    4 H     1     15.010936     16.110873      8.894810   1.0000   1.0079
    124    3 C     6     12.880936     13.971573      6.064050   4.0000  12.0107
    125    4 H     1     16.806636     13.114673      6.432670   1.0000   1.0079
    126    4 H     1     12.647236     14.926473     21.804870   1.0000   1.0079
    127    4 H     1     12.863936      1.194233     16.083270   1.0000   1.0079
    128    1 Si   14     12.838736     12.375173      6.857860   4.0000  28.0855
    129    2 O     8     13.868836     11.101673      6.668710   6.0000  15.9994
    130    3 C     6     19.813036     12.808273      6.089260   4.0000  12.0107
    131    4 H     1     19.225436     12.601173      5.189780   1.0000   1.0079
    132    4 H     1     19.700236     11.990773      6.803880   1.0000   1.0079
    133    4 H     1      0.651786     12.801873      5.783320   1.0000   1.0079
    134    3 C     6     19.155536     10.082773     21.318170   4.0000  12.0107
    135    4 H     1     18.582936      9.195583     21.553970   1.0000   1.0079
    136    4 H     1     18.819836     10.909673     21.916370   1.0000   1.0079
    137    4 H     1     19.007936     10.341873     20.268570   1.0000   1.0079
    138    1 Si   14     14.219636      9.530023      6.351250   4.0000  28.0855
    139    2 O     8     12.902036      8.775193      5.654430   6.0000  15.9994
    140    3 C     6     14.600836      8.614683      7.987460   4.0000  12.0107
    141    4 H     1     15.498336      9.031223      8.448580   1.0000   1.0079
    142    4 H     1     13.759536      8.778843      8.671360   1.0000   1.0079
    143    4 H     1     14.651336      7.528373      7.870640   1.0000   1.0079
    144    3 C     6     15.652736      9.457453      5.193430   4.0000  12.0107
    145    4 H     1     15.334736      9.753273     22.692170   1.0000   1.0079
    146    4 H     1     16.458836     10.181673      5.401440   1.0000   1.0079
    147    4 H     1     16.160036      8.630353      5.629580   1.0000   1.0079
    148    1 Si   14     11.720836      7.713043      6.064020   4.0000  28.0855
    149    2 O     8     12.409936      6.256303      6.449420   6.0000  15.9994
    150    3 C     6     10.966536      7.477833      8.755840   4.0000  12.0107
    151    4 H     1     10.557936      6.482393      8.561720   1.0000   1.0079
    152    4 H     1     12.019636      7.320213      9.002440   1.0000   1.0079
    153    3 C     6     10.652536      7.382673     22.977770   4.0000  12.0107
    154    4 H     1     10.165636      8.299293     22.613270   1.0000   1.0079
    155    4 H     1     11.208836      6.951723     22.134870   1.0000   1.0079
    156    4 H     1      9.885936      6.663083     23.269070   1.0000   1.0079
    157    1 Si   14     12.206736      4.640693      6.319540   4.0000  28.0855
    158    2 O     8     10.690836      4.325963      5.778870   6.0000  15.9994
    159    3 C     6     12.435636      3.870023      8.027710   4.0000  12.0107
    160    4 H     1     12.270236      2.795313      8.054040   1.0000   1.0079
    161    4 H     1     13.433136      4.136973      8.398770   1.0000   1.0079
    162    4 H     1     11.706936      4.362703      8.673860   1.0000   1.0079
    163    3 C     6     13.394036      3.922653      5.078751   4.0000  12.0107
    164    4 H     1     13.286336      4.466953     22.555570   1.0000   1.0079
    165    4 H     1     14.425536      4.090393      5.458680   1.0000   1.0079
    166    4 H     1     13.152436      2.851753     23.267270   1.0000   1.0079
    167    1 Si   14      9.487626      3.363073      5.191550   4.0000  28.0855
    168    3 C     6      9.843536      2.821383     21.833770   4.0000  12.0107
    169    4 H     1      9.031116      2.243443     21.388570   1.0000   1.0079
    170    4 H     1      9.993536      3.677663     21.164870   1.0000   1.0079
    171    4 H     1     10.770836      2.238023     21.726070   1.0000   1.0079
    172    3 C     6      9.319436      1.868133      6.341210   4.0000  12.0107
    173    4 H     1      8.571066      1.144713      6.008820   1.0000   1.0079
    174    4 H     1     10.289136      1.364363      6.402180   1.0000   1.0079
    175    4 H     1      9.066636      2.155873      7.362960   1.0000   1.0079
    176    1 Si   14      7.142826     17.590973     16.171970   4.0000  28.0855
    177    2 O     8      6.629296     16.410973     15.179970   6.0000  15.9994
    178    3 C     6      6.596796     17.807273     17.750070   4.0000  12.0107
    179    4 H     1      6.978466      1.073543     18.236070   1.0000   1.0079
    180    4 H     1      5.918296     17.214473     18.311470   1.0000   1.0079
    181    4 H     1     15.214236     17.235073     19.961270   1.0000   1.0079
    182    3 C     6      8.386876      1.150343     15.389770   4.0000  12.0107
    183    4 H     1      9.356116      0.657160     15.292570   1.0000   1.0079
    184    4 H     1      8.084256      1.526233     14.425570   1.0000   1.0079
    185    4 H     1      8.547826      2.003393     16.055170   1.0000   1.0079
    186    1 Si   14      6.863926     15.787073     13.676710   4.0000  28.0855
    187    2 O     8      6.464266     14.203673     13.746860   6.0000  15.9994
    188    3 C     6      8.654506     16.002773     13.199470   4.0000  12.0107
    189    4 H     1      8.939346     15.333673     12.386420   1.0000   1.0079
    190    4 H     1      8.874996     17.023473     12.864720   1.0000   1.0079
    191    4 H     1      9.298106     15.782773     14.053870   1.0000   1.0079
    192    3 C     6      5.684306     16.602273     12.513680   4.0000  12.0107
    193    4 H     1      5.829276     17.686773     12.457460   1.0000   1.0079
    194    4 H     1      5.757806     16.214473     11.500900   1.0000   1.0079
    195    4 H     1      4.657996     16.441773     12.842540   1.0000   1.0079
    196    1 Si   14      7.089256     12.835273     14.439070   4.0000  28.0855
    197    2 O     8      6.180206     11.551173     13.964070   6.0000  15.9994
    198    3 C     6      6.865226     13.020473     16.270770   4.0000  12.0107
    199    4 H     1      7.140526     14.015273     16.623470   1.0000   1.0079
    200    4 H     1      5.804206     12.842573     16.476570   1.0000   1.0079
    201    4 H     1      7.428846     12.261773     16.816370   1.0000   1.0079
    202    3 C     6      8.824696     12.616573     13.836210   4.0000  12.0107
    203    4 H     1      9.232346     11.636473     14.097480   1.0000   1.0079
    204    4 H     1      8.838366     12.639873     12.741880   1.0000   1.0079
    205    4 H     1      9.499936     13.399273     14.188770   1.0000   1.0079
    206    1 Si   14      6.071486     10.211173     13.020710   4.0000  28.0855
    207    2 O     8      5.309876      9.075423     13.936240   6.0000  15.9994
    208    3 C     6      5.157696     10.568373     11.450620   4.0000  12.0107
    209    4 H     1      4.922456      9.648513     10.908070   1.0000   1.0079
    210    4 H     1      4.199356     11.047873     11.659370   1.0000   1.0079
    211    4 H     1      5.761516     11.222473     10.818520   1.0000   1.0079
    212    3 C     6      7.764016      9.608143     12.545630   4.0000  12.0107
    213    4 H     1      7.667556      8.696483     11.949640   1.0000   1.0079
    214    4 H     1      8.291896     10.333073     11.920120   1.0000   1.0079
    215    4 H     1      8.419476      9.383633     13.387700   1.0000   1.0079
    216    1 Si   14      4.782086      7.533103     14.097170   4.0000  28.0855
    217    2 O     8      5.636396      6.781473     15.267170   6.0000  15.9994
    218    3 C     6      2.989306      7.515873     14.659070   4.0000  12.0107
    219    4 H     1      2.651246      6.469093     14.733870   1.0000   1.0079
    220    4 H     1      2.849606      7.956703     15.649870   1.0000   1.0079
    221    4 H     1      2.300456      8.048513     13.994950   1.0000   1.0079
    222    3 C     6      4.989326      6.707143     12.460930   4.0000  12.0107
    223    4 H     1      4.335556      7.119093     11.682010   1.0000   1.0079
    224    4 H     1      6.061696      6.753503     12.220500   1.0000   1.0079
    225    4 H     1      4.797566      5.630063     12.529700   1.0000   1.0079
    226    1 Si   14      6.716306      5.628373     15.845770   4.0000  28.0855
    227    3 C     6      5.734176      4.094093     16.225370   4.0000  12.0107
    228    4 H     1      4.952126      4.290253     16.965070   1.0000   1.0079
    229    4 H     1      5.267996      3.705043     15.316070   1.0000   1.0079
    230    4 H     1      6.338256      3.283393     16.639570   1.0000   1.0079
    231    3 C     6      7.958336      5.298073     14.492270   4.0000  12.0107
    232    4 H     1      7.380846      4.983763     13.613240   1.0000   1.0079
    233    4 H     1      8.581796      4.444763     14.778770   1.0000   1.0079
    234    1 Si   14     11.041936     13.704273      5.667460   4.0000  28.0855
    235    2 O     8     12.052536     15.592873      8.330580   6.0000  15.9994
    236    3 C     6     14.954136     17.059973     18.903170   4.0000  12.0107
    237    4 H     1     15.843236     16.738673     18.359370   1.0000   1.0079
    238    4 H     1     18.365836     17.266273     10.407170   1.0000   1.0079
    239    4 H     1     14.691936      0.512598     18.496470   1.0000   1.0079
    240    3 C     6     11.062936     12.198073      6.567190   4.0000  12.0107
    241    4 H     1     10.627736     14.640973     17.550170   1.0000   1.0079
    242    4 H     1     10.220436     11.683373      7.034480   1.0000   1.0079
    243    4 H     1     20.217036      9.929473     21.500370   1.0000   1.0079
    244    1 Si   14     11.138336     15.587373      9.696310   4.0000  28.0855
    245    2 O     8     12.077536     15.063773     10.933010   6.0000  15.9994
    246    3 C     6     10.687336     17.323673     10.084880   4.0000  12.0107
    247    4 H     1     11.633136     17.846573     10.391260   1.0000   1.0079
    248    4 H     1     10.246536     17.827973      9.258630   1.0000   1.0079
    249    4 H     1      9.989236     17.356673     10.915710   1.0000   1.0079
    250    3 C     6      9.760136     14.343573      9.527150   4.0000  12.0107
    251    4 H     1     13.146736     14.332173     22.035970   1.0000   1.0079
    252    4 H     1     10.160236     13.581673      8.844550   1.0000   1.0079
    253    4 H     1      9.699636     13.852873     10.506480   1.0000   1.0079
    254    1 Si   14     12.993936     14.230173     11.987690   4.0000  28.0855
    255    2 O     8     12.440036     12.675873     12.209390   6.0000  15.9994
    256    3 C     6     12.863336     15.043073     13.636450   4.0000  12.0107
    257    4 H     1     13.433036     14.414773     14.365270   1.0000   1.0079
    258    4 H     1     13.385536     15.998373     13.646710   1.0000   1.0079
    259    4 H     1     11.868636     15.203373     14.023140   1.0000   1.0079
    260    3 C     6     14.751136     14.261573     11.403520   4.0000  12.0107
    261    4 H     1     14.839836     13.902673     10.384410   1.0000   1.0079
    262    4 H     1     15.056036     15.325973     11.410370   1.0000   1.0079
    263    4 H     1     15.458536     13.727373     12.036640   1.0000   1.0079
    264    1 Si   14     12.499536     11.179073     11.560950   4.0000  28.0855
    265    2 O     8     12.128136     10.098373     12.751630   6.0000  15.9994
    266    3 C     6     14.249036     10.831873     11.004150   4.0000  12.0107
    267    4 H     1     14.455836     11.444373     10.116800   1.0000   1.0079
    268    4 H     1     14.938436     11.124273     11.800770   1.0000   1.0079
    269    4 H     1     14.419336      9.790373     10.732850   1.0000   1.0079
    270    3 C     6     11.201836     10.933073     10.259030   4.0000  12.0107
    271    4 H     1     11.009636      9.871573     10.096760   1.0000   1.0079
    272    4 H     1     10.286536     11.379373     10.662110   1.0000   1.0079
    273    4 H     1     11.440036     11.405473      9.304050   1.0000   1.0079
    274    1 Si   14     12.083436      8.500043     13.084110   4.0000  28.0855
    275    2 O     8     10.762036      7.756943     12.402760   6.0000  15.9994
    276    3 C     6     11.921036      8.313313     14.921870   4.0000  12.0107
    277    4 H     1     11.787736      7.262663     15.191470   1.0000   1.0079
    278    4 H     1     12.817336      8.662373     15.434970   1.0000   1.0079
    279    4 H     1     11.066236      8.858963     15.330570   1.0000   1.0079
    280    3 C     6     13.638636      7.682403     12.411050   4.0000  12.0107
    281    4 H     1     13.570136      7.567873     11.325630   1.0000   1.0079
    282    4 H     1     14.505236      8.305733     12.637410   1.0000   1.0079
    283    4 H     1     13.815436      6.713753     12.880950   1.0000   1.0079
    284    1 Si   14      9.957536      6.339393     12.732540   4.0000  28.0855
    285    3 C     6      8.811356      6.537363     14.187670   4.0000  12.0107
    286    4 H     1      8.170356      7.402403     13.999630   1.0000   1.0079
    287    4 H     1      9.427116      6.748453     15.068970   1.0000   1.0079
    288    3 C     6     11.146636      4.916743     13.003970   4.0000  12.0107
    289    4 H     1     11.731136      5.019853     13.920380   1.0000   1.0079
    290    4 H     1     10.613036      3.964553     13.075000   1.0000   1.0079
    291    4 H     1     11.847836      4.847453     12.167300   1.0000   1.0079
    292    1 Si   14      1.758936     12.586273     13.545900   4.0000  28.0855
    293    2 O     8      0.512464     12.852273     12.559220   6.0000  15.9994
    294    3 C     6      2.016196     10.758673     13.610950   4.0000  12.0107
    295    4 H     1      2.887706     10.447173     14.186770   1.0000   1.0079
    296    4 H     1      1.130506     10.261873     14.015970   1.0000   1.0079
    297    4 H     1      2.088996     10.342773     12.599080   1.0000   1.0079
    298    3 C     6      3.170906     13.631273     13.083480   4.0000  12.0107
    299    4 H     1      3.572146     13.313373     12.119310   1.0000   1.0079
    300    4 H     1      2.979536     14.696773     13.036940   1.0000   1.0079
    301    4 H     1      3.993226     13.458573     13.781950   1.0000   1.0079
    302    1 Si   14     20.045936     12.303673     11.150660   4.0000  28.0855
    303    2 O     8     19.863436     10.744173     11.166330   6.0000  15.9994
    304    3 C     6     18.368236     12.995773     10.801460   4.0000  12.0107
    305    4 H     1      1.850306      9.956273     23.256870   1.0000   1.0079
    306    4 H     1     17.449836     12.420673     10.888070   1.0000   1.0079
    307    4 H     1     18.226936     14.082073     10.857570   1.0000   1.0079
    308    3 C     6      1.072096     12.817573      9.911690   4.0000  12.0107
    309    4 H     1      1.226546     13.868973      9.655080   1.0000   1.0079
    310    4 H     1      2.007316     12.368773     10.281910   1.0000   1.0079
    311    4 H     1      0.850056     12.284773      8.978730   1.0000   1.0079
    312    1 Si   14     19.817536      9.319453     10.385950   4.0000  28.0855
    313    2 O     8     19.704336      8.034213     11.512710   6.0000  15.9994
    314    3 C     6     18.257936      9.370613      9.446640   4.0000  12.0107
    315    4 H     1     17.443936      8.947023     10.040730   1.0000   1.0079
    316    4 H     1     18.020236     10.388373      9.074630   1.0000   1.0079
    317    4 H     1     18.349336      8.635983      8.620500   1.0000   1.0079
    318    3 C     6      1.096046      9.200523      9.384150   4.0000  12.0107
    319    4 H     1      1.959536      9.158913     10.066230   1.0000   1.0079
    320    4 H     1      1.128916      8.477993      8.585150   1.0000   1.0079
    321    4 H     1      1.173406     10.068073      8.712380   1.0000   1.0079
    322    1 Si   14     19.848936      6.424083     11.743770   4.0000  28.0855
    323    2 O     8     18.869336      5.528343     10.631710   6.0000  15.9994
    324    3 C     6      1.324866      5.863013     11.427180   4.0000  12.0107
    325    4 H     1      1.999516      6.050713     12.343450   1.0000   1.0079
    326    4 H     1      1.656616      6.315363     10.334500   1.0000   1.0079
    327    4 H     1     17.344636      2.505963      9.993120   1.0000   1.0079
    328    3 C     6     19.231436      6.119313     13.458900   4.0000  12.0107
    329    4 H     1     19.259836      5.094463     13.820090   1.0000   1.0079
    330    4 H     1     19.875036      6.599153     14.192670   1.0000   1.0079
    331    4 H     1     18.224836      6.528153     13.611160   1.0000   1.0079
    332    1 Si   14     17.352036      4.940003     10.465160   4.0000  28.0855
    333    2 O     8     16.941736      4.462473     11.971000   6.0000  15.9994
    334    3 C     6     17.548736      2.246423     13.653560   4.0000  12.0107
    335    4 H     1     18.396936      2.818573     14.017260   1.0000   1.0079
    336    4 H     1     17.217636      1.611083     14.474470   1.0000   1.0079
    337    4 H     1     17.973636      1.544673     12.924390   1.0000   1.0079
    338    3 C     6     16.280036      6.163383      9.684630   4.0000  12.0107
    339    4 H     1     16.257636      7.248043      9.848630   1.0000   1.0079
    340    4 H     1     16.458736      6.024513      8.604650   1.0000   1.0079
    341    4 H     1     15.198336      5.901353      9.781920   1.0000   1.0079
    342    1 Si   14     16.196036      3.353553     12.945520   4.0000  28.0855
    343    3 C     6     15.314036      4.119213     14.378470   4.0000  12.0107
    344    4 H     1     14.231536      4.201123     14.280470   1.0000   1.0079
    345    4 H     1     15.414836      3.401863     15.217570   1.0000   1.0079
    346    4 H     1     15.642036      5.116053     14.654670   1.0000   1.0079
    347    3 C     6     15.075136      2.197623     12.009810   4.0000  12.0107
    348    4 H     1     12.289436     16.966173     20.369870   1.0000   1.0079
    349    4 H     1      1.314946      4.716773     11.381980   1.0000   1.0079
    350    4 H     1     13.858236      1.345533     13.847410   1.0000   1.0079
    351    1 Si   14      0.750366     16.572673     15.145170   4.0000  28.0855
    352    2 O     8      1.411856     15.089073     15.929470   6.0000  15.9994
    353    3 C     6      2.278936     17.613173     15.043770   4.0000  12.0107
    354    4 H     1      2.581886     17.802773     16.057670   1.0000   1.0079
    355    4 H     1      3.138846     17.192073     14.480870   1.0000   1.0079
    356    4 H     1      1.953196      0.984453     14.462570   1.0000   1.0079
    357    3 C     6     19.798436     17.263473     16.357970   4.0000  12.0107
    358    4 H     1     19.035136     16.540173     16.680170   1.0000   1.0079
    359    4 H     1     20.264736     17.645973     17.256970   1.0000   1.0079
    360    4 H     1     19.264336      0.586737     15.914870   1.0000   1.0079
    361    1 Si   14      2.428256     14.788673     17.308870   4.0000  28.0855
    362    2 O     8      1.958246     13.122273     17.099170   6.0000  15.9994
    363    3 C     6      1.660246     15.464573     18.788270   4.0000  12.0107
    364    4 H     1      0.758876     14.943573     19.088170   1.0000   1.0079
    365    4 H     1      2.362276     15.419473     19.615170   1.0000   1.0079
    366    4 H     1      1.454416     16.520573     18.648070   1.0000   1.0079
    367    3 C     6      4.186116     15.097073     16.973370   4.0000  12.0107
    368    4 H     1      4.524106     14.703273     16.014970   1.0000   1.0079
    369    4 H     1      4.286136     16.185173     16.949870   1.0000   1.0079
    370    4 H     1      4.860026     14.739473     17.760970   1.0000   1.0079
    371    1 Si   14      2.127686     11.664473     18.017670   4.0000  28.0855
    372    2 O     8      3.688626     11.241873     17.791270   6.0000  15.9994
    373    3 C     6      0.960746     10.440673     17.277370   4.0000  12.0107
    374    4 H     1      0.943656      9.528973     17.912970   1.0000   1.0079
    375    4 H     1     20.153736     10.874873     17.374870   1.0000   1.0079
    376    4 H     1      1.124866     10.142173     16.249670   1.0000   1.0079
    377    3 C     6      1.796826     12.095273     19.763570   4.0000  12.0107
    378    4 H     1      1.997516     11.234473     20.379370   1.0000   1.0079
    379    4 H     1     19.553636     13.791573      6.494430   1.0000   1.0079
    380    4 H     1      2.388106     12.958873     20.123670   1.0000   1.0079
    381    1 Si   14      4.876346     10.294973     18.367770   4.0000  28.0855
    382    2 O     8      4.291876      9.252063     19.442670   6.0000  15.9994
    383    3 C     6      5.811366     11.661073     19.725570   4.0000  12.0107
    384    4 H     1      6.078306     12.193573     18.806870   1.0000   1.0079
    385    4 H     1      4.766546     11.737273     20.071970   1.0000   1.0079
    386    4 H     1      6.335306     10.720773     19.950070   1.0000   1.0079
    387    3 C     6      6.099216      9.753073     17.109670   4.0000  12.0107
    388    4 H     1      7.133096      9.907673     17.437770   1.0000   1.0079
    389    4 H     1      5.978806      8.688713     16.889470   1.0000   1.0079
    390    4 H     1      5.952206     10.318573     16.185670   1.0000   1.0079
    391    1 Si   14      4.266046      7.688363     20.132570   4.0000  28.0855
    392    2 O     8      5.809446      7.244573     20.381870   6.0000  15.9994
    393    3 C     6      3.444046      7.870493     21.753070   4.0000  12.0107
    394    4 H     1      2.389316      8.177593     21.647170   1.0000   1.0079
    395    4 H     1      3.511026      6.974053     22.358670   1.0000   1.0079
    396    4 H     1      3.989756      8.666643     22.288970   1.0000   1.0079
    397    3 C     6      3.442946      6.557363     18.859370   4.0000  12.0107
    398    4 H     1      3.173966      5.595603     19.297370   1.0000   1.0079
    399    4 H     1      2.551386      7.026583     18.404770   1.0000   1.0079
    400    4 H     1      4.228676      6.425193     18.104270   1.0000   1.0079
    401    1 Si   14      6.843186      5.996443     20.832770   4.0000  28.0855
    402    3 C     6      6.042886      4.444283     20.165870   4.0000  12.0107
    403    4 H     1      5.093096      4.208543     20.670170   1.0000   1.0079
    404    4 H     1      5.851856      4.477443     19.089270   1.0000   1.0079
    405    4 H     1      6.690656      3.586783     20.364170   1.0000   1.0079
    406    3 C     6      8.549196      6.335813     20.109070   4.0000  12.0107
    407    4 H     1      9.296066      5.947603     20.812070   1.0000   1.0079
    408    4 H     1      8.683686      7.425803     20.102570   1.0000   1.0079
    409    1 Si   14     13.544336     15.923473     18.660270   4.0000  28.0855
    410    2 O     8     13.855336     14.559973     19.586570   6.0000  15.9994
    411    3 C     6     13.531536     15.524473     16.911970   4.0000  12.0107
    412    4 H     1     14.228036     16.154173     16.201870   1.0000   1.0079
    413    4 H     1     15.127336      2.639553     19.687270   1.0000   1.0079
    414    4 H     1     13.055036     14.843873     16.485970   1.0000   1.0079
    415    3 C     6     11.928236     16.658773     19.410270   4.0000  12.0107
    416    4 H     1     11.074936     16.054573     19.536870   1.0000   1.0079
    417    4 H     1     14.156736      2.730033     11.716940   1.0000   1.0079
    418    4 H     1     11.642936     17.555273     18.807670   1.0000   1.0079
    419    1 Si   14     13.596336     13.025573     19.536570   4.0000  28.0855
    420    2 O     8     12.254536     12.656873     18.672670   6.0000  15.9994
    421    3 C     6     13.767236     12.076073     21.128370   4.0000  12.0107
    422    4 H     1     13.249236     11.124673     21.059470   1.0000   1.0079
    423    4 H     1     14.814536     11.877173     21.391770   1.0000   1.0079
    424    4 H     1     13.296736     12.506173     22.032870   1.0000   1.0079
    425    3 C     6      9.997436     15.145973     16.825770   4.0000  12.0107
    426    4 H     1      9.099936     15.500573     17.306870   1.0000   1.0079
    427    4 H     1     10.553736     15.979773     16.382970   1.0000   1.0079
    428    4 H     1      9.685236     14.436073     16.065470   1.0000   1.0079
    429    1 Si   14     11.841436     11.486173     17.567970   4.0000  28.0855
    430    2 O     8     12.704136     10.124373     17.920470   6.0000  15.9994
    431    3 C     6     10.005436     11.179473     17.760170   4.0000  12.0107
    432    4 H     1      9.715236     10.995073     18.795870   1.0000   1.0079
    433    4 H     1      9.461206     12.070273     17.441370   1.0000   1.0079
    434    4 H     1      9.681836     10.317673     17.168170   1.0000   1.0079
    435    3 C     6     12.345036     12.066073     15.898570   4.0000  12.0107
    436    4 H     1     11.898036     13.033573     15.696170   1.0000   1.0079
    437    4 H     1     13.432436     12.180173     15.831870   1.0000   1.0079
    438    4 H     1     12.042236     11.405473     15.085070   1.0000   1.0079
    439    1 Si   14     12.668936      8.826513     18.954570   4.0000  28.0855
    440    2 O     8     12.700336      7.466693     18.066670   6.0000  15.9994
    441    3 C     6     11.025036      8.869433     19.851970   4.0000  12.0107
    442    4 H     1     10.872536      9.770773     20.452170   1.0000   1.0079
    443    4 H     1     10.256236      8.876283     19.075170   1.0000   1.0079
    444    4 H     1     10.850036      7.994893     20.470270   1.0000   1.0079
    445    3 C     6     14.159536      8.883433     20.104370   4.0000  12.0107
    446    4 H     1     14.650636      9.850873     20.082970   1.0000   1.0079
    447    4 H     1     13.750636      8.805443     21.122970   1.0000   1.0079
    448    1 Si   14     11.916936      5.998853     18.128670   4.0000  28.0855
    449    2 O     8     10.328836      6.277413     17.850070   6.0000  15.9994
    450    3 C     6     12.118336      5.227553     19.822170   4.0000  12.0107
    451    4 H     1     11.485336      5.699913     20.581070   1.0000   1.0079
    452    4 H     1     11.811736      4.179313     19.751770   1.0000   1.0079
    453    4 H     1     13.154036      5.263743     20.153470   1.0000   1.0079
    454    3 C     6     12.654736      4.922503     16.833770   4.0000  12.0107
    455    4 H     1     12.676236      5.382713     15.845870   1.0000   1.0079
    456    4 H     1     13.684636      4.676973     17.097970   1.0000   1.0079
    457    4 H     1     12.071336      4.004403     16.721170   1.0000   1.0079
    458    1 Si   14      8.871056      5.606913     18.362270   4.0000  28.0855
    459    3 C     6      7.480836      6.401043     17.347570   4.0000  12.0107
    460    4 H     1      6.684076      6.642953     18.063670   1.0000   1.0079
    461    4 H     1      7.876486      7.375323     17.025970   1.0000   1.0079
    462    3 C     6      9.063976      3.837293     18.322770   4.0000  12.0107
    463    4 H     1     13.001636     18.020273     16.299570   1.0000   1.0079
    464    4 H     1      8.268096      3.169183     18.632770   1.0000   1.0079
    465    4 H     1     10.026536      3.393413     18.106470   1.0000   1.0079
    466    1 Si   14      0.879826     13.402873     15.654570   4.0000  28.0855
    467    2 O     8     19.551136     13.400073     15.986870   6.0000  15.9994
    468    3 C     6     20.201336     16.062973     13.602610   4.0000  12.0107
    469    4 H     1     19.326936     15.407973     13.805410   1.0000   1.0079
    470    4 H     1      0.674786     15.538373     12.934590   1.0000   1.0079
    471    4 H     1     19.808136     16.925473     13.030830   1.0000   1.0079
    472    3 C     6     14.544036      1.089413     12.920090   4.0000  12.0107
    473    4 H     1     13.875536      0.501618     12.550130   1.0000   1.0079
    474    4 H     1     15.236336      0.539233     13.512080   1.0000   1.0079
    475    4 H     1     15.635836      1.862563     11.177540   1.0000   1.0079
    476    1 Si   14     17.940736     13.024873     15.793070   4.0000  28.0855
    477    2 O     8     17.596236     11.890973     16.940870   6.0000  15.9994
    478    3 C     6     17.028836     14.600073     16.195070   4.0000  12.0107
    479    4 H     1     17.210536     14.862673     17.245470   1.0000   1.0079
    480    4 H     1     17.326336     15.415673     15.536470   1.0000   1.0079
    481    4 H     1     15.950736     14.454773     16.064370   1.0000   1.0079
    482    3 C     6     17.621936     12.438773     14.059520   4.0000  12.0107
    483    4 H     1     17.802436     13.277673     13.375620   1.0000   1.0079
    484    4 H     1     18.258836     11.611973     13.736060   1.0000   1.0079
    485    4 H     1     16.580236     12.145273     13.908400   1.0000   1.0079
    486    1 Si   14     16.292836     10.952773     17.314370   4.0000  28.0855
    487    2 O     8     16.637136      9.703453     18.300770   6.0000  15.9994
    488    3 C     6     15.152736     12.147173     18.339470   4.0000  12.0107
    489    4 H     1     14.481236     11.346273     18.686670   1.0000   1.0079
    490    4 H     1     15.864036     12.541873     19.072170   1.0000   1.0079
    491    4 H     1     14.802336     12.873873     17.591970   1.0000   1.0079
    492    3 C     6     15.347736     10.284273     15.848470   4.0000  12.0107
    493    4 H     1     14.970236     11.070073     15.195970   1.0000   1.0079
    494    4 H     1     15.961636      9.577993     15.282770   1.0000   1.0079
    495    4 H     1     14.487536      9.734573     16.245170   1.0000   1.0079
    496    1 Si   14     16.568836      8.080983     18.665170   4.0000  28.0855
    497    2 O     8     18.032136      7.544873     19.116870   6.0000  15.9994
    498    3 C     6     15.296036      7.824953     19.965770   4.0000  12.0107
    499    4 H     1     14.933236      6.826113     19.820470   1.0000   1.0079
    500    4 H     1     15.791236      7.838133     20.955570   1.0000   1.0079
    501    3 C     6     15.965336      7.224333     17.102870   4.0000  12.0107
    502    4 H     1     16.641236      7.477663     16.284170   1.0000   1.0079
    503    4 H     1     16.034636      6.139973     17.197270   1.0000   1.0079
    504    4 H     1     14.957236      7.517043     16.827970   1.0000   1.0079
    505    1 Si   14     19.034236      6.285583     19.218270   4.0000  28.0855
    506    2 O     8     18.181636      4.926593     19.652270   6.0000  15.9994
    507    3 C     6     19.902536      6.192713     17.591870   4.0000  12.0107
    508    4 H     1      0.529123      5.413463     17.683470   1.0000   1.0079
    509    4 H     1     19.209236      5.815773     16.873170   1.0000   1.0079
    510    4 H     1     20.261036      7.144213     17.201270   1.0000   1.0079
    511    3 C     6     20.251736      6.704233     20.595570   4.0000  12.0107
    512    4 H     1      0.822986      7.510933     20.289270   1.0000   1.0079
    513    4 H     1     19.662136      6.918963     21.366270   1.0000   1.0079
    514    4 H     1     20.692136      5.754303     20.981670   1.0000   1.0079
    515    1 Si   14     17.637436      3.323713     19.515870   4.0000  28.0855
    516    3 C     6     17.757836      2.749243     17.797370   4.0000  12.0107
    517    4 H     1     18.818636      2.762023     17.596670   1.0000   1.0079
    518    4 H     1     17.497336      1.676673     17.709270   1.0000   1.0079
    519    4 H     1     17.328136      3.189083     16.904170   1.0000   1.0079
    520    3 C     6     15.775536      3.469583     20.056470   4.0000  12.0107
    521    4 H     1      8.634666     13.671773     19.409470   1.0000   1.0079
    522    4 H     1     15.676136      3.844143     21.080670   1.0000   1.0079
    523    4 H     1     15.511336      4.444733     19.471270   1.0000   1.0079
    524    2 O     8     10.831436      2.772253     25.390373   6.0000  15.9994
    525    4 H     1     11.160036      2.748293     26.325125   1.0000   1.0079
    526    4 H     1     10.301836      3.556053     25.332470   1.0000   1.0079
    527    2 O     8     19.927836     16.962973     27.691883   6.0000  15.9994
    528    4 H     1     19.911936     16.077773     28.023823   1.0000   1.0079
    529    4 H     1     20.434036     16.949673     26.824383   1.0000   1.0079
    530    2 O     8      0.686696      4.253213     29.916873   6.0000  15.9994
    531    4 H     1      1.622786      4.088943     30.228423   1.0000   1.0079
    532    4 H     1     20.560536      3.356553     30.009393   1.0000   1.0079
    533    2 O     8     12.683236     14.476373     31.452573   6.0000  15.9994
    534    4 H     1     12.912036     13.631073     31.741523   1.0000   1.0079
    535    4 H     1     12.260436     14.265473     30.573343   1.0000   1.0079
    536    2 O     8     15.703436     16.010073     26.216790   6.0000  15.9994
    537    4 H     1     14.806036     16.328873     26.042775   1.0000   1.0079
    538    4 H     1     16.186336     16.786973     26.512083   1.0000   1.0079
    539    2 O     8      2.875036     11.123773     33.301013   6.0000  15.9994
    540    4 H     1      2.276476     11.896173     33.421713   1.0000   1.0079
    541    4 H     1      2.358886     10.309473     33.283653   1.0000   1.0079
    542    2 O     8     12.412236      7.917643     28.775303   6.0000  15.9994
    543    4 H     1     11.557636      7.838123     29.186833   1.0000   1.0079
    544    4 H     1     12.303736      8.610813     28.093943   1.0000   1.0079
    545    2 O     8      9.291956     12.523973     30.160203   6.0000  15.9994
    546    4 H     1      8.552146     13.126273     29.916453   1.0000   1.0079
    547    4 H     1      9.493806     12.662373     31.140783   1.0000   1.0079
    548    2 O     8      8.014546     17.922673     26.196348   6.0000  15.9994
    549    4 H     1      7.169686     17.654373     26.615293   1.0000   1.0079
    550    4 H     1      7.807326      1.048563     25.522025   1.0000   1.0079
    551    2 O     8      4.383076      6.974273     32.306383   6.0000  15.9994
    552    4 H     1      5.028176      7.308353     31.685233   1.0000   1.0079
    553    4 H     1      3.634796      7.543143     32.368413   1.0000   1.0079
    554    2 O     8     19.700136     11.317373     31.471293   6.0000  15.9994
    555    4 H     1     18.956936     10.948573     31.000763   1.0000   1.0079
    556    4 H     1     19.474236     11.193173     32.405193   1.0000   1.0079
    557    2 O     8     17.655136      4.354893     32.521263   6.0000  15.9994
    558    4 H     1     18.177936      4.947133     31.925103   1.0000   1.0079
    559    4 H     1     17.887836      3.470963     32.476863   1.0000   1.0079
    560    2 O     8      7.091466     12.430273     27.906383   6.0000  15.9994
    561    4 H     1      7.929416     12.888373     27.884823   1.0000   1.0079
    562    4 H     1      7.062536     11.833473     28.724723   1.0000   1.0079
    563    2 O     8      3.824086     12.828773     31.024933   6.0000  15.9994
    564    4 H     1      4.622896     12.277473     30.780583   1.0000   1.0079
    565    4 H     1      3.293426     12.234873     31.615953   1.0000   1.0079
    566    2 O     8     16.528836      8.742833     28.794673   6.0000  15.9994
    567    4 H     1     17.511436      8.378283     28.785103   1.0000   1.0079
    568    4 H     1     15.988536      8.313373     29.511433   1.0000   1.0079
    569    2 O     8     13.679036     11.618473     28.672013   6.0000  15.9994
    570    4 H     1     13.995936     11.195073     29.462263   1.0000   1.0079
    571    4 H     1     14.395736     11.991273     28.130073   1.0000   1.0079
    572    2 O     8     13.842236      7.507183     33.656803   6.0000  15.9994
    573    4 H     1     12.983836      7.924253     33.700643   1.0000   1.0079
    574    4 H     1     13.951636      7.183073     32.703393   1.0000   1.0079
    575    2 O     8     16.014436      8.397133     26.269808   6.0000  15.9994
    576    4 H     1     15.170336      8.047113     25.926350   1.0000   1.0079
    577    4 H     1     16.082736      8.421663     27.243523   1.0000   1.0079
    578    2 O     8     17.134736      2.469803     29.129403   6.0000  15.9994
    579    4 H     1     16.886336      3.411813     28.937933   1.0000   1.0079
    580    4 H     1     16.388636      1.897473     29.595103   1.0000   1.0079
    581    2 O     8      6.283776     16.531473     30.893883   6.0000  15.9994
    582    4 H     1      5.492266     16.655273     31.456993   1.0000   1.0079
    583    4 H     1      6.968266     17.143373     31.114703   1.0000   1.0079
    584    2 O     8     13.460436     10.077773     31.265403   6.0000  15.9994
    585    4 H     1     13.736936      9.217173     30.934373   1.0000   1.0079
    586    4 H     1     14.095736     10.334673     31.964713   1.0000   1.0079
    587    2 O     8     14.621336      7.408003     30.396943   6.0000  15.9994
    588    4 H     1     14.742736      6.472853     30.806533   1.0000   1.0079
    589    4 H     1     13.859436      7.295273     29.688543   1.0000   1.0079
    590    2 O     8      9.609636      0.965943     28.453653   6.0000  15.9994
    591    4 H     1      9.310046      0.500000     27.677023   1.0000   1.0079
    592    4 H     1      9.592616      1.912683     28.101923   1.0000   1.0079
    593    2 O     8     10.137436     10.056173     29.239423   6.0000  15.9994
    594    4 H     1     10.723836     10.186773     28.449873   1.0000   1.0079
    595    4 H     1      9.843536     10.911273     29.567113   1.0000   1.0079
    596    2 O     8     13.013136     17.049773     26.212518   6.0000  15.9994
    597    4 H     1     12.770236     16.138473     26.478203   1.0000   1.0079
    598    4 H     1     12.614236     17.003673     33.727083   1.0000   1.0079
    599    2 O     8     18.860136      7.613253     28.744613   6.0000  15.9994
    600    4 H     1     19.041736      7.002143     29.475133   1.0000   1.0079
    601    4 H     1     19.568236      8.227863     28.734923   1.0000   1.0079
    602    2 O     8     13.751536      5.719363     27.376913   6.0000  15.9994
    603    4 H     1     13.910236      6.279873     26.584333   1.0000   1.0079
    604    4 H     1     13.003136      6.165073     27.768553   1.0000   1.0079
    605    2 O     8      0.957466      3.703083     33.476883   6.0000  15.9994
    606    4 H     1     20.398036      3.120393     33.586063   1.0000   1.0079
    607    4 H     1      0.881726      4.492783     25.533756   1.0000   1.0079
    608    2 O     8      3.300726      4.079553     30.901493   6.0000  15.9994
    609    4 H     1      3.161966      3.465293     31.633473   1.0000   1.0079
    610    4 H     1      3.350786      5.002153     31.326213   1.0000   1.0079
    611    2 O     8      7.707536      6.308233     26.545333   6.0000  15.9994
    612    4 H     1      6.783706      6.398603     26.383703   1.0000   1.0079
    613    4 H     1      7.804386      5.849643     27.464503   1.0000   1.0079
    614    2 O     8     15.133936     15.189273     30.361233   6.0000  15.9994
    615    4 H     1     15.938036     15.014673     30.933643   1.0000   1.0079
    616    4 H     1     14.340136     14.878673     30.876533   1.0000   1.0079
    617    2 O     8      4.221196      1.931653     28.683473   6.0000  15.9994
    618    4 H     1      3.460166      1.353463     28.731243   1.0000   1.0079
    619    4 H     1      4.234936      2.730143     28.131633   1.0000   1.0079
    620    2 O     8     19.954336      7.856353     33.575253   6.0000  15.9994
    621    4 H     1     19.543736      8.711263     33.442993   1.0000   1.0079
    622    4 H     1     19.190436      7.382653     25.547883   1.0000   1.0079
    623    2 O     8      8.163256      1.239233     30.788013   6.0000  15.9994
    624    4 H     1      8.564286      0.837933     29.962933   1.0000   1.0079
    625    4 H     1      8.908656      1.572463     31.240443   1.0000   1.0079
    626    2 O     8      9.426386     15.931873     33.721923   6.0000  15.9994
    627    4 H     1      8.752106     15.473173     33.214053   1.0000   1.0079
    628    4 H     1      8.920756     16.699473     25.703115   1.0000   1.0079
    629    2 O     8     18.345336     13.240773     29.006843   6.0000  15.9994
    630    4 H     1     17.533536     13.660673     28.670733   1.0000   1.0079
    631    4 H     1     18.983036     13.800973     29.484373   1.0000   1.0079
    632    2 O     8      7.211086     14.181173     32.184413   6.0000  15.9994
    633    4 H     1      6.717776     14.660273     31.523653   1.0000   1.0079
    634    4 H     1      6.545196     13.747673     32.787233   1.0000   1.0079
    635    2 O     8      2.039396      8.552763     32.131583   6.0000  15.9994
    636    4 H     1      1.630516      8.641903     31.270453   1.0000   1.0079
    637    4 H     1      1.294876      7.998993     32.526663   1.0000   1.0079
    638    2 O     8      5.605826     17.555973     27.103073   6.0000  15.9994
    639    4 H     1      5.397496     16.735273     27.572173   1.0000   1.0079
    640    4 H     1      5.226366      0.796043     27.548353   1.0000   1.0079
    641    2 O     8     11.307936      6.065103     32.196383   6.0000  15.9994
    642    4 H     1     10.471336      5.801423     32.688393   1.0000   1.0079
    643    4 H     1     11.720636      5.278403     31.813823   1.0000   1.0079
    644    2 O     8      8.126486     14.779473     28.633913   6.0000  15.9994
    645    4 H     1      7.220116     15.055673     28.482223   1.0000   1.0079
    646    4 H     1      8.490396     15.229973     27.836853   1.0000   1.0079
    647    2 O     8     17.361236     17.972673     27.072723   6.0000  15.9994
    648    4 H     1     18.176836     17.572473     27.434033   1.0000   1.0079
    649    4 H     1     17.045936      1.116873     27.689303   1.0000   1.0079
    650    2 O     8     16.531336      4.913203     28.286733   6.0000  15.9994
    651    4 H     1     17.182736      5.379303     27.683063   1.0000   1.0079
    652    4 H     1     15.702236      5.096243     27.951213   1.0000   1.0079
    653    2 O     8     15.076636      0.705471     29.676743   6.0000  15.9994
    654    4 H     1     15.013436     17.321273     29.926343   1.0000   1.0079
    655    4 H     1     14.247536      0.899473     29.299963   1.0000   1.0079
    656    2 O     8      0.787316      9.302643     29.777563   6.0000  15.9994
    657    4 H     1      1.080196      9.868873     29.055593   1.0000   1.0079
    658    4 H     1      0.500000     10.021573     30.424033   1.0000   1.0079
    659    2 O     8      6.800456      2.573433     33.544153   6.0000  15.9994
    660    4 H     1      6.097756      2.409403     32.830223   1.0000   1.0079
    661    4 H     1      7.462326      3.194843     33.171703   1.0000   1.0079
    662    2 O     8     11.370736      9.413173     32.963363   6.0000  15.9994
    663    4 H     1     10.612736      8.928483     32.678573   1.0000   1.0079
    664    4 H     1     11.833936      9.706123     32.140693   1.0000   1.0079
    665    2 O     8      9.961036      7.160913     29.938543   6.0000  15.9994
    666    4 H     1     10.570436      6.817313     30.632653   1.0000   1.0079
    667    4 H     1      9.864236      8.174843     30.012663   1.0000   1.0079
    668    2 O     8      7.773716      8.933993     28.048053   6.0000  15.9994
    669    4 H     1      8.057146      8.140883     27.572313   1.0000   1.0079
    670    4 H     1      8.524176      9.344423     28.508343   1.0000   1.0079
    671    2 O     8      4.844576      3.883683     26.756763   6.0000  15.9994
    672    4 H     1      4.890676      4.848223     26.678223   1.0000   1.0079
    673    4 H     1      5.653166      3.488603     26.418573   1.0000   1.0079
    674    2 O     8     16.294436     11.948073     26.619903   6.0000  15.9994
    675    4 H     1     16.313336     11.243673     27.214073   1.0000   1.0079
    676    4 H     1     16.243036     12.765673     27.095873   1.0000   1.0079
    677    2 O     8     19.669836      1.630943     29.697323   6.0000  15.9994
    678    4 H     1     19.938536      1.083433     28.939343   1.0000   1.0079
    679    4 H     1     18.821536      2.066053     29.443193   1.0000   1.0079
    680    2 O     8      4.876096      6.790753     26.706333   6.0000  15.9994
    681    4 H     1      4.019416      6.989903     27.173653   1.0000   1.0079
    682    4 H     1      4.637966      6.884553     25.762729   1.0000   1.0079
    683    2 O     8     15.716636     11.441773     32.321283   6.0000  15.9994
    684    4 H     1     16.148636     11.280473     31.434193   1.0000   1.0079
    685    4 H     1     16.467236     11.101473     32.855423   1.0000   1.0079
    686    2 O     8      4.210146     17.112173     33.142013   6.0000  15.9994
    687    4 H     1      3.859536      0.529107     33.099433   1.0000   1.0079
    688    4 H     1      4.715516     17.054673     25.501511   1.0000   1.0079
    689    2 O     8     18.952136      1.553383     33.264143   6.0000  15.9994
    690    4 H     1     19.078036      1.035573     32.491173   1.0000   1.0079
    691    4 H     1     18.230436      1.192063     33.770933   1.0000   1.0079
    692    2 O     8     13.325936     12.560273     33.498043   6.0000  15.9994
    693    4 H     1     14.239636     12.267173     33.306433   1.0000   1.0079
    694    4 H     1     13.277536     13.412573     25.502782   1.0000   1.0079
    695    2 O     8      1.265186     16.585173     25.593569   6.0000  15.9994
    696    4 H     1      1.456876     17.244073     33.412673   1.0000   1.0079
    697    4 H     1      2.159026     16.208673     25.813502   1.0000   1.0079
    698    2 O     8      5.848576      2.423503     30.858053   6.0000  15.9994
    699    4 H     1      5.175396      2.433783     30.160763   1.0000   1.0079
    700    4 H     1      6.599416      1.878963     30.664163   1.0000   1.0079
    701    2 O     8      2.613736     17.346573     28.725573   6.0000  15.9994
    702    4 H     1      1.747116     17.285873     28.237093   1.0000   1.0079
    703    4 H     1      2.686696     16.540873     29.269013   1.0000   1.0079
    704    2 O     8      8.770046      4.795763     32.981663   6.0000  15.9994
    705    4 H     1      8.397106      5.526713     33.573983   1.0000   1.0079
    706    4 H     1      8.150556      4.918223     32.287743   1.0000   1.0079
    707    2 O     8      8.816356      8.128143     32.531903   6.0000  15.9994
    708    4 H     1      8.584006      7.673433     33.319683   1.0000   1.0079
    709    4 H     1      8.452526      9.034923     32.730813   1.0000   1.0079
    710    2 O     8     11.090936      1.802403     31.381543   6.0000  15.9994
    711    4 H     1     11.086336      2.041983     32.349563   1.0000   1.0079
    712    4 H     1     11.080536      0.826153     31.292163   1.0000   1.0079
    713    2 O     8     11.989636     10.104873     27.030443   6.0000  15.9994
    714    4 H     1     12.758736     10.704773     27.243373   1.0000   1.0079
    715    4 H     1     11.902036      9.953273     26.046986   1.0000   1.0079
    716    2 O     8      2.449106      7.141563     28.136713   6.0000  15.9994
    717    4 H     1      1.867336      7.858823     28.385003   1.0000   1.0079
    718    4 H     1      1.830176      6.506993     27.683673   1.0000   1.0079
    719    2 O     8      3.082156     14.697273     26.392533   6.0000  15.9994
    720    4 H     1      3.089736     14.649773     27.380623   1.0000   1.0079
    721    4 H     1      3.998846     14.682373     26.116170   1.0000   1.0079
    722    2 O     8     19.655136     14.561873     32.813563   6.0000  15.9994
    723    4 H     1     18.720936     14.836673     32.908313   1.0000   1.0079
    724    4 H     1     20.294436     15.298973     33.123343   1.0000   1.0079
    725    2 O     8      2.853996     11.035073     27.876233   6.0000  15.9994
    726    4 H     1      2.792786     11.037373     26.897053   1.0000   1.0079
    727    4 H     1      3.678696     10.528773     28.051863   1.0000   1.0079
    728    2 O     8     15.598836      1.036903     32.368803   6.0000  15.9994
    729    4 H     1     14.927636      1.522453     32.820583   1.0000   1.0079
    730    4 H     1     15.266236      0.964073     31.441133   1.0000   1.0079
    731    2 O     8     11.636736     16.793973     32.511683   6.0000  15.9994
    732    4 H     1     11.829036     15.897873     32.144913   1.0000   1.0079
    733    4 H     1     10.701436     16.686173     32.885853   1.0000   1.0079
    734    2 O     8     10.418036      3.738373     28.020153   6.0000  15.9994
    735    4 H     1     11.113136      3.661973     28.685713   1.0000   1.0079
    736    4 H     1      9.668836      4.167913     28.382583   1.0000   1.0079
    737    2 O     8     13.674436      3.504503     33.559643   6.0000  15.9994
    738    4 H     1     13.784436      3.741723     26.069333   1.0000   1.0079
    739    4 H     1     12.740536      3.453953     33.493863   1.0000   1.0079
    740    2 O     8     11.644236     13.655873     29.138503   6.0000  15.9994
    741    4 H     1     12.179936     12.869873     28.898923   1.0000   1.0079
    742    4 H     1     10.850236     13.229073     29.509983   1.0000   1.0079
    743    2 O     8     20.299436     14.934073     29.794713   6.0000  15.9994
    744    4 H     1      0.858266     14.484673     29.354203   1.0000   1.0079
    745    4 H     1     20.477136     14.736573     30.749263   1.0000   1.0079
    746    2 O     8      7.005746      4.983513     30.840583   6.0000  15.9994
    747    4 H     1      6.370266      5.673133     30.980953   1.0000   1.0079
    748    4 H     1      6.692446      4.039433     31.010373   1.0000   1.0079
    749    2 O     8      3.308566      2.309813     33.303163   6.0000  15.9994
    750    4 H     1      2.355256      2.604653     33.500593   1.0000   1.0079
    751    4 H     1      3.889256      2.758783     25.556269   1.0000   1.0079
    752    2 O     8      2.326266     13.576373     28.748423   6.0000  15.9994
    753    4 H     1      2.790886     13.260673     29.545573   1.0000   1.0079
    754    4 H     1      2.275216     12.807373     28.147843   1.0000   1.0079
    755    2 O     8     19.342536      6.101333     31.206023   6.0000  15.9994
    756    4 H     1     19.583936      6.671193     31.933773   1.0000   1.0079
    757    4 H     1     19.975136      5.438013     30.874943   1.0000   1.0079
    758    2 O     8     12.653436      1.484233     28.131923   6.0000  15.9994
    759    4 H     1     11.762936      1.014293     28.318383   1.0000   1.0079
    760    4 H     1     12.983636      1.041703     27.296713   1.0000   1.0079
    761    2 O     8     16.750136     14.371773     32.631723   6.0000  15.9994
    762    4 H     1     16.511936     13.426073     32.472663   1.0000   1.0079
    763    4 H     1     16.021036     14.715573     33.193653   1.0000   1.0079
    764    2 O     8      3.433646     15.748673     30.846373   6.0000  15.9994
    765    4 H     1      3.244726     14.840673     31.156863   1.0000   1.0079
    766    4 H     1      3.629636     16.242873     31.628073   1.0000   1.0079
    767    2 O     8     12.397936      4.163513     30.677223   6.0000  15.9994
    768    4 H     1     13.350436      4.037353     30.574823   1.0000   1.0079
    769    4 H     1     12.027036      3.214873     30.753823   1.0000   1.0079
    770    2 O     8      6.810756      8.053873     30.532703   6.0000  15.9994
    771    4 H     1      7.625726      8.081663     31.077263   1.0000   1.0079
    772    4 H     1      7.130946      8.126673     29.609143   1.0000   1.0079
    773    2 O     8     11.826136     14.643673     26.486033   6.0000  15.9994
    774    4 H     1     11.572336     14.236673     27.338933   1.0000   1.0079
    775    4 H     1     10.924136     14.973273     26.094400   1.0000   1.0079
    776    2 O     8      1.158296      0.811773     31.955833   6.0000  15.9994
    777    4 H     1      1.303696      0.615327     31.036063   1.0000   1.0079
    778    4 H     1      0.904866      1.738493     32.086553   1.0000   1.0079
    779    2 O     8      8.446896      5.467033     28.847483   6.0000  15.9994
    780    4 H     1      7.987556      5.291193     29.698243   1.0000   1.0079
    781    4 H     1      9.059406      6.169203     29.051283   1.0000   1.0079
    782    2 O     8     17.340336     10.868073     30.298443   6.0000  15.9994
    783    4 H     1     17.552136     11.655173     29.718733   1.0000   1.0079
    784    4 H     1     16.872936     10.213773     29.702963   1.0000   1.0079
    785    2 O     8      7.566686     10.832573     33.039493   6.0000  15.9994
    786    4 H     1      6.849916     10.510673     33.571273   1.0000   1.0079
    787    4 H     1      8.190986     11.406173     33.458703   1.0000   1.0079
    788    2 O     8      5.628546      9.875973     26.487523   6.0000  15.9994
    789    4 H     1      6.260176     10.116873     27.163963   1.0000   1.0079
    790    4 H     1      5.456646      8.919313     26.633253   1.0000   1.0079
    791    2 O     8     18.016236     10.164273     33.617523   6.0000  15.9994
    792    4 H     1     17.436136      9.521323     25.494055   1.0000   1.0079
    793    4 H     1     18.412236     10.720373     25.891116   1.0000   1.0079
    794    2 O     8      5.445136     13.195773     25.730478   6.0000  15.9994
    795    4 H     1      6.125296     12.902773     26.399473   1.0000   1.0079
    796    4 H     1      5.047636     12.404273     25.413628   1.0000   1.0079
    797    2 O     8     20.615036      5.653313     27.250753   6.0000  15.9994
    798    4 H     1     19.782036      6.187013     27.421773   1.0000   1.0079
    799    4 H     1     20.686636      4.954313     27.960783   1.0000   1.0079
    800    2 O     8      5.574586     15.102073     28.676853   6.0000  15.9994
    801    4 H     1      5.654596     15.646573     29.499273   1.0000   1.0079
    802    4 H     1      5.820846     14.119573     28.744853   1.0000   1.0079
    803    2 O     8     14.970036      5.155063     31.903423   6.0000  15.9994
    804    4 H     1     14.425736      4.707513     32.630173   1.0000   1.0079
    805    4 H     1     15.906236      4.869143     32.022323   1.0000   1.0079
    806    2 O     8     10.185736     12.254873     32.926683   6.0000  15.9994
    807    4 H     1     10.818636     11.584773     33.294953   1.0000   1.0079
    808    4 H     1     10.737036     13.055973     33.016563   1.0000   1.0079
    809    2 O     8     15.993136     14.135573     28.102743   6.0000  15.9994
    810    4 H     1     15.965936     14.935073     27.545513   1.0000   1.0079
    811    4 H     1     15.496436     14.329873     28.923183   1.0000   1.0079
    812    2 O     8     19.481036     11.381273     27.059833   6.0000  15.9994
    813    4 H     1     19.218536     12.189673     27.584473   1.0000   1.0079
    814    4 H     1     20.334336     11.727873     26.646093   1.0000   1.0079
    815    2 O     8     17.805636      6.404933     26.175620   6.0000  15.9994
    816    4 H     1     17.781536      5.821773     25.407578   1.0000   1.0079
    817    4 H     1     17.086336      7.063973     26.199436   1.0000   1.0079
    818    2 O     8      6.570416     10.922873     30.213873   6.0000  15.9994
    819    4 H     1      6.780906     11.394373     31.057043   1.0000   1.0079
    820    4 H     1      6.679906     10.005473     30.450533   1.0000   1.0079
    821    2 O     8      1.161586     12.929573     25.689214   6.0000  15.9994
    822    4 H     1      1.916676     13.532173     25.856521   1.0000   1.0079
    823    4 H     1     20.598436     13.366473     33.662123   1.0000   1.0079



 SCF PARAMETERS         Density guess:                                    ATOMIC
                        --------------------------------------------------------
                        max_scf:                                             250
                        max_scf_history:                                       0
                        max_diis:                                              4
                        --------------------------------------------------------
                        eps_scf:                                        1.00E-06
                        eps_scf_history:                                0.00E+00
                        eps_diis:                                       0.00E+00
                        eps_eigval:                                     1.00E-05
                        --------------------------------------------------------
                        level_shift [a.u.]:                             0.000000
                        --------------------------------------------------------
                        Outer loop SCF in use 
                        No variables optimised in outer loop
                        eps_scf                                         1.00E-06
                        max_scf                                               20
                        No outer loop optimization
                        step_size                                       5.00E-01

 PW_GRID| Information for grid number                                          1
 PW_GRID| Grid distributed over                                   192 processors
 PW_GRID| Real space group dimensions                                   192    1
 PW_GRID| the grid is blocked:                                                NO
 PW_GRID| Cutoff [a.u.]                                                    300.0
 PW_GRID| spherical cutoff:                                                   NO
 PW_GRID|   Bounds   1           -150     149                Points:         300
 PW_GRID|   Bounds   2           -135     134                Points:         270
 PW_GRID|   Bounds   3           -480     479                Points:         960
 PW_GRID| Volume element (a.u.^3)  0.1961E-02     Volume (a.u.^3)    152468.6164
 PW_GRID| Grid span                                                    FULLSPACE
 PW_GRID|   Distribution                         Average         Max         Min
 PW_GRID|   G-Vectors                           405000.0      405000      405000
 PW_GRID|   G-Rays                                1350.0        1350        1350
 PW_GRID|   Real Space Points                   405000.0      518400      259200

 PW_GRID| Information for grid number                                          2
 PW_GRID| Number of the reference grid                                         1
 PW_GRID| Grid distributed over                                   192 processors
 PW_GRID| Real space group dimensions                                    12   16
 PW_GRID| the grid is blocked:                                                NO
 PW_GRID| Cutoff [a.u.]                                                    100.0
 PW_GRID| spherical cutoff:                                                   NO
 PW_GRID|   Bounds   1            -90      89                Points:         180
 PW_GRID|   Bounds   2            -75      74                Points:         150
 PW_GRID|   Bounds   3           -288     287                Points:         576
 PW_GRID| Volume element (a.u.^3)  0.9804E-02     Volume (a.u.^3)    152468.6164
 PW_GRID| Grid span                                                    FULLSPACE
 PW_GRID|   Distribution                         Average         Max         Min
 PW_GRID|   G-Vectors                            81000.0       82440       79560
 PW_GRID|   G-Rays                                 450.0         458         442
 PW_GRID|   Real Space Points                    81000.0       86400       77760

 PW_GRID| Information for grid number                                          3
 PW_GRID| Number of the reference grid                                         1
 PW_GRID| Grid distributed over                                   192 processors
 PW_GRID| Real space group dimensions                                    12   16
 PW_GRID| the grid is blocked:                                                NO
 PW_GRID| Cutoff [a.u.]                                                     33.3
 PW_GRID| spherical cutoff:                                                   NO
 PW_GRID|   Bounds   1            -50      49                Points:         100
 PW_GRID|   Bounds   2            -45      44                Points:          90
 PW_GRID|   Bounds   3           -160     159                Points:         320
 PW_GRID| Volume element (a.u.^3)  0.5294E-01     Volume (a.u.^3)    152468.6164
 PW_GRID| Grid span                                                    FULLSPACE
 PW_GRID|   Distribution                         Average         Max         Min
 PW_GRID|   G-Vectors                            15000.0       15900       14000
 PW_GRID|   G-Rays                                 150.0         159         140
 PW_GRID|   Real Space Points                    15000.0       17280       12800

 PW_GRID| Information for grid number                                          4
 PW_GRID| Number of the reference grid                                         1
 PW_GRID| Grid distributed over                                   192 processors
 PW_GRID| Real space group dimensions                                    12   16
 PW_GRID| the grid is blocked:                                                NO
 PW_GRID| Cutoff [a.u.]                                                     11.1
 PW_GRID| spherical cutoff:                                                   NO
 PW_GRID|   Bounds   1            -30      29                Points:          60
 PW_GRID|   Bounds   2            -27      26                Points:          54
 PW_GRID|   Bounds   3            -96      95                Points:         192
 PW_GRID| Volume element (a.u.^3)  0.2451         Volume (a.u.^3)    152468.6164
 PW_GRID| Grid span                                                    FULLSPACE
 PW_GRID|   Distribution                         Average         Max         Min
 PW_GRID|   G-Vectors                             3240.0        3900        2580
 PW_GRID|   G-Rays                                  54.0          65          43
 PW_GRID|   Real Space Points                     3240.0        3840        2880

 PW_GRID| Information for grid number                                          5
 PW_GRID| Number of the reference grid                                         1
 PW_GRID| Grid distributed over                                   192 processors
 PW_GRID| Real space group dimensions                                    12   16
 PW_GRID| the grid is blocked:                                                NO
 PW_GRID| Cutoff [a.u.]                                                      3.7
 PW_GRID| spherical cutoff:                                                   NO
 PW_GRID|   Bounds   1            -18      17                Points:          36
 PW_GRID|   Bounds   2            -15      14                Points:          30
 PW_GRID|   Bounds   3            -54      53                Points:         108
 PW_GRID| Volume element (a.u.^3)   1.307         Volume (a.u.^3)    152468.6164
 PW_GRID| Grid span                                                    FULLSPACE
 PW_GRID|   Distribution                         Average         Max         Min
 PW_GRID|   G-Vectors                              607.5         900         360
 PW_GRID|   G-Rays                                  16.9          25          10
 PW_GRID|   Real Space Points                      607.5         648         324

 PW_GRID| Grid for non-local vdW functional

 PW_GRID| Information for grid number                                          6
 PW_GRID| Number of the reference grid                                         1
 PW_GRID| Grid distributed over                                   192 processors
 PW_GRID| Real space group dimensions                                    12   16
 PW_GRID| the grid is blocked:                                                NO
 PW_GRID| Cutoff [a.u.]                                                     40.0
 PW_GRID| spherical cutoff:                                                   NO
 PW_GRID|   Bounds   1            -60      59                Points:         120
 PW_GRID|   Bounds   2            -48      47                Points:          96
 PW_GRID|   Bounds   3           -180     179                Points:         360
 PW_GRID| Volume element (a.u.^3)  0.3676E-01     Volume (a.u.^3)    152468.6164
 PW_GRID| Grid span                                                    FULLSPACE
 PW_GRID|   Distribution                         Average         Max         Min
 PW_GRID|   G-Vectors                            21600.0       22800       20400
 PW_GRID|   G-Rays                                 180.0         190         170
 PW_GRID|   Real Space Points                    21600.0       21600       21600

 POISSON| Solver                                                        PERIODIC
 POISSON| Periodicity                                                        XYZ

 RS_GRID| Information for grid number                                          1
 RS_GRID|   Bounds   1           -150     149                Points:         300
 RS_GRID|   Bounds   2           -135     134                Points:         270
 RS_GRID|   Bounds   3           -480     479                Points:         960
 RS_GRID| Real space distribution over                                  4 groups
 RS_GRID| Real space distribution along direction                              1
 RS_GRID| Border size                                                         32
 RS_GRID| Real space distribution over                                  4 groups
 RS_GRID| Real space distribution along direction                              2
 RS_GRID| Border size                                                         32
 RS_GRID| Real space distribution over                                 12 groups
 RS_GRID| Real space distribution along direction                              3
 RS_GRID| Border size                                                         32
 RS_GRID|   Distribution                         Average         Max         Min
 RS_GRID|   Planes                                 139.0         139         139
 RS_GRID|   Distribution                         Average         Max         Min
 RS_GRID|   Planes                                 131.5         132         131
 RS_GRID|   Distribution                         Average         Max         Min
 RS_GRID|   Planes                                 144.0         144         144

 RS_GRID| Information for grid number                                          2
 RS_GRID|   Bounds   1            -90      89                Points:         180
 RS_GRID|   Bounds   2            -75      74                Points:         150
 RS_GRID|   Bounds   3           -288     287                Points:         576
 RS_GRID| Real space distribution over                                  4 groups
 RS_GRID| Real space distribution along direction                              1
 RS_GRID| Border size                                                         34
 RS_GRID| Real space distribution over                                  4 groups
 RS_GRID| Real space distribution along direction                              2
 RS_GRID| Border size                                                         34
 RS_GRID| Real space distribution over                                 12 groups
 RS_GRID| Real space distribution along direction                              3
 RS_GRID| Border size                                                         34
 RS_GRID|   Distribution                         Average         Max         Min
 RS_GRID|   Planes                                 113.0         113         113
 RS_GRID|   Distribution                         Average         Max         Min
 RS_GRID|   Planes                                 105.5         106         105
 RS_GRID|   Distribution                         Average         Max         Min
 RS_GRID|   Planes                                 116.0         116         116

 RS_GRID| Information for grid number                                          3
 RS_GRID|   Bounds   1            -50      49                Points:         100
 RS_GRID|   Bounds   2            -45      44                Points:          90
 RS_GRID|   Bounds   3           -160     159                Points:         320
 RS_GRID| Real space fully replicated
 RS_GRID| Group size                                                           1

 RS_GRID| Information for grid number                                          4
 RS_GRID|   Bounds   1            -30      29                Points:          60
 RS_GRID|   Bounds   2            -27      26                Points:          54
 RS_GRID|   Bounds   3            -96      95                Points:         192
 RS_GRID| Real space fully replicated
 RS_GRID| Group size                                                           1

 RS_GRID| Information for grid number                                          5
 RS_GRID|   Bounds   1            -18      17                Points:          36
 RS_GRID|   Bounds   2            -15      14                Points:          30
 RS_GRID|   Bounds   3            -54      53                Points:         108
 RS_GRID| Real space fully replicated
 RS_GRID| Group size                                                           1

 MD_PAR| Molecular dynamics protocol (MD input parameters)
 MD_PAR| Ensemble type                                                       NVT
 MD_PAR| Number of time steps                                               2000
 MD_PAR| Time step [fs]                                                 0.500000
 MD_PAR| Temperature [K]                                              298.000000
 MD_PAR| Temperature tolerance [K]                                      0.000000
 MD_PAR| Print MD information every                                    1 step(s)
 MD_PAR| File type   Print frequency [steps]                          File names
 MD_PAR| Coordinates          1                    aimd_withfield_aimd-pos-1.xyz
 MD_PAR| Velocities           1                    aimd_withfield_aimd-vel-1.xyz
 MD_PAR| Energies             1                       aimd_withfield_aimd-1.ener
 MD_PAR| Dump               100                    aimd_withfield_aimd-1.restart

 ROT| Rotational analysis information
 ROT| Principal axes and moments of inertia [a.u.]
 ROT|                           1                   2                   3
 ROT| Eigenvalues      2.00645457768E+09   3.55292834083E+09   3.99846281149E+09
 ROT|      x             -0.028053565073     -0.985837185144     -0.165342196290
 ROT|      y             -0.028028077197      0.166118025331     -0.985707476155
 ROT|      z              0.999213402820     -0.023018384983     -0.032291323563
 ROT| Number of rotovibrational vectors                                        6

 DOF| Calculation of degrees of freedom
 DOF| Number of atoms                                                        823
 DOF| Number of intramolecular constraints                                     0
 DOF| Number of intermolecular constraints                                     0
 DOF| Invariants (translations + rotations)                                    3
 DOF| Degrees of freedom                                                    2466

 DOF| Restraints information
 DOF| Number of intramolecular restraints                                      0
 DOF| Number of intermolecular restraints                                      0

 THERMOSTAT| Thermostat information for PARTICLES
 THERMOSTAT| Type of thermostat            Canonical Sampling/Velocity Rescaling
 THERMOSTAT| CSVR time constant [fs]                                   50.000000
 THERMOSTAT| Initial kinetic energy                           0.000000000000E+00
 THERMOSTAT| End of thermostat information for PARTICLES

 MD_VEL| Velocities initialization
 MD_VEL| Initial temperature [K]                                      298.000000
 MD_VEL| COM velocity             0.0000000000    -0.0000000000    -0.0000000000

 Extrapolation method: initial_guess

 Atomic guess: The first density matrix is obtained in terms of atomic orbitals
               and electronic configurations assigned to each atomic kind

 Guess for atomic kind: Si

 Electronic structure
    Total number of core electrons                                         10.00
    Total number of valence electrons                                       4.00
    Total number of electrons                                              14.00
    Multiplicity                                                   not specified
    S   [  2.00  2.00] 2.00
    P   [  6.00] 2.00


 *******************************************************************************
                  Iteration          Convergence                     Energy [au]
 *******************************************************************************
                          1        0.537382E-01                  -3.661533087532
                          2        0.227595E-01                  -3.664304527760
                          3        0.200097E-03                  -3.665017588330
                          4        0.821645E-06                  -3.665017641412

 Energy components [Hartree]           Total Energy ::           -3.665017641412
                                        Band Energy ::           -0.978497193520
                                     Kinetic Energy ::            1.385169340970
                                   Potential Energy ::           -5.050186982382
                                      Virial (-V/T) ::            3.645898615432
                                        Core Energy ::           -5.667721494982
                                          XC Energy ::           -0.980982178883
                                     Coulomb Energy ::            2.983686032453
                       Total Pseudopotential Energy ::           -7.097886600236
                       Local Pseudopotential Energy ::           -7.923124080011
                    Nonlocal Pseudopotential Energy ::            0.825237479775
                                        Confinement ::            0.449957642846

 Orbital energies  State     L     Occupation   Energy[a.u.]          Energy[eV]

                       1     0          2.000      -0.366449           -9.971583

                       1     1          2.000      -0.122800           -3.341548


 Total Electron Density at R=0:                                         0.000021

 Guess for atomic kind: O

 Electronic structure
    Total number of core electrons                                          2.00
    Total number of valence electrons                                       6.00
    Total number of electrons                                               8.00
    Multiplicity                                                   not specified
    S   [  2.00] 2.00
    P      4.00


 *******************************************************************************
                  Iteration          Convergence                     Energy [au]
 *******************************************************************************
                          1        0.767843                     -15.548688912140
                          2        0.707350                     -15.552891087148
                          3        0.233352E-01                 -15.638471141341
                          4        0.140601E-02                 -15.638569711398
                          5        0.207920E-04                 -15.638570020034
                          6        0.225984E-06                 -15.638570020103

 Energy components [Hartree]           Total Energy ::          -15.638570020103
                                        Band Energy ::           -2.987115069665
                                     Kinetic Energy ::           11.758429295155
                                   Potential Energy ::          -27.396999315258
                                      Virial (-V/T) ::            2.329988013497
                                        Core Energy ::          -26.117692585697
                                          XC Energy ::           -3.153357461230
                                     Coulomb Energy ::           13.632480026824
                       Total Pseudopotential Energy ::          -37.911237752664
                       Local Pseudopotential Energy ::          -39.187422590466
                    Nonlocal Pseudopotential Energy ::            1.276184837802
                                        Confinement ::            0.351158718120

 Orbital energies  State     L     Occupation   Energy[a.u.]          Energy[eV]

                       1     0          2.000      -0.854976          -23.265087

                       1     1          4.000      -0.319291           -8.688340


 Total Electron Density at R=0:                                         0.000001

 Guess for atomic kind: C

 Electronic structure
    Total number of core electrons                                          2.00
    Total number of valence electrons                                       4.00
    Total number of electrons                                               6.00
    Multiplicity                                                   not specified
    S   [  2.00] 2.00
    P      2.00


 *******************************************************************************
                  Iteration          Convergence                     Energy [au]
 *******************************************************************************
                          1        0.124377                      -5.269415449983
                          2        0.880091E-01                  -5.274432015385
                          3        0.424095E-03                  -5.279419090830
                          4        0.118108E-03                  -5.279419164687
                          5        0.144057E-06                  -5.279419172500

 Energy components [Hartree]           Total Energy ::           -5.279419172500
                                        Band Energy ::           -1.313739125276
                                     Kinetic Energy ::            3.405940495234
                                   Potential Energy ::           -8.685359667734
                                      Virial (-V/T) ::            2.550062069460
                                        Core Energy ::           -8.290068838701
                                          XC Energy ::           -1.377173731606
                                     Coulomb Energy ::            4.387823397806
                       Total Pseudopotential Energy ::          -11.730281123094
                       Local Pseudopotential Energy ::          -12.376528803709
                    Nonlocal Pseudopotential Energy ::            0.646247680614
                                        Confinement ::            0.342717891594

 Orbital energies  State     L     Occupation   Energy[a.u.]          Energy[eV]

                       1     0          2.000      -0.480601          -13.077809

                       1     1          2.000      -0.176269           -4.796521


 Total Electron Density at R=0:                                         0.000000

 Guess for atomic kind: H

 Electronic structure
    Total number of core electrons                                          0.00
    Total number of valence electrons                                       1.00
    Total number of electrons                                               1.00
    Multiplicity                                                   not specified
    S      1.00


 *******************************************************************************
                  Iteration          Convergence                     Energy [au]
 *******************************************************************************
                          1        0.364523E-02                  -0.422484553466
                          2        0.146100E-03                  -0.422490428911
                          3        0.266755E-04                  -0.422490480125
                          4        0.362969E-08                  -0.422490480723

 Energy components [Hartree]           Total Energy ::           -0.422490480723
                                        Band Energy ::           -0.192735382727
                                     Kinetic Energy ::            0.477952444388
                                   Potential Energy ::           -0.900442925111
                                      Virial (-V/T) ::            1.883959242566
                                        Core Energy ::           -0.479166166213
                                          XC Energy ::           -0.248560768168
                                     Coulomb Energy ::            0.305236453657
                       Total Pseudopotential Energy ::           -0.975131101124
                       Local Pseudopotential Energy ::           -0.975131101124
                    Nonlocal Pseudopotential Energy ::            0.000000000000
                                        Confinement ::            0.180124905236

 Orbital energies  State     L     Occupation   Energy[a.u.]          Energy[eV]

                       1     0          1.000      -0.192735           -5.244596


 Total Electron Density at R=0:                                         0.249202

 Spin 1
 Re-scaling the density matrix to get the right number of electrons for spin 1
                  # Electrons              Trace(P)               Scaling factor
                         1017              1017.000                        1.000

 Spin 2
 Re-scaling the density matrix to get the right number of electrons for spin 2
                  # Electrons              Trace(P)               Scaling factor
                         1017              1017.000                        1.000

 Spin 1

 Number of electrons:                                                       1017
 Number of occupied orbitals:                                               1017
 Number of molecular orbitals:                                              1017

 Spin 2

 Number of electrons:                                                       1017
 Number of occupied orbitals:                                               1017
 Number of molecular orbitals:                                              1017

 Number of orbital functions:                                               8315
 Number of independent orbital functions:                                   8315


 SCF WAVEFUNCTION OPTIMIZATION

  ----------------------------------- OT ---------------------------------------
  Minimizer      : CG                  : conjugate gradient
  Preconditioner : FULL_ALL            : diagonalization, state selective
  Precond_solver : DEFAULT
  Line search    : 2PNT                : 2 energies, one gradient
  stepsize       :    0.15000000                  energy_gap     :    0.00100000
  eps_taylor     :   0.10000E-15                  max_taylor     :             4
  ----------------------------------- OT ---------------------------------------

  Step     Update method      Time    Convergence         Total energy    Change
  ------------------------------------------------------------------------------
     1 OT CG       0.15E+00   13.8     0.02258451     -3220.5360845893 -3.22E+03
     - OT LS       0.15E-01    3.9                     2142.8440884177
     2 OT CG       0.15E-01    7.2     0.02523831     -3223.9682349711 -3.43E+00
     - OT LS       0.78E-02    3.8                    -3233.4551022947
     3 OT CG       0.78E-02    7.3     0.00903519     -3264.2574162064 -4.03E+01
     - OT LS       0.31E-01    3.9                    -3271.7400692500
     4 OT CG       0.31E-01    7.3     0.00836244     -3292.8010518059 -2.85E+01
     - OT LS       0.13E-01    3.9                    -3285.6278715301
     5 OT CG       0.13E-01    7.3     0.00663375     -3298.7177775898 -5.92E+00
     - OT LS       0.52E-01    3.9                    -3309.2059096457
     6 OT CG       0.52E-01    7.6     0.00464157     -3336.4021693003 -3.77E+01
     - OT LS       0.21E+00    3.9                    -3353.7495587908
     7 OT CG       0.21E+00    7.3     0.00426079     -3388.2893466394 -5.19E+01
     - OT LS       0.11E+00    3.9                    -3392.7508693914
     8 OT CG       0.11E+00    7.3     0.00918900     -3397.0579989526 -8.77E+00
     - OT LS       0.63E-02    3.9                    -2696.3206994168
     9 OT CG       0.63E-02    7.3     0.00755320     -3402.2830701046 -5.23E+00
     - OT LS       0.15E-01    3.9                    -3407.0983528287
    10 OT CG       0.15E-01    7.3     0.00401400     -3411.6803709251 -9.40E+00
     - OT LS       0.17E-01    3.9                    -3414.0030215083
    11 OT CG       0.17E-01    7.3     0.00267186     -3414.4256610254 -2.75E+00
     - OT LS       0.56E-01    3.9                    -3416.1943233464
    12 OT CG       0.56E-01    7.3     0.00211090     -3417.1137854385 -2.69E+00
     - OT LS       0.22E+00    3.9                    -3422.0751689755
    13 OT CG       0.22E+00    7.3     0.00392625     -3426.8768730432 -9.76E+00
     - OT LS       0.19E-01    3.9                    -3132.7364196278
    14 OT CG       0.19E-01    7.3     0.00230658     -3429.4476166912 -2.57E+00
     - OT LS       0.43E-01    3.9                    -3430.7920706709
    15 OT CG       0.43E-01    7.3     0.00203793     -3431.4494683739 -2.00E+00
     - OT LS       0.70E-01    3.9                    -3433.6408502823
    16 OT CG       0.70E-01    7.3     0.00128611     -3434.1456558341 -2.70E+00
     - OT LS       0.19E+00    3.9                    -3435.8990426037
    17 OT CG       0.19E+00    7.3     0.00151794     -3436.9989438190 -2.85E+00
     - OT LS       0.18E+00    3.9                    -3440.3447013700
    18 OT CG       0.18E+00    7.3     0.00152683     -3440.3965171931 -3.40E+00
     - OT LS       0.11E+00    3.9                    -3441.5514719097
    19 OT CG       0.11E+00    7.3     0.00131995     -3441.9258083166 -1.53E+00
     - OT LS       0.54E-01    3.9                    -3441.8228851195
    20 OT CG       0.54E-01    7.3     0.00093779     -3441.8614891088  6.43E-02
     - OT LS       0.21E+00    3.9                    -3442.5572996713
    21 OT CG       0.21E+00    7.2     0.00063159     -3443.4792120451 -1.62E+00
     - OT LS       0.17E+00    3.9                    -3444.0903742588
    22 OT CG       0.17E+00    7.3     0.00067914     -3444.1107727979 -6.32E-01
     - OT LS       0.13E+00    3.9                    -3444.5620372729
    23 OT CG       0.13E+00    7.3     0.00067797     -3444.6204872971 -5.10E-01
     - OT LS       0.18E+00    3.9                    -3445.2708925395
    24 OT CG       0.18E+00    7.3     0.00075749     -3445.3236166144 -7.03E-01
     - OT LS       0.17E+00    3.9                    -3446.1336722122
    25 OT CG       0.17E+00    7.3     0.00102498     -3446.2174949188 -8.94E-01
     - OT LS       0.47E-01    3.9                    -3443.7626397576
    26 OT CG       0.47E-01    7.3     0.00064956     -3446.0041629913  2.13E-01
     - OT LS       0.43E-01    3.9                    -3446.1558738301
    27 OT CG       0.43E-01    7.3     0.00048528     -3446.1562661659 -1.52E-01
     - OT LS       0.17E+00    3.9                    -3446.3101196372
    28 OT CG       0.17E+00    7.2     0.00041951     -3446.5038252073 -3.48E-01
     - OT LS       0.12E+00    3.9                    -3446.6443681874
    29 OT CG       0.12E+00    7.2     0.00045923     -3446.6727542194 -1.69E-01
     - OT LS       0.66E-01    3.9                    -3446.7095878339
    30 OT CG       0.66E-01    7.2     0.00033234     -3446.7925368498 -1.20E-01
     - OT LS       0.13E+00    3.9                    -3446.8857591953
    31 OT CG       0.13E+00    7.2     0.00034613     -3446.9180194207 -1.25E-01
     - OT LS       0.13E+00    3.9                    -3447.0475794723
    32 OT CG       0.13E+00    7.2     0.00042811     -3447.0479794850 -1.30E-01
     - OT LS       0.99E-01    3.9                    -3447.1854084377
    33 OT CG       0.99E-01    7.2     0.00035464     -3447.1912163168 -1.43E-01
     - OT LS       0.15E+00    3.9                    -3447.3364879954
    34 OT CG       0.15E+00    7.2     0.00041668     -3447.3554504387 -1.64E-01
     - OT LS       0.82E-01    3.9                    -3447.3946507218
    35 OT CG       0.82E-01    7.3     0.00033144     -3447.4748927431 -1.19E-01
     - OT LS       0.78E-01    3.9                    -3447.5471067981
    36 OT CG       0.78E-01    7.3     0.00030209     -3447.5472993442 -7.24E-02
     - OT LS       0.98E-01    3.9                    -3447.6201526248
    37 OT CG       0.98E-01    7.2     0.00024877     -3447.6238114023 -7.65E-02
     - OT LS       0.10E+00    3.9                    -3447.6771942048
    38 OT CG       0.10E+00    7.2     0.00021804     -3447.6772153256 -5.34E-02
     - OT LS       0.14E+00    3.9                    -3447.7292236177
    39 OT CG       0.14E+00    7.3     0.00022194     -3447.7337459156 -5.65E-02
     - OT LS       0.73E-01    3.9                    -3447.7376991197
    40 OT CG       0.73E-01    7.3     0.00019912     -3447.7644602462 -3.07E-02
     - OT LS       0.10E+00    3.9                    -3447.7958979738
    41 OT CG       0.10E+00    7.2     0.00020263     -3447.7988264949 -3.44E-02
     - OT LS       0.10E+00    3.9                    -3447.8360775361
    42 OT CG       0.10E+00    7.3     0.00017684     -3447.8362165998 -3.74E-02
     - OT LS       0.15E+00    3.9                    -3447.8731414024
    43 OT CG       0.15E+00    7.3     0.00018343     -3447.8767042963 -4.05E-02
     - OT LS       0.11E+00    3.9                    -3447.9018259251
    44 OT CG       0.11E+00    7.3     0.00019088     -3447.9067916077 -3.01E-02
     - OT LS       0.90E-01    3.9                    -3447.9335294536
    45 OT CG       0.90E-01    7.3     0.00018016     -3447.9342944656 -2.75E-02
     - OT LS       0.89E-01    3.9                    -3447.9590041410
    46 OT CG       0.89E-01    7.3     0.00015566     -3447.9590042832 -2.47E-02
     - OT LS       0.12E+00    3.9                    -3447.9823702260
    47 OT CG       0.12E+00    7.3     0.00014924     -3447.9843022460 -2.53E-02
     - OT LS       0.12E+00    3.9                    -3448.0064005766
    48 OT CG       0.12E+00    7.2     0.00013307     -3448.0064646298 -2.22E-02
     - OT LS       0.11E+00    3.9                    -3448.0234389564
    49 OT CG       0.11E+00    7.2     0.00014979     -3448.0234580644 -1.70E-02
     - OT LS       0.88E-01    3.9                    -3448.0387567096
    50 OT CG       0.88E-01    7.3     0.00013323     -3448.0402103193 -1.68E-02
     - OT LS       0.10E+00    3.9                    -3448.0553799121
    51 OT CG       0.10E+00    7.2     0.00011964     -3448.0557282452 -1.55E-02
     - OT LS       0.14E+00    3.9                    -3448.0713182213
    52 OT CG       0.14E+00    7.2     0.00012540     -3448.0723215371 -1.66E-02
     - OT LS       0.13E+00    3.9                    -3448.0892635803
    53 OT CG       0.13E+00    7.3     0.00011894     -3448.0893642031 -1.70E-02
     - OT LS       0.11E+00    3.9                    -3448.1028139944
    54 OT CG       0.11E+00    7.4     0.00013339     -3448.1029911401 -1.36E-02
     - OT LS       0.91E-01    4.0                    -3448.1158988358
    55 OT CG       0.91E-01    7.3     0.00012256     -3448.1167755669 -1.38E-02
     - OT LS       0.11E+00    4.1                    -3448.1305784520
    56 OT CG       0.11E+00    7.3     0.00011275     -3448.1311012712 -1.43E-02
     - OT LS       0.14E+00    3.9                    -3448.1452837185
    57 OT CG       0.14E+00    7.3     0.00011673     -3448.1456410130 -1.45E-02
     - OT LS       0.12E+00    3.9                    -3448.1594746240
    58 OT CG       0.12E+00    7.3     0.00011013     -3448.1596115256 -1.40E-02
     - OT LS       0.12E+00    3.9                    -3448.1717110708
    59 OT CG       0.12E+00    7.6     0.00011585     -3448.1717386876 -1.21E-02
     - OT LS       0.10E+00    3.9                    -3448.1825746925
    60 OT CG       0.10E+00    7.3     0.00010978     -3448.1829499364 -1.12E-02
     - OT LS       0.11E+00    3.9                    -3448.1937558413
    61 OT CG       0.11E+00    7.2     0.00010569     -3448.1937873764 -1.08E-02
     - OT LS       0.11E+00    3.9                    -3448.2042430304
    62 OT CG       0.11E+00    7.3     0.00009481     -3448.2042689429 -1.05E-02
     - OT LS       0.13E+00    3.9                    -3448.2141038718
    63 OT CG       0.13E+00    7.2     0.00009572     -3448.2143375439 -1.01E-02
     - OT LS       0.11E+00    4.0                    -3448.2228254251
    64 OT CG       0.11E+00    7.5     0.00009298     -3448.2230739835 -8.74E-03
     - OT LS       0.95E-01    3.9                    -3448.2297590476
    65 OT CG       0.95E-01    7.5     0.00008989     -3448.2300284760 -6.95E-03
     - OT LS       0.12E+00    4.3                    -3448.2378498826
    66 OT CG       0.12E+00    7.5     0.00008385     -3448.2382113916 -8.18E-03
     - OT LS       0.13E+00    4.1                    -3448.2456645666
    67 OT CG       0.13E+00    7.4     0.00008208     -3448.2456772541 -7.47E-03
     - OT LS       0.12E+00    3.9                    -3448.2527783350
    68 OT CG       0.12E+00    7.4     0.00008108     -3448.2527783493 -7.10E-03
     - OT LS       0.11E+00    3.9                    -3448.2588770416
    69 OT CG       0.11E+00    7.4     0.00008241     -3448.2589697407 -6.19E-03
     - OT LS       0.10E+00    4.1                    -3448.2649565113
    70 OT CG       0.10E+00    7.2     0.00007847     -3448.2649810078 -6.01E-03
     - OT LS       0.12E+00    3.9                    -3448.2709312624
    71 OT CG       0.12E+00    7.5     0.00007511     -3448.2709816640 -6.00E-03
     - OT LS       0.12E+00    3.9                    -3448.2768018283
    72 OT CG       0.12E+00    7.2     0.00007101     -3448.2768224345 -5.84E-03
     - OT LS       0.13E+00    3.9                    -3448.2823721014
    73 OT CG       0.13E+00    7.2     0.00007182     -3448.2823929638 -5.57E-03
     - OT LS       0.11E+00    3.9                    -3448.2869079594
    74 OT CG       0.11E+00    7.2     0.00007085     -3448.2871109302 -4.72E-03
     - OT LS       0.10E+00    3.9                    -3448.2915567780
    75 OT CG       0.10E+00    7.3     0.00006895     -3448.2915611655 -4.45E-03
     - OT LS       0.11E+00    3.9                    -3448.2960779773
    76 OT CG       0.11E+00    7.2     0.00006328     -3448.2961011226 -4.54E-03
     - OT LS       0.13E+00    3.9                    -3448.3004964567
    77 OT CG       0.13E+00    7.3     0.00006201     -3448.3005954902 -4.49E-03
     - OT LS       0.13E+00    3.9                    -3448.3046974702
    78 OT CG       0.13E+00    7.3     0.00006094     -3448.3047068688 -4.11E-03
     - OT LS       0.11E+00    3.9                    -3448.3081573546
    79 OT CG       0.11E+00    7.2     0.00006341     -3448.3082186552 -3.51E-03
     - OT LS       0.10E+00    3.9                    -3448.3115653424
    80 OT CG       0.10E+00    7.2     0.00005810     -3448.3116143605 -3.40E-03
     - OT LS       0.13E+00    3.9                    -3448.3150825774
    81 OT CG       0.13E+00    7.2     0.00005559     -3448.3152532734 -3.64E-03
     - OT LS       0.13E+00    3.9                    -3448.3185812511
    82 OT CG       0.13E+00    7.2     0.00005425     -3448.3185812489 -3.33E-03
     - OT LS       0.13E+00    3.9                    -3448.3217861486
    83 OT CG       0.13E+00    7.2     0.00005630     -3448.3217863784 -3.21E-03
     - OT LS       0.10E+00    3.9                    -3448.3243108389
    84 OT CG       0.10E+00    7.2     0.00005423     -3448.3245067156 -2.72E-03
     - OT LS       0.11E+00    3.9                    -3448.3272592861
    85 OT CG       0.11E+00    7.3     0.00005283     -3448.3272818372 -2.78E-03
     - OT LS       0.12E+00    3.9                    -3448.3301156263
    86 OT CG       0.12E+00    7.2     0.00004945     -3448.3301326524 -2.85E-03
     - OT LS       0.13E+00    3.9                    -3448.3327711019
    87 OT CG       0.13E+00    7.2     0.00004935     -3448.3327787859 -2.65E-03
     - OT LS       0.12E+00    3.9                    -3448.3352994032
    88 OT CG       0.12E+00    7.2     0.00004950     -3448.3353036307 -2.52E-03
     - OT LS       0.11E+00    3.9                    -3448.3375190479
    89 OT CG       0.11E+00    7.3     0.00004913     -3448.3375571985 -2.25E-03
     - OT LS       0.10E+00    3.9                    -3448.3396912692
    90 OT CG       0.10E+00    7.2     0.00004673     -3448.3396942481 -2.14E-03
     - OT LS       0.13E+00    3.9                    -3448.3419655715
    91 OT CG       0.13E+00    7.2     0.00004505     -3448.3420357868 -2.34E-03
     - OT LS       0.13E+00    3.9                    -3448.3442072412
    92 OT CG       0.13E+00    7.3     0.00004325     -3448.3442072389 -2.17E-03
     - OT LS       0.13E+00    3.9                    -3448.3462636894
    93 OT CG       0.13E+00    7.3     0.00004613     -3448.3462647804 -2.06E-03
     - OT LS       0.10E+00    3.9                    -3448.3479659601
    94 OT CG       0.10E+00    7.3     0.00004450     -3448.3481011405 -1.84E-03
     - OT LS       0.11E+00    3.9                    -3448.3499257751
    95 OT CG       0.11E+00    7.3     0.00004208     -3448.3499334356 -1.83E-03
     - OT LS       0.13E+00    3.9                    -3448.3518585885
    96 OT CG       0.13E+00    7.3     0.00004127     -3448.3519218617 -1.99E-03
     - OT LS       0.13E+00    3.9                    -3448.3537848722
    97 OT CG       0.13E+00    7.3     0.00004064     -3448.3537866262 -1.86E-03
     - OT LS       0.12E+00    3.9                    -3448.3554472095
    98 OT CG       0.12E+00    7.3     0.00004314     -3448.3554569506 -1.67E-03
     - OT LS       0.10E+00    3.9                    -3448.3570283370
    99 OT CG       0.10E+00    7.3     0.00004086     -3448.3570748644 -1.62E-03
     - OT LS       0.12E+00    3.9                    -3448.3586840763
   100 OT CG       0.12E+00    7.3     0.00003876     -3448.3587052625 -1.63E-03
     - OT LS       0.14E+00    3.9                    -3448.3603936895
   101 OT CG       0.14E+00    7.2     0.00003909     -3448.3604299894 -1.72E-03
     - OT LS       0.12E+00    3.9                    -3448.3619947330
   102 OT CG       0.12E+00    7.3     0.00003855     -3448.3620110500 -1.58E-03
     - OT LS       0.12E+00    3.9                    -3448.3634710988
   103 OT CG       0.12E+00    7.3     0.00003973     -3448.3634760449 -1.46E-03
     - OT LS       0.11E+00    3.9                    -3448.3649115517
   104 OT CG       0.11E+00    7.2     0.00003873     -3448.3649188863 -1.44E-03
     - OT LS       0.11E+00    3.9                    -3448.3663698585
   105 OT CG       0.11E+00    7.2     0.00003686     -3448.3663735294 -1.45E-03
     - OT LS       0.13E+00    3.9                    -3448.3678430720
   106 OT CG       0.13E+00    7.3     0.00003660     -3448.3678659274 -1.49E-03
     - OT LS       0.13E+00    3.9                    -3448.3693308986
   107 OT CG       0.13E+00    7.3     0.00003676     -3448.3693311393 -1.47E-03
     - OT LS       0.12E+00    3.9                    -3448.3706315127
   108 OT CG       0.12E+00    7.2     0.00003787     -3448.3706478988 -1.32E-03
     - OT LS       0.10E+00    3.9                    -3448.3718990263
   109 OT CG       0.10E+00    7.2     0.00003669     -3448.3719154694 -1.27E-03
     - OT LS       0.12E+00    3.9                    -3448.3732490080
   110 OT CG       0.12E+00    7.2     0.00003458     -3448.3732721899 -1.36E-03
     - OT LS       0.14E+00    3.9                    -3448.3746379999
   111 OT CG       0.14E+00    7.2     0.00003461     -3448.3746593325 -1.39E-03
     - OT LS       0.13E+00    3.9                    -3448.3759606449
   112 OT CG       0.13E+00    7.2     0.00003532     -3448.3759643427 -1.31E-03
     - OT LS       0.11E+00    3.9                    -3448.3770571123
   113 OT CG       0.11E+00    7.2     0.00003612     -3448.3771055925 -1.14E-03
     - OT LS       0.11E+00    3.9                    -3448.3782820719
   114 OT CG       0.11E+00    7.2     0.00003403     -3448.3782820804 -1.18E-03
     - OT LS       0.12E+00    3.9                    -3448.3794801902
   115 OT CG       0.12E+00    7.3     0.00003387     -3448.3795011288 -1.22E-03
     - OT LS       0.10E+00    3.9                    -3448.3804519713
   116 OT CG       0.10E+00    7.3     0.00004218     -3448.3805113722 -1.01E-03
     - OT LS       0.39E-01    3.9                    -3448.3794883374
   117 OT CG       0.39E-01    7.3     0.00003279     -3448.3811781622 -6.67E-04
     - OT LS       0.10E+00    3.9                    -3448.3818044395
   118 OT CG       0.10E+00    7.3     0.00004245     -3448.3821629849 -9.85E-04
     - OT LS       0.24E-01    3.9                    -3448.3788932814
   119 OT CG       0.24E-01    7.3     0.00003864     -3448.3824459931 -2.83E-04
     - OT LS       0.34E-01    3.9                    -3448.3827167135
   120 OT CG       0.34E-01    7.3     0.00003865     -3448.3827400526 -2.94E-04
     - OT LS       0.23E-01    3.9                    -3448.3829604160
   121 OT CG       0.23E-01    7.2     0.00002759     -3448.3830181555 -2.78E-04
     - OT LS       0.60E-01    3.9                    -3448.3832556403
   122 OT CG       0.60E-01    7.3     0.00002671     -3448.3834019455 -3.84E-04
     - OT LS       0.12E+00    3.9                    -3448.3839489941
   123 OT CG       0.12E+00    7.3     0.00004996     -3448.3841511869 -7.49E-04
     - OT LS       0.50E-01    3.9                    -3448.3830173684
   124 OT CG       0.50E-01    7.3     0.00004878     -3448.3850278886 -8.77E-04
     - OT LS       0.60E-01    3.9                    -3448.3860568496
   125 OT CG       0.60E-01    7.2     0.00003232     -3448.3860835904 -1.06E-03
     - OT LS       0.57E-01    3.9                    -3448.3865911638
   126 OT CG       0.57E-01    7.3     0.00002575     -3448.3865914345 -5.08E-04
     - OT LS       0.13E+00    3.9                    -3448.3871017946
   127 OT CG       0.13E+00    7.3     0.00003103     -3448.3873538425 -7.62E-04
     - OT LS       0.73E-01    3.9                    -3448.3875454990
   128 OT CG       0.73E-01    7.2     0.00002250     -3448.3879601202 -6.06E-04
     - OT LS       0.11E+00    3.9                    -3448.3883837719
   129 OT CG       0.11E+00    7.3     0.00002616     -3448.3884463488 -4.86E-04
     - OT LS       0.13E+00    3.9                    -3448.3891937854
   130 OT CG       0.13E+00    7.3     0.00002741     -3448.3892095164 -7.63E-04
     - OT LS       0.79E-01    3.9                    -3448.3894840355
   131 OT CG       0.79E-01    7.3     0.00002365     -3448.3897147685 -5.05E-04
     - OT LS       0.96E-01    3.9                    -3448.3901538707
   132 OT CG       0.96E-01    7.3     0.00002535     -3448.3901655238 -4.51E-04
     - OT LS       0.13E+00    3.9                    -3448.3908134427
   133 OT CG       0.13E+00    7.3     0.00002691     -3448.3908593006 -6.94E-04
     - OT LS       0.89E-01    3.9                    -3448.3912844200
   134 OT CG       0.89E-01    7.2     0.00002493     -3448.3913989276 -5.40E-04
     - OT LS       0.92E-01    3.9                    -3448.3918799663
   135 OT CG       0.92E-01    7.3     0.00002654     -3448.3918804023 -4.81E-04
     - OT LS       0.98E-01    3.9                    -3448.3924607313
   136 OT CG       0.98E-01    7.2     0.00002538     -3448.3924626324 -5.82E-04
     - OT LS       0.67E-01    3.9                    -3448.3927452202
   137 OT CG       0.67E-01    7.3     0.00002367     -3448.3928281670 -3.66E-04
     - OT LS       0.89E-01    3.9                    -3448.3932226711
   138 OT CG       0.89E-01    7.3     0.00002175     -3448.3932476164 -4.19E-04
     - OT LS       0.13E+00    3.9                    -3448.3937128192
   139 OT CG       0.13E+00    7.3     0.00002246     -3448.3937637765 -5.16E-04
     - OT LS       0.98E-01    3.9                    -3448.3941370203
   140 OT CG       0.98E-01    7.3     0.00002238     -3448.3941808740 -4.17E-04
     - OT LS       0.84E-01    3.9                    -3448.3945252971
   141 OT CG       0.84E-01    7.3     0.00002406     -3448.3945361124 -3.55E-04
     - OT LS       0.54E-01    3.9                    -3448.3947181470
   142 OT CG       0.54E-01    7.3     0.00003366     -3448.3948129011 -2.77E-04
     - OT LS       0.42E-01    3.9                    -3448.3951812738
   143 OT CG       0.42E-01    7.3     0.00002281     -3448.3952222210 -4.09E-04
     - OT LS       0.80E-01    3.9                    -3448.3954889736
   144 OT CG       0.80E-01    7.3     0.00003543     -3448.3955563529 -3.34E-04
     - OT LS       0.16E-01    3.9                    -3448.3931187849
   145 OT CG       0.16E-01    7.3     0.00003431     -3448.3956534991 -9.71E-05
     - OT LS       0.15E-01    3.9                    -3448.3957154651
   146 OT CG       0.15E-01    7.3     0.00004341     -3448.3957159467 -6.24E-05
     - OT LS       0.11E-01    3.9                    -3448.3958699424
   147 OT CG       0.11E-01    7.3     0.00001483     -3448.3958912665 -1.75E-04
     - OT LS       0.44E-01    3.9                    -3448.3959299464
   148 OT CG       0.44E-01    7.2     0.00001124     -3448.3960184225 -1.27E-04
     - OT LS       0.31E-01    3.9                    -3448.3960453945
   149 OT CG       0.31E-01    7.3     0.00001690     -3448.3960520657 -3.36E-05
     - OT LS       0.94E-01    3.9                    -3448.3961758505
   150 OT CG       0.94E-01    7.3     0.00001961     -3448.3962777338 -2.26E-04
     - OT LS       0.53E-01    3.9                    -3448.3963445648
   151 OT CG       0.53E-01    7.2     0.00002022     -3448.3964503388 -1.73E-04
     - OT LS       0.82E-02    3.9                    -3448.3956294807
   152 OT CG       0.82E-02    7.3     0.00001183     -3448.3964798759 -2.95E-05
     - OT LS       0.33E-01    3.9                    -3448.3964993827
   153 OT CG       0.33E-01    7.3     0.00001028     -3448.3965534619 -7.36E-05
     - OT LS       0.19E-01    3.9                    -3448.3965622498
   154 OT CG       0.19E-01    7.3     0.00001599     -3448.3965708331 -1.74E-05
     - OT LS       0.51E-01    3.9                    -3448.3966385218
   155 OT CG       0.51E-01    7.3     0.00001395     -3448.3966806119 -1.10E-04
     - OT LS       0.64E-01    3.9                    -3448.3967813899
   156 OT CG       0.64E-01    7.3     0.00001251     -3448.3967860158 -1.05E-04
     - OT LS       0.81E-02    3.9                    -3448.3962755877
   157 OT CG       0.81E-02    7.3     0.00001122     -3448.3967960479 -1.00E-05
     - OT LS       0.32E-01    3.9                    -3448.3968115089
   158 OT CG       0.32E-01    7.3     0.00001158     -3448.3968504835 -5.44E-05
     - OT LS       0.61E-02    3.9                    -3448.3967228180
   159 OT CG       0.61E-02    7.3     0.00000759     -3448.3968580295 -7.55E-06
     - OT LS       0.24E-01    3.9                    -3448.3968640689
   160 OT CG       0.24E-01    7.2     0.00000752     -3448.3968811810 -2.32E-05
     - OT LS       0.93E-02    3.9                    -3448.3968737558
   161 OT CG       0.93E-02    7.2     0.00000855     -3448.3968856915 -4.51E-06
     - OT LS       0.37E-01    3.9                    -3448.3968970500
   162 OT CG       0.37E-01    7.3     0.00000845     -3448.3969292637 -4.36E-05
     - OT LS       0.58E-02    3.9                    -3448.3968308947
   163 OT CG       0.58E-02    7.2     0.00000633     -3448.3969328864 -3.62E-06
     - OT LS       0.23E-01    3.9                    -3448.3969369274
   164 OT CG       0.23E-01    7.2     0.00000596     -3448.3969489379 -1.61E-05
     - OT LS       0.13E-01    3.9                    -3448.3969506058
   165 OT CG       0.13E-01    7.2     0.00000967     -3448.3969529202 -3.98E-06
     - OT LS       0.53E-01    3.9                    -3448.3969736903
   166 OT CG       0.53E-01    7.3     0.00000981     -3448.3970343919 -8.15E-05
     - OT LS       0.41E-02    3.9                    -3448.3965588203
   167 OT CG       0.41E-02    7.3     0.00000565     -3448.3970379095 -3.52E-06
     - OT LS       0.16E-01    3.9                    -3448.3970401834
   168 OT CG       0.16E-01    7.2     0.00000561     -3448.3970469805 -9.07E-06
     - OT LS       0.13E-01    3.9                    -3448.3970500375
   169 OT CG       0.13E-01    7.3     0.00000999     -3448.3970503498 -3.37E-06
     - OT LS       0.51E-01    3.9                    -3448.3970715998
   170 OT CG       0.51E-01    7.2     0.00001094     -3448.3971346302 -8.43E-05
     - OT LS       0.34E-02    3.9                    -3448.3964074696
   171 OT CG       0.34E-02    7.2     0.00000574     -3448.3971384178 -3.79E-06
     - OT LS       0.13E-01    3.9                    -3448.3971403436
   172 OT CG       0.13E-01    7.3     0.00000640     -3448.3971460791 -7.66E-06
     - OT LS       0.64E-02    3.9                    -3448.3971455441
   173 OT CG       0.64E-02    7.2     0.00000813     -3448.3971485485 -2.47E-06
     - OT LS       0.25E-01    3.9                    -3448.3971555946
   174 OT CG       0.25E-01    7.3     0.00001572     -3448.3971755343 -2.70E-05
     - OT LS       0.40E-02    3.9                    -3448.3968402125
   175 OT CG       0.40E-02    7.3     0.00000999     -3448.3971891873 -1.37E-05
     - OT LS       0.16E-01    3.9                    -3448.3971976045
   176 OT CG       0.16E-01    7.3     0.00003115     -3448.3972163058 -2.71E-05
     - OT LS       0.13E-01    3.9                    -3448.3973620645
   177 OT CG       0.13E-01    7.3     0.00007916     -3448.3973929349 -1.77E-04
     - OT LS       0.11E-01    3.9                    -3448.3978283216
   178 OT CG       0.11E-01    7.3     0.00028747     -3448.3974285242 -3.56E-05
     - OT LS       0.34E-02    3.9                    -3448.3665375906
   179 OT CG       0.34E-02    7.3     0.00003190     -3448.3982182538 -7.90E-04
     - OT LS       0.13E-01    3.9                    -3448.3982747633
   180 OT CG       0.13E-01    7.3     0.00002621     -3448.3984284291 -2.10E-04
     - OT LS       0.54E-01    3.9                    -3448.3985718676
   181 OT CG       0.54E-01    7.2     0.00001302     -3448.3988520249 -4.24E-04
     - OT LS       0.22E+00    3.9                    -3448.3989922405
   182 OT CG       0.22E+00    7.3     0.00001595     -3448.3992480819 -3.96E-04
     - OT LS       0.13E+00    3.9                    -3448.3994235077
   183 OT CG       0.13E+00    7.3     0.00002569     -3448.3995866515 -3.39E-04
     - OT LS       0.36E-01    3.9                    -3448.3984862945
   184 OT CG       0.36E-01    7.2     0.00001116     -3448.3997838863 -1.97E-04
     - OT LS       0.14E+00    3.9                    -3448.3998546681
   185 OT CG       0.14E+00    7.3     0.00000980     -3448.4000212473 -2.37E-04
     - OT LS       0.19E+00    3.9                    -3448.4001840293
   186 OT CG       0.19E+00    7.2     0.00002017     -3448.4001941259 -1.73E-04
     - OT LS       0.40E-01    3.9                    -3448.3983973528
   187 OT CG       0.40E-01    7.2     0.00000935     -3448.4003294633 -1.35E-04
     - OT LS       0.16E+00    3.9                    -3448.4003823836
   188 OT CG       0.16E+00    7.3     0.00001446     -3448.4004780593 -1.49E-04
     - OT LS       0.35E+00    3.9                    -3448.4010166379
   189 OT CG       0.35E+00    7.3     0.00002984     -3448.4012491025 -7.71E-04
     - OT LS       0.14E+00    3.9                    -3448.4000351645
   190 OT CG       0.14E+00    7.3     0.00002508     -3448.4023251748 -1.08E-03
     - OT LS       0.48E-01    3.9                    -3448.4015964397
   191 OT CG       0.48E-01    7.2     0.00000813     -3448.4025815663 -2.56E-04
     - OT LS       0.19E+00    3.9                    -3448.4026293750
   192 OT CG       0.19E+00    7.3     0.00000811     -3448.4027002399 -1.19E-04
     - OT LS       0.18E+00    3.9                    -3448.4028058016
   193 OT CG       0.18E+00    7.3     0.00001305     -3448.4028068303 -1.07E-04
     - OT LS       0.14E+00    3.9                    -3448.4029916922
   194 OT CG       0.14E+00    7.2     0.00001534     -3448.4030058550 -1.99E-04
     - OT LS       0.80E-01    3.9                    -3448.4030817129
   195 OT CG       0.80E-01    7.3     0.00001106     -3448.4031654234 -1.60E-04
     - OT LS       0.14E+00    3.9                    -3448.4032828024
   196 OT CG       0.14E+00    7.3     0.00000713     -3448.4033074626 -1.42E-04
     - OT LS       0.15E+00    3.9                    -3448.4033705009
   197 OT CG       0.15E+00    7.3     0.00000924     -3448.4033707729 -6.33E-05
     - OT LS       0.24E+00    3.9                    -3448.4035165787
   198 OT CG       0.24E+00    7.2     0.00001278     -3448.4035409443 -1.70E-04
     - OT LS       0.24E+00    3.9                    -3448.4038726556
   199 OT CG       0.24E+00    7.3     0.00001982     -3448.4038727800 -3.32E-04
     - OT LS       0.12E+00    3.9                    -3448.4038421131
   200 OT CG       0.12E+00    7.3     0.00001846     -3448.4042628419 -3.90E-04
     - OT LS       0.16E+00    3.9                    -3448.4046899545
   201 OT CG       0.16E+00    7.2     0.00002240     -3448.4047193034 -4.56E-04
     - OT LS       0.84E-01    3.9                    -3448.4047912879
   202 OT CG       0.84E-01    7.3     0.00002027     -3448.4050704998 -3.51E-04
     - OT LS       0.15E+00    3.9                    -3448.4054908033
   203 OT CG       0.15E+00    7.3     0.00002578     -3448.4055892898 -5.19E-04
     - OT LS       0.15E+00    3.9                    -3448.4064174338
   204 OT CG       0.15E+00    7.3     0.00008595     -3448.3922841282  1.33E-02
     - OT LS       0.61E-01    3.9                    -3448.3879995219
   205 OT CG       0.61E-01    7.3     0.00011693     -3448.3946521224 -2.37E-03
     - OT LS       0.26E-01    3.9                    -3448.3934118414
   206 OT CG       0.26E-01    7.2     0.00007358     -3448.4019919255 -7.34E-03
     - OT LS       0.73E-02    3.9                    -3448.4019432030
   207 OT CG       0.73E-02    7.3     0.00007206     -3448.4020012138 -9.29E-06
     - OT LS       0.29E-01    3.9                    -3448.4026185265
   208 OT CG       0.29E-01    7.3     0.00005063     -3448.4041493359 -2.15E-03
     - OT LS       0.12E+00    3.9                    -3448.4052683725
   209 OT CG       0.12E+00    7.2     0.00002379     -3448.4067806167 -2.63E-03
     - OT LS       0.11E+00    3.9                    -3448.4073144568
   210 OT CG       0.11E+00    7.3     0.00001775     -3448.4073175503 -5.37E-04
     - OT LS       0.76E-01    3.9                    -3448.4074821426
   211 OT CG       0.76E-01    7.2     0.00001307     -3448.4075204809 -2.03E-04
     - OT LS       0.76E-03    3.9                    -3448.3928774910
   212 OT CG       0.76E-03    7.3     0.00001297     -3448.4075226717 -2.19E-06
     - OT LS       0.30E-02    3.9                    -3448.4075248255
   213 OT CG       0.30E-02    7.2     0.00001235     -3448.4075311275 -8.46E-06
     - OT LS       0.12E-01    3.9                    -3448.4075388017
   214 OT CG       0.12E-01    7.2     0.00008383     -3448.3932427035  1.43E-02
     - OT LS       0.49E-01    3.9                    -3448.4030958386
   215 OT CG       0.49E-01    7.3     0.00045043     -3448.3264585079  6.68E-02
     - OT LS       0.37E-01    3.9                    -3448.3823133610
   216 OT CG       0.37E-01    7.3     0.00012854     -3448.3897875258 -6.33E-02
     - OT LS       0.14E+00    3.9                    -3448.3984909482
   217 OT CG       0.14E+00    7.2     0.00014926     -3448.3920676352 -2.28E-03
     - OT LS       0.14E-02    3.9                    -3448.3184272329
   218 OT CG       0.14E-02    7.2     0.00014992     -3448.3918973710  1.70E-04
     - OT LS       0.58E-02    3.9                    -3448.3924380763
   219 OT CG       0.58E-02    7.3     0.00013689     -3448.3939880315 -2.09E-03
     - OT LS       0.23E-01    3.9                    -3448.3957375481
   220 OT CG       0.23E-01    7.2     0.00009388     -3448.4000708516 -6.08E-03
     - OT LS       0.87E-01    3.9                    -3448.4030519455
   221 OT CG       0.87E-01    7.2     0.00009856     -3448.3961354386  3.94E-03
     - OT LS       0.50E-01    3.9                    -3448.3984878201
   222 OT CG       0.50E-01    7.3     0.00005603     -3448.4024659567 -6.33E-03
     - OT LS       0.13E+00    3.9                    -3448.4046077958
   223 OT CG       0.13E+00    7.3     0.00008929     -3448.4010459353  1.42E-03
     - OT LS       0.49E-01    3.9                    -3448.3958181558
   224 OT CG       0.49E-01    7.3     0.00008971     -3448.3935319406  7.51E-03
     - OT LS       0.20E+00    3.9                    -3448.4066491842
   225 OT CG       0.20E+00    7.3     0.00017280     -3448.3828767307  1.07E-02
     - OT LS       0.69E-01    3.9                    -3448.3397631673
   226 OT CG       0.69E-01    7.2     0.00012349     -3448.3991307171 -1.63E-02
     - OT LS       0.55E-01    3.9                    -3448.4053351150
   227 OT CG       0.55E-01    7.3     0.00005430     -3448.4058715789 -6.74E-03
     - OT LS       0.67E-01    3.9                    -3448.4074703845
   228 OT CG       0.67E-01    7.3     0.00002891     -3448.4075247127 -1.65E-03
     - OT LS       0.27E-02    3.9                    -3448.3970496781
   229 OT CG       0.27E-02    7.2     0.00002808     -3448.4075629789 -3.83E-05
     - OT LS       0.11E-01    3.9                    -3448.4075988995
   230 OT CG       0.11E-01    7.3     0.00002382     -3448.4076979258 -1.35E-04
     - OT LS       0.44E-01    3.9                    -3448.4077964296
   231 OT CG       0.44E-01    7.2     0.00001508     -3448.4080087215 -3.11E-04
     - OT LS       0.44E-03    3.9                    -3448.3973441205
   232 OT CG       0.44E-03    7.2     0.00001505     -3448.4080104106 -1.69E-06
     - OT LS       0.18E-02    3.9                    -3448.4080120931
   233 OT CG       0.18E-02    7.3     0.00001494     -3448.4080171214 -6.71E-06
     - OT LS       0.70E-02    3.9                    -3448.4080237299
   234 OT CG       0.70E-02    7.2     0.00001449     -3448.4080432527 -2.61E-05
     - OT LS       0.28E-01    3.9                    -3448.4080678542
   235 OT CG       0.28E-01    7.2     0.00007178     -3448.3973776978  1.07E-02
     - OT LS       0.28E-03    3.9                    -3448.4060951248
   236 OT CG       0.28E-03    7.3     0.00007169     -3448.3973657213  1.20E-05
     - OT LS       0.11E-02    3.9                    -3448.3973901555
   237 OT CG       0.11E-02    7.2     0.00007119     -3448.3974632018 -9.75E-05
     - OT LS       0.45E-02    3.9                    -3448.4081455940
   238 OT CG       0.45E-02    7.3     0.00001305     -3448.4081213422 -1.07E-02
     - OT LS       0.18E-01    3.9                    -3448.4081295528
   239 OT CG       0.18E-01    7.2     0.00001265     -3448.4081529789 -3.16E-05
     - OT LS       0.18E-03    3.9                    -3448.3977348661
   240 OT CG       0.18E-03    7.2     0.00001264     -3448.4081534661 -4.87E-07
     - OT LS       0.72E-03    3.9                    -3448.4081539528
   241 OT CG       0.72E-03    7.2     0.00001261     -3448.4081554112 -1.95E-06
     - OT LS       0.29E-02    3.9                    -3448.4081573473
   242 OT CG       0.29E-02    7.2     0.00001250     -3448.4081631287 -7.72E-06
     - OT LS       0.12E-01    3.9                    -3448.4081707052
   243 OT CG       0.12E-01    7.2     0.00006927     -3448.3977602982  1.04E-02
     - OT LS       0.46E-01    3.9                    -3448.3986627997
   244 OT CG       0.46E-01    7.3     0.00002876     -3448.4072959816 -9.54E-03
     - OT LS       0.12E+00    3.9                    -3448.4078123749
   245 OT CG       0.12E+00    7.2     0.00008320     -3448.3970375398  1.03E-02
     - OT LS       0.12E-01    3.9                    -3448.3612762411
   246 OT CG       0.12E-01    7.3     0.00004427     -3448.4077499561 -1.07E-02
     - OT LS       0.32E-01    3.9                    -3448.4079481750
   247 OT CG       0.32E-01    7.3     0.00002466     -3448.4080830979 -3.33E-04
     - OT LS       0.10E+00    3.9                    -3448.4083616180
   248 OT CG       0.10E+00    7.3     0.00001191     -3448.4086008672 -5.18E-04
     - OT LS       0.48E-01    3.9                    -3448.4085891459
   249 OT CG       0.48E-01    7.3     0.00000780     -3448.4086581043 -5.72E-05
     - OT LS       0.19E+00    3.9                    -3448.4087016993
   250 OT CG       0.19E+00    7.3     0.00008335     -3448.3975258008  1.11E-02

  Leaving inner SCF loop after reaching   250 steps.


  Electronic density on regular grids:      -2034.0000000002       -0.0000000002
  Core density on regular grids:             2033.9999999986       -0.0000000014
  Total charge density on r-space grids:       -0.0000000016
  Total charge density g-space grids:          -0.0000000016

  Overlap energy of the core charge distribution:               0.00011754517808
  Self energy of the core charge distribution:              -8859.91288883521156
  Core Hamiltonian energy:                                   2558.61303696812138
  Hartree energy:                                            3797.32979478715060
  Exchange-correlation energy:                               -947.33352159016499
  Dispersion energy:                                            2.59242725979682
  Electric field interaction energy:                            0.31350806428071

  Total energy:                                             -3448.39752580084951

  outer SCF iter =    1 RMS gradient =   0.83E-04 energy =      -3448.3975258008

  ----------------------------------- OT ---------------------------------------
  Minimizer      : CG                  : conjugate gradient
  Preconditioner : FULL_ALL            : diagonalization, state selective
  Precond_solver : DEFAULT
  Line search    : 2PNT                : 2 energies, one gradient
  stepsize       :    0.15000000                  energy_gap     :    0.00100000
  eps_taylor     :   0.10000E-15                  max_taylor     :             4
  ----------------------------------- OT ---------------------------------------

  Step     Update method      Time    Convergence         Total energy    Change
  ------------------------------------------------------------------------------
     1 OT CG       0.15E+00   22.5     0.00031823     -3448.3948372326  2.69E-03
     - OT LS       0.18E-01    3.8                    -3447.5845701423
     2 OT CG       0.18E-01    7.2     0.00067109     -3448.3901620422  4.68E-03
     - OT LS       0.72E-01    3.8                    -3448.9203461567
     3 OT CG       0.72E-01    7.3     0.00811070     -3447.5844653272  8.06E-01
     - OT LS       0.31E-01    3.9                    -3433.6071718172
     4 OT CG       0.31E-01    7.2     0.00677992     -3429.2796353982  1.83E+01
     - OT LS       0.30E-01    3.9                    -3442.4405292625
     5 OT CG       0.30E-01    7.2     0.00714685     -3443.2377141294 -1.40E+01
     - OT LS       0.16E-01    3.9                    -3445.4191675802
     6 OT CG       0.16E-01    7.3     0.00150255     -3446.4470412159 -3.21E+00
     - OT LS       0.28E-01    3.9                    -3446.8601270764
     7 OT CG       0.28E-01    7.3     0.00153818     -3447.0772820348 -6.30E-01
     - OT LS       0.11E+00    3.9                    -3448.2570559225
     8 OT CG       0.11E+00    7.3     0.01189758     -3439.8220390396  7.26E+00
     - OT LS       0.55E-01    3.9                    -3429.4167899233
     9 OT CG       0.55E-01    7.3     0.01231455     -3434.0763385213  5.75E+00
     - OT LS       0.29E-01    3.9                    -3439.3957057430
    10 OT CG       0.29E-01    7.3     0.00597939     -3446.0922817795 -1.20E+01
     - OT LS       0.13E-01    3.9                    -3443.6435959138
    11 OT CG       0.13E-01    7.3     0.00169194     -3446.9514676186 -8.59E-01
     - OT LS       0.39E-01    3.9                    -3447.2924321961
    12 OT CG       0.39E-01    7.3     0.00105584     -3447.3620707222 -4.11E-01
     - OT LS       0.16E+00    3.9                    -3448.0761579685
    13 OT CG       0.16E+00    7.2     0.00555682     -3446.4378253786  9.24E-01
     - OT LS       0.68E-01    3.9                    -3433.6693044284
    14 OT CG       0.68E-01    7.3     0.00145177     -3446.6623491494 -2.25E-01
     - OT LS       0.56E-01    3.9                    -3447.4433354049
    15 OT CG       0.56E-01    7.3     0.00247834     -3447.3894882357 -7.27E-01
     - OT LS       0.26E-01    3.9                    -3446.7377905914
    16 OT CG       0.26E-01    7.2     0.00130328     -3447.3416221899  4.79E-02
     - OT LS       0.10E+00    3.9                    -3448.0333939148
    17 OT CG       0.10E+00    7.2     0.00561522     -3446.6920664031  6.50E-01
     - OT LS       0.50E-01    3.9                    -3445.1660399489
    18 OT CG       0.50E-01    7.2     0.00310322     -3445.5834182339  1.11E+00
     - OT LS       0.22E-01    3.9                    -3444.4230300055
    19 OT CG       0.22E-01    7.3     0.00217173     -3447.4640766543 -1.88E+00
     - OT LS       0.18E-01    3.9                    -3447.6340967237
    20 OT CG       0.18E-01    7.2     0.00180570     -3447.9332256472 -4.69E-01
     - OT LS       0.11E-01    3.9                    -3448.1037377303
    21 OT CG       0.11E-01    7.2     0.00194819     -3447.8950681551  3.82E-02
     - OT LS       0.49E-02    3.9                    -3447.7881750207
    22 OT CG       0.49E-02    7.3     0.00122997     -3447.6644196872  2.31E-01
     - OT LS       0.20E-01    3.9                    -3447.7748911111
    23 OT CG       0.20E-01    7.2     0.00090934     -3447.9249791307 -2.61E-01
     - OT LS       0.46E-01    3.9                    -3448.1383579823
    24 OT CG       0.46E-01    7.2     0.00063644     -3448.3369783882 -4.12E-01
     - OT LS       0.18E+00    3.9                    -3448.6760504891
    25 OT CG       0.18E+00    7.2     0.00545954     -3446.5916482377  1.75E+00
     - OT LS       0.80E-01    3.9                    -3432.5905615972
    26 OT CG       0.80E-01    7.2     0.00946070     -3443.1230429000  3.47E+00
     - OT LS       0.35E-01    3.9                    -3426.4492091353
    27 OT CG       0.35E-01    7.3     0.00202185     -3446.5720601764 -3.45E+00
     - OT LS       0.30E-01    3.9                    -3447.4347826192
    28 OT CG       0.30E-01    7.2     0.00131495     -3447.4067546987 -8.35E-01
     - OT LS       0.24E-01    3.9                    -3447.7608198878
    29 OT CG       0.24E-01    7.3     0.00080103     -3447.7221597167 -3.15E-01
     - OT LS       0.39E-01    3.9                    -3447.9177057199
    30 OT CG       0.39E-01    7.2     0.00231308     -3447.8857873472 -1.64E-01
     - OT LS       0.92E-03    3.9                    -3442.1980697651
    31 OT CG       0.92E-03    7.4     0.00108652     -3448.3170436933 -4.31E-01
     - OT LS       0.20E-04    3.8                    -3447.9217175638
    32 OT CG       0.20E-04    7.3     0.00108384     -3448.3174519799 -4.08E-04
     - OT LS       0.82E-04    3.9                    -3448.3178582500
    33 OT CG       0.82E-04    7.3     0.00107297     -3448.3190709390 -1.62E-03
     - OT LS       0.33E-03    3.9                    -3448.3206574629
    34 OT CG       0.33E-03    7.2     0.00102760     -3448.3253154387 -6.24E-03
     - OT LS       0.13E-02    3.9                    -3448.3310357943
    35 OT CG       0.13E-02    7.2     0.00218828     -3447.9508281983  3.74E-01
     - OT LS       0.17E-02    3.9                    -3448.0880928983
    36 OT CG       0.17E-02    7.3     0.00053583     -3448.1025005390 -1.52E-01
     - OT LS       0.67E-02    3.9                    -3448.1103666966
    37 OT CG       0.67E-02    7.3     0.00045739     -3448.1305263117 -2.80E-02
     - OT LS       0.27E-01    3.9                    -3448.1559869095
    38 OT CG       0.27E-01    7.3     0.00044125     -3448.2151598010 -8.46E-02
     - OT LS       0.28E-01    3.9                    -3448.2690525227
    39 OT CG       0.28E-01    7.3     0.00072496     -3448.2701636397 -5.50E-02
     - OT LS       0.11E+00    3.9                    -3448.6827018647
    40 OT CG       0.11E+00    7.2     0.00636534     -3447.0030841043  1.27E+00
     - OT LS       0.45E-01    3.9                    -3426.9870698758
    41 OT CG       0.45E-01    7.2     0.00156737     -3447.5123274279 -5.09E-01
     - OT LS       0.30E-01    3.9                    -3447.9864546871
    42 OT CG       0.30E-01    7.3     0.00103775     -3448.4871061927 -9.75E-01
     - OT LS       0.15E-01    3.9                    -3448.4800602844
    43 OT CG       0.15E-01    7.3     0.00343262     -3447.8652085900  6.22E-01
     - OT LS       0.66E-02    3.9                    -3447.2656495907
    44 OT CG       0.66E-02    7.2     0.00224621     -3448.0898185705 -2.25E-01
     - OT LS       0.59E-02    3.9                    -3448.3075111801
    45 OT CG       0.59E-02    7.2     0.00074460     -3448.3007659963 -2.11E-01
     - OT LS       0.24E-01    3.9                    -3448.3568612295
    46 OT CG       0.24E-01    7.2     0.00060070     -3448.4797037198 -1.79E-01
     - OT LS       0.38E-01    3.9                    -3448.5825852486
    47 OT CG       0.38E-01    7.3     0.00138331     -3448.5943134454 -1.15E-01
     - OT LS       0.12E-01    3.9                    -3448.0782464109
    48 OT CG       0.12E-01    7.2     0.00386610     -3448.2709038999  3.23E-01
     - OT LS       0.56E-02    3.9                    -3448.1253202367
    49 OT CG       0.56E-02    7.2     0.00071732     -3448.7899082972 -5.19E-01
     - OT LS       0.22E-01    3.9                    -3448.8087626480
    50 OT CG       0.22E-01    7.2     0.00058113     -3448.4722895527  3.18E-01
     - OT LS       0.20E-01    3.9                    -3448.5335301764
    51 OT CG       0.20E-01    7.2     0.00040520     -3448.5328804147 -6.06E-02
     - OT LS       0.34E-01    3.8                    -3448.5753082393
    52 OT CG       0.34E-01    7.3     0.00070654     -3448.5620065807 -2.91E-02
     - OT LS       0.16E-01    3.9                    -3448.5568825293
    53 OT CG       0.16E-01    7.2     0.00213259     -3448.4839859084  7.80E-02
     - OT LS       0.74E-02    3.9                    -3448.3490995599
    54 OT CG       0.74E-02    7.2     0.00066359     -3448.6250070393 -1.41E-01
     - OT LS       0.86E-02    3.9                    -3448.6380696722
    55 OT CG       0.86E-02    7.2     0.00053977     -3448.6408103147 -1.58E-02
     - OT LS       0.34E-01    3.9                    -3448.6804693240
    56 OT CG       0.34E-01    7.2     0.00209578     -3448.5058463341  1.35E-01
     - OT LS       0.89E-02    3.9                    -3446.1069952722
    57 OT CG       0.89E-02    7.2     0.00070460     -3448.6568868185 -1.51E-01
     - OT LS       0.11E-01    3.9                    -3448.7010368958
    58 OT CG       0.11E-01    7.3     0.00025565     -3448.6991613222 -4.23E-02
     - OT LS       0.43E-01    3.9                    -3448.7076834436
    59 OT CG       0.43E-01    7.3     0.00037693     -3448.7253904948 -2.62E-02
     - OT LS       0.16E-01    3.9                    -3448.6778732860
    60 OT CG       0.16E-01    7.2     0.00032175     -3448.7443154246 -1.89E-02
     - OT LS       0.62E-01    3.9                    -3448.7654506536
    61 OT CG       0.62E-01    7.2     0.00049326     -3448.8015072849 -5.72E-02
     - OT LS       0.25E+00    3.8                    -3449.0697392063
    62 OT CG       0.25E+00    7.2     0.00968528     -3442.2227341899  6.58E+00
     - OT LS       0.12E+00    3.9                    -3433.5504680156
    63 OT CG       0.12E+00    7.2     0.01133654     -3438.6699614448  3.55E+00
     - OT LS       0.55E-01    3.9                    -3419.6803920249
    64 OT CG       0.55E-01    7.2     0.01287786     -3432.8546928682  5.82E+00
     - OT LS       0.28E-01    3.8                    -3434.2196778572
    65 OT CG       0.28E-01    7.2     0.00722366     -3438.2808268239 -5.43E+00
     - OT LS       0.16E-01    3.9                    -3441.3455705186
    66 OT CG       0.16E-01    7.2     0.00343203     -3442.1689562641 -3.89E+00
     - OT LS       0.83E-02    3.9                    -3442.2007095028
    67 OT CG       0.83E-02    7.2     0.00173275     -3442.7613269075 -5.92E-01
     - OT LS       0.33E-01    3.9                    -3443.1293170501
    68 OT CG       0.33E-01    7.3     0.00159205     -3443.2384718295 -4.77E-01
     - OT LS       0.74E-01    3.9                    -3444.4557586179
    69 OT CG       0.74E-01    7.2     0.00110689     -3445.6961930605 -2.46E+00
     - OT LS       0.64E-01    3.9                    -3446.3891126923
    70 OT CG       0.64E-01    7.2     0.00244120     -3446.4621231315 -7.66E-01
     - OT LS       0.25E-01    3.9                    -3444.8836502051
    71 OT CG       0.25E-01    7.3     0.00212261     -3447.9474760327 -1.49E+00
     - OT LS       0.11E-01    3.8                    -3447.6817324874
    72 OT CG       0.11E-01    7.3     0.00104230     -3447.7100926135  2.37E-01
     - OT LS       0.13E-01    3.9                    -3447.8285637743
    73 OT CG       0.13E-01    7.3     0.00056888     -3447.8233735442 -1.13E-01
     - OT LS       0.53E-01    3.9                    -3447.8955262108
    74 OT CG       0.53E-01    7.3     0.00039504     -3448.0547274448 -2.31E-01
     - OT LS       0.13E+00    3.9                    -3448.1750342133
    75 OT CG       0.13E+00    7.3     0.00044580     -3447.8360462575  2.19E-01
     - OT LS       0.10E+00    3.9                    -3448.0520152518
    76 OT CG       0.10E+00    7.2     0.00068988     -3448.0472618091 -2.11E-01
     - OT LS       0.43E-01    3.9                    -3447.8882410750
    77 OT CG       0.43E-01    7.3     0.00101166     -3448.7245325706 -6.77E-01
     - OT LS       0.12E-01    3.9                    -3448.1503730363
    78 OT CG       0.12E-01    7.2     0.00125216     -3448.1543557153  5.70E-01
     - OT LS       0.71E-02    3.9                    -3448.2130963406
    79 OT CG       0.71E-02    7.2     0.00046209     -3448.2434487589 -8.91E-02
     - OT LS       0.28E-01    3.9                    -3448.2795607355
    80 OT CG       0.28E-01    7.3     0.00033937     -3448.3261923393 -8.27E-02
     - OT LS       0.32E-01    3.9                    -3448.3566986237
    81 OT CG       0.32E-01    7.2     0.00046598     -3448.3454394893 -1.92E-02
     - OT LS       0.29E-01    3.9                    -3448.3983947556
    82 OT CG       0.29E-01    7.3     0.00071145     -3448.4017134488 -5.63E-02
     - OT LS       0.16E-01    3.9                    -3448.4229190348
    83 OT CG       0.16E-01    7.2     0.00039551     -3448.4583276900 -5.66E-02
     - OT LS       0.25E-01    3.9                    -3448.4866586340
    84 OT CG       0.25E-01    7.3     0.00023979     -3448.4959209581 -3.76E-02
     - OT LS       0.19E-01    3.9                    -3448.5055514675
    85 OT CG       0.19E-01    7.2     0.00023986     -3448.5033061324 -7.39E-03
     - OT LS       0.77E-01    3.9                    -3448.5288502730
    86 OT CG       0.77E-01    7.2     0.00046734     -3448.5342605636 -3.10E-02
     - OT LS       0.95E-02    3.9                    -3448.0892359290
    87 OT CG       0.95E-02    7.2     0.00039938     -3448.5593470496 -2.51E-02
     - OT LS       0.14E-01    3.9                    -3448.5765255547
    88 OT CG       0.14E-01    7.3     0.00022454     -3448.5797729835 -2.04E-02
     - OT LS       0.76E-02    3.9                    -3448.5804790817
    89 OT CG       0.76E-02    7.2     0.00017823     -3448.5860544480 -6.28E-03
     - OT LS       0.15E-02    3.9                    -3448.5799234105
    90 OT CG       0.15E-02    7.2     0.00017258     -3448.5868534916 -7.99E-04
     - OT LS       0.60E-02    3.9                    -3448.5876042742
    91 OT CG       0.60E-02    7.2     0.00019782     -3448.5798850223  6.97E-03
     - OT LS       0.30E-02    3.9                    -3448.5798415791
    92 OT CG       0.30E-02    7.3     0.00024134     -3448.5688577533  1.10E-02
     - OT LS       0.12E-01    3.9                    -3448.5808342997
    93 OT CG       0.12E-01    7.3     0.00020564     -3448.5839838309 -1.51E-02
     - OT LS       0.48E-01    3.8                    -3448.5920845270
    94 OT CG       0.48E-01    7.3     0.00014773     -3448.6095124049 -2.55E-02
     - OT LS       0.22E-01    8.1                    -3448.6079259434
    95 OT CG       0.22E-01    7.8     0.00017417     -3448.6079474445  1.56E-03
     - OT LS       0.88E-01    3.9                    -3448.6259446418
    96 OT CG       0.88E-01    7.3     0.00025707     -3448.6369359925 -2.90E-02
     - OT LS       0.33E-01    3.9                    -3448.6081408755
    97 OT CG       0.33E-01    7.3     0.00035925     -3448.6481666384 -1.12E-02
     - OT LS       0.15E-01    3.9                    -3448.6443912936
    98 OT CG       0.15E-01    7.2     0.00027549     -3448.6674764835 -1.93E-02
     - OT LS       0.80E-02    3.9                    -3448.6682851040
    99 OT CG       0.80E-02    7.2     0.00020454     -3448.6761014443 -8.62E-03
     - OT LS       0.16E-02    3.9                    -3448.6677764571
   100 OT CG       0.16E-02    7.2     0.00019721     -3448.6772347995 -1.13E-03
     - OT LS       0.69E-04    3.9                    -3448.6656418742
   101 OT CG       0.69E-04    7.3     0.00019692     -3448.6772802221 -4.54E-05
     - OT LS       0.28E-03    3.8                    -3448.6773255126
   102 OT CG       0.28E-03    7.3     0.00019578     -3448.6774609888 -1.81E-04
     - OT LS       0.11E-02    3.9                    -3448.6776396684
   103 OT CG       0.11E-02    7.3     0.00031364     -3448.6655546408  1.19E-02
     - OT LS       0.44E-02    3.9                    -3448.6682612151
   104 OT CG       0.44E-02    7.2     0.00016454     -3448.6841851497 -1.86E-02
     - OT LS       0.39E-03    3.9                    -3448.6709753717
   105 OT CG       0.39E-03    7.3     0.00016313     -3448.6844336549 -2.49E-04
     - OT LS       0.16E-02    3.9                    -3448.6846086164
   106 OT CG       0.16E-02    7.2     0.00015839     -3448.6851257292 -6.92E-04
     - OT LS       0.52E-04    3.9                    -3448.6759130374
   107 OT CG       0.52E-04    7.2     0.00024427     -3448.6756878005  9.44E-03
     - OT LS       0.21E-03    3.9                    -3448.6757568453
   108 OT CG       0.21E-03    7.2     0.00024299     -3448.6759632464 -2.75E-04
     - OT LS       0.84E-03    3.9                    -3448.6761715517
   109 OT CG       0.84E-03    7.3     0.00023611     -3448.6767874502 -8.24E-04
     - OT LS       0.33E-02    3.9                    -3448.6775661097
   110 OT CG       0.33E-02    7.2     0.00016780     -3448.6857601141 -8.97E-03
     - OT LS       0.45E-03    3.9                    -3448.6812511257
   111 OT CG       0.45E-03    7.2     0.00021024     -3448.6799729764  5.79E-03
     - OT LS       0.18E-02    3.9                    -3448.6805952663
   112 OT CG       0.18E-02    7.3     0.00019654     -3448.6824001788 -2.43E-03
     - OT LS       0.72E-02    3.9                    -3448.6835518958
   113 OT CG       0.72E-02    7.2     0.00016216     -3448.6866631514 -4.26E-03
     - OT LS       0.29E-01    3.9                    -3448.6896525252
   114 OT CG       0.29E-01    7.3     0.00015681     -3448.6890322905 -2.37E-03
     - OT LS       0.66E-01    3.9                    -3448.7005916384
   115 OT CG       0.66E-01    7.3     0.00016995     -3448.7023515650 -1.33E-02
     - OT LS       0.36E-01    3.9                    -3448.7058912735
   116 OT CG       0.36E-01    7.3     0.00016070     -3448.7030859672 -7.34E-04
     - OT LS       0.35E-01    3.9                    -3448.7126847528
   117 OT CG       0.35E-01    7.3     0.00019147     -3448.7128063784 -9.72E-03
     - OT LS       0.14E+00    3.9                    -3448.7215066235
   118 OT CG       0.14E+00    7.3     0.00089657     -3448.6329192451  7.99E-02
     - OT LS       0.39E-01    3.9                    -3447.0425210431
   119 OT CG       0.39E-01    7.3     0.00130166     -3448.4435738438  1.89E-01
     - OT LS       0.28E-01    3.9                    -3448.7875482190
   120 OT CG       0.28E-01    7.2     0.00269303     -3448.4394375587  4.14E-03
     - OT LS       0.12E-01    3.9                    -3447.8846826336
   121 OT CG       0.12E-01    7.3     0.00091294     -3448.6034742877 -1.64E-01
     - OT LS       0.19E-01    3.8                    -3448.7187818033
   122 OT CG       0.19E-01    7.2     0.00035520     -3448.7264176597 -1.23E-01
     - OT LS       0.20E-01    3.9                    -3448.7379893780
   123 OT CG       0.20E-01    7.2     0.00043977     -3448.7381167436 -1.17E-02
     - OT LS       0.15E-01    3.9                    -3448.7600014088
   124 OT CG       0.15E-01    7.2     0.00016476     -3448.7641808784 -2.61E-02
     - OT LS       0.59E-01    3.9                    -3448.7708729253
   125 OT CG       0.59E-01    7.2     0.00020435     -3448.7645729133 -3.92E-04
     - OT LS       0.28E-02    3.9                    -3448.2813744927
   126 OT CG       0.28E-02    7.2     0.00019495     -3448.7668130584 -2.24E-03
     - OT LS       0.11E-01    3.9                    -3448.7685077213
   127 OT CG       0.11E-01    7.2     0.00015401     -3448.7727138358 -5.90E-03
     - OT LS       0.44E-01    3.9                    -3448.7768923081
   128 OT CG       0.44E-01    7.2     0.00014061     -3448.7829076746 -1.02E-02
     - OT LS       0.43E-01    3.9                    -3448.7907552524
   129 OT CG       0.43E-01    7.2     0.00018405     -3448.7907508002 -7.84E-03
     - OT LS       0.99E-03    3.9                    -3448.2538971739
   130 OT CG       0.99E-03    7.2     0.00017964     -3448.7913260609 -5.75E-04
     - OT LS       0.40E-02    3.9                    -3448.7918507853
   131 OT CG       0.40E-02    7.3     0.00014120     -3448.7932399263 -1.91E-03
     - OT LS       0.16E-01    3.8                    -3448.7944593733
   132 OT CG       0.16E-01    7.2     0.00071476     -3448.2662661132  5.27E-01
     - OT LS       0.63E-01    3.9                    -3448.7218894798
   133 OT CG       0.63E-01    7.2     0.00145203     -3447.1153250079  1.15E+00
     - OT LS       0.47E-01    3.9                    -3447.8650461966
   134 OT CG       0.47E-01    7.3     0.00213437     -3448.9828477270 -1.87E+00
     - OT LS       0.15E-01    3.8                    -3446.7847158107
   135 OT CG       0.15E-01    7.2     0.00046466     -3448.7523925771  2.30E-01
     - OT LS       0.59E-01    3.9                    -3448.7578727532
   136 OT CG       0.59E-01    7.3     0.00068393     -3448.7262901114  2.61E-02
     - OT LS       0.63E-01    3.9                    -3448.9409383329
   137 OT CG       0.63E-01    7.2     0.00297774     -3448.8583771943 -1.32E-01
     - OT LS       0.28E-01    3.9                    -3447.7728829162
   138 OT CG       0.28E-01    7.2     0.00162890     -3447.9014573300  9.57E-01
     - OT LS       0.11E+00    3.9                    -3448.3095392687
   139 OT CG       0.11E+00    7.3     0.00344830     -3447.8444061246  5.71E-02
     - OT LS       0.55E-01    3.9                    -3447.1536201165
   140 OT CG       0.55E-01    7.2     0.00122051     -3448.1492528678 -3.05E-01
     - OT LS       0.32E-01    3.9                    -3448.3508215952
   141 OT CG       0.32E-01    7.2     0.00043128     -3448.4080907237 -2.59E-01
     - OT LS       0.77E-01    3.8                    -3448.4848828029
   142 OT CG       0.77E-01    7.2     0.00033661     -3448.5756566229 -1.68E-01
     - OT LS       0.31E+00    3.9                    -3448.9887757423
   143 OT CG       0.31E+00    7.3     0.00111872     -3448.9457462225 -3.70E-01
     - OT LS       0.13E+00    3.9                    -3447.6734410295
   144 OT CG       0.13E+00    7.2     0.00054751     -3448.2643402747  6.81E-01
     - OT LS       0.88E-01    3.9                    -3448.4338864084
   145 OT CG       0.88E-01    7.3     0.00041039     -3448.4425762370 -1.78E-01
     - OT LS       0.35E+00    3.9                    -3448.9843908203
   146 OT CG       0.35E+00    7.2     0.00341030     -3448.1886036709  2.54E-01
     - OT LS       0.16E+00    3.9                    -3442.3350770756
   147 OT CG       0.16E+00    7.2     0.00487450     -3446.0396201312  2.15E+00
     - OT LS       0.76E-01    3.9                    -3440.6895140205
   148 OT CG       0.76E-01    7.2     0.00160182     -3446.9694366445 -9.30E-01
     - OT LS       0.68E-01    3.9                    -3447.7734804525
   149 OT CG       0.68E-01    7.2     0.00071598     -3447.7536336706 -7.84E-01
     - OT LS       0.23E-01    3.9                    -3447.4922743825
   150 OT CG       0.23E-01    7.3     0.00066392     -3447.9437448023 -1.90E-01
     - OT LS       0.93E-01    3.9                    -3448.0966925755
   151 OT CG       0.93E-01    7.2     0.00096703     -3448.1451207477 -2.01E-01
     - OT LS       0.41E-01    3.8                    -3447.8964237929
   152 OT CG       0.41E-01    7.2     0.00045080     -3448.5718679689 -4.27E-01
     - OT LS       0.72E-01    3.9                    -3448.7044230267
   153 OT CG       0.72E-01    7.2     0.00119946     -3448.3241151266  2.48E-01
     - OT LS       0.56E-02    3.9                    -3441.2416264245
   154 OT CG       0.56E-02    7.2     0.00153504     -3448.3638735215 -3.98E-02
     - OT LS       0.21E-01    3.9                    -3448.5389060284
   155 OT CG       0.21E-01    7.2     0.00045777     -3448.7431995157 -3.79E-01
     - OT LS       0.16E-02    3.9                    -3448.3459122675
   156 OT CG       0.16E-02    7.2     0.00095498     -3448.2452831060  4.98E-01
     - OT LS       0.64E-02    3.9                    -3448.2921616836
   157 OT CG       0.64E-02    7.2     0.00037958     -3448.3791982141 -1.34E-01
     - OT LS       0.23E-01    3.9                    -3448.3926293239
   158 OT CG       0.23E-01    7.2     0.00029454     -3448.4230974803 -4.39E-02
     - OT LS       0.57E-01    3.9                    -3448.4506702020
   159 OT CG       0.57E-01    7.2     0.00023693     -3448.4887265677 -6.56E-02
     - OT LS       0.20E+00    3.9                    -3448.5379790076
   160 OT CG       0.20E+00    7.2     0.00029501     -3448.0369658475  4.52E-01
     - OT LS       0.42E+00    3.9                    -3448.3428506637
   161 OT CG       0.42E+00    7.2     0.00168669     -3447.4746169157  5.62E-01
     - OT LS       0.20E+00    3.8                    -3446.1775935266
   162 OT CG       0.20E+00    7.2     0.00061233     -3448.8014042485 -1.33E+00
     - OT LS       0.86E-01    3.9                    -3448.6509193484
   163 OT CG       0.86E-01    7.2     0.00053762     -3448.7553576899  4.60E-02
     - OT LS       0.17E-01    3.9                    -3448.1199782260
   164 OT CG       0.17E-01    7.3     0.00040978     -3448.8164924847 -6.11E-02
     - OT LS       0.30E-01    3.9                    -3448.8504512586
   165 OT CG       0.30E-01    7.2     0.00040156     -3448.8780834817 -6.16E-02
     - OT LS       0.50E-01    3.9                    -3448.9454278472
   166 OT CG       0.50E-01    7.2     0.00033298     -3448.9603525534 -8.23E-02
     - OT LS       0.75E-01    3.9                    -3449.0345764014
   167 OT CG       0.75E-01    7.2     0.00031792     -3449.0527756711 -9.24E-02
     - OT LS       0.40E-01    3.9                    -3449.0642574635
   168 OT CG       0.40E-01    7.2     0.00029787     -3449.0831324347 -3.04E-02
     - OT LS       0.35E-02    3.9                    -3448.7917035908
   169 OT CG       0.35E-02    7.2     0.00024476     -3449.0906076542 -7.48E-03
     - OT LS       0.14E-01    3.8                    -3449.0944902245
   170 OT CG       0.14E-01    7.2     0.00023808     -3449.0980854961 -7.48E-03
     - OT LS       0.44E-03    3.9                    -3448.8317751949
   171 OT CG       0.44E-03    7.2     0.00023592     -3449.0986401905 -5.55E-04
     - OT LS       0.17E-02    3.8                    -3449.0990478891
   172 OT CG       0.17E-02    7.2     0.00022702     -3449.1002470773 -1.61E-03
     - OT LS       0.70E-02    3.9                    -3449.1017356505
   173 OT CG       0.70E-02    7.2     0.00016610     -3449.1089957528 -8.75E-03
     - OT LS       0.28E-01    3.9                    -3449.1125764338
   174 OT CG       0.28E-01    7.2     0.00054580     -3448.8375278319  2.71E-01
     - OT LS       0.18E-01    3.9                    -3448.9071271527
   175 OT CG       0.18E-01    7.2     0.00025026     -3448.9206777616 -8.31E-02
     - OT LS       0.26E-01    3.9                    -3448.9332632959
   176 OT CG       0.26E-01    7.2     0.00021674     -3448.9385964456 -1.79E-02
     - OT LS       0.19E-01    3.9                    -3448.9455942673
   177 OT CG       0.19E-01    7.3     0.00023247     -3448.9396678437 -1.07E-03
     - OT LS       0.74E-01    3.9                    -3448.9630684804
   178 OT CG       0.74E-01    7.3     0.00026574     -3448.9809627717 -4.13E-02
     - OT LS       0.56E-02    3.9                    -3448.5956360837
   179 OT CG       0.56E-02    7.3     0.00025194     -3448.9859852817 -5.02E-03
     - OT LS       0.23E-01    3.9                    -3448.9914140296
   180 OT CG       0.23E-01    7.3     0.00013173     -3448.9988284554 -1.28E-02
     - OT LS       0.90E-01    3.9                    -3449.0073452208
   181 OT CG       0.90E-01    7.2     0.00014764     -3449.0224270200 -2.36E-02
     - OT LS       0.11E+00    3.8                    -3449.0497156481
   182 OT CG       0.11E+00    7.2     0.00010824     -3449.0631829910 -4.08E-02
     - OT LS       0.13E+00    3.9                    -3449.0787718504
   183 OT CG       0.13E+00    7.2     0.00027322     -3449.0662847376 -3.10E-03
     - OT LS       0.89E-02    3.9                    -3448.2650724953
   184 OT CG       0.89E-02    7.2     0.00032798     -3449.0693440054 -3.06E-03
     - OT LS       0.17E-01    3.9                    -3449.0833740374
   185 OT CG       0.17E-01    7.2     0.00019660     -3449.0869630651 -1.76E-02
     - OT LS       0.67E-01    3.9                    -3449.0980442912
   186 OT CG       0.67E-01    7.2     0.00027151     -3448.7689393922  3.18E-01
     - OT LS       0.70E-02    3.9                    -3448.2436508811
   187 OT CG       0.70E-02    7.2     0.00017208     -3448.7886812094 -1.97E-02
     - OT LS       0.28E-01    3.9                    -3448.7920163687
   188 OT CG       0.28E-01    7.2     0.00018632     -3448.7901962137 -1.52E-03
     - OT LS       0.51E-03    3.9                    -3448.2305879461
   189 OT CG       0.51E-03    7.2     0.00013497     -3448.8004783408 -1.03E-02
     - OT LS       0.20E-02    3.9                    -3448.8006456856
   190 OT CG       0.20E-02    7.2     0.00020703     -3448.7779506190  2.25E-02
     - OT LS       0.81E-02    3.9                    -3449.0614845201
   191 OT CG       0.81E-02    7.3     0.00043700     -3449.0869672602 -3.09E-01
     - OT LS       0.84E-02    3.8                    -3449.1092628554
   192 OT CG       0.84E-02    7.2     0.00021161     -3449.1098649952 -2.29E-02
     - OT LS       0.15E-01    3.9                    -3449.1144750254
   193 OT CG       0.15E-01    7.2     0.00014093     -3449.1192723116 -9.41E-03
     - OT LS       0.99E-02    3.9                    -3449.1205065979
   194 OT CG       0.99E-02    7.2     0.00013662     -3449.1192818576 -9.55E-06
     - OT LS       0.11E-01    3.9                    -3449.1213252132
   195 OT CG       0.11E-01    7.3     0.00012587     -3449.1214169561 -2.14E-03
     - OT LS       0.43E-01    3.9                    -3449.1258203673
   196 OT CG       0.43E-01    7.3     0.00012133     -3449.1273026533 -5.89E-03
     - OT LS       0.20E-01    3.9                    -3449.1266139283
   197 OT CG       0.20E-01    7.3     0.00008142     -3449.1364814580 -9.18E-03
     - OT LS       0.21E-02    3.9                    -3449.1259954900
   198 OT CG       0.21E-02    7.3     0.00012562     -3449.1316596632  4.82E-03
     - OT LS       0.13E-03    3.9                    -3449.1272835036
   199 OT CG       0.13E-03    7.3     0.00012566     -3449.1316976231 -3.80E-05
     - OT LS       0.53E-03    3.9                    -3449.1317329047
   200 OT CG       0.53E-03    7.2     0.00012493     -3449.1318384440 -1.41E-04
     - OT LS       0.21E-02    3.9                    -3449.1319776116
   201 OT CG       0.21E-02    7.3     0.00010735     -3449.1320718544 -2.33E-04
     - OT LS       0.85E-02    3.9                    -3449.1369773833
   202 OT CG       0.85E-02    7.3     0.00011657     -3449.1339433214 -1.87E-03
     - OT LS       0.50E-02    3.9                    -3449.1345131807
   203 OT CG       0.50E-02    7.2     0.00012761     -3449.1327612517  1.18E-03
     - OT LS       0.20E-01    3.9                    -3449.1352175836
   204 OT CG       0.20E-01    7.2     0.00008415     -3449.1406302521 -7.87E-03
     - OT LS       0.70E-01    3.9                    -3449.1433964221
   205 OT CG       0.70E-01    7.3     0.00059631     -3448.7911987606  3.49E-01
     - OT LS       0.91E-02    3.9                    -3447.1192118225
   206 OT CG       0.91E-02    7.3     0.00039068     -3449.1321719994 -3.41E-01
     - OT LS       0.17E-01    3.9                    -3449.1493239327
   207 OT CG       0.17E-01    7.2     0.00015396     -3449.1550542503 -2.29E-02
     - OT LS       0.24E-02    3.9                    -3449.1368515517
   208 OT CG       0.24E-02    7.3     0.00015139     -3449.1560292450 -9.75E-04
     - OT LS       0.80E-04    3.9                    -3449.1433760601
   209 OT CG       0.80E-04    7.3     0.00024058     -3449.1424923567  1.35E-02
     - OT LS       0.32E-03    3.9                    -3449.1426176008
   210 OT CG       0.32E-03    7.3     0.00023819     -3449.1429915648 -4.99E-04
     - OT LS       0.13E-02    3.9                    -3449.1432966687
   211 OT CG       0.13E-02    7.2     0.00023134     -3449.1441985519 -1.21E-03
     - OT LS       0.51E-02    3.8                    -3449.1453377485
   212 OT CG       0.51E-02    7.2     0.00020622     -3449.1485545899 -4.36E-03
     - OT LS       0.20E-01    3.9                    -3449.1520550930
   213 OT CG       0.20E-01    7.3     0.00014614     -3449.1605028968 -1.19E-02
     - OT LS       0.21E-03    3.9                    -3448.8107490140
   214 OT CG       0.21E-03    7.2     0.00014587     -3449.1605790217 -7.61E-05
     - OT LS       0.84E-03    4.2                    -3449.1606548662
   215 OT CG       0.84E-03    7.2     0.00014480     -3449.1608815616 -3.03E-04
     - OT LS       0.34E-02    5.6                    -3449.1611796919
   216 OT CG       0.34E-02    7.3     0.00014064     -3449.1620610354 -1.18E-03
     - OT LS       0.14E-01    3.9                    -3449.1632792500
   217 OT CG       0.14E-01    7.3     0.00018744     -3449.1549904705  7.07E-03
     - OT LS       0.54E-01    3.9                    -3449.1718143687
   218 OT CG       0.54E-01    7.3     0.00010392     -3449.1842479288 -2.93E-02
     - OT LS       0.75E-01    3.9                    -3449.1928856386
   219 OT CG       0.75E-01    7.3     0.00013122     -3449.1934209288 -9.17E-03
     - OT LS       0.30E-01    3.9                    -3449.1885810813
   220 OT CG       0.30E-01    7.3     0.00009260     -3449.1926417343  7.79E-04
     - OT LS       0.65E-02    3.9                    -3449.1839238096
   221 OT CG       0.65E-02    7.3     0.00012719     -3449.1816500183  1.10E-02
     - OT LS       0.26E-01    3.9                    -3449.1855892114
   222 OT CG       0.26E-01    7.3     0.00009415     -3449.1932186988 -1.16E-02
     - OT LS       0.10E+00    3.9                    -3449.1967051274
   223 OT CG       0.10E+00    7.2     0.00015877     -3449.1923515909  8.67E-04
     - OT LS       0.42E-01    3.9                    -3449.1823703879
   224 OT CG       0.42E-01    7.3     0.00016547     -3449.1971346167 -4.78E-03
     - OT LS       0.20E-01    3.9                    -3449.1955224742
   225 OT CG       0.20E-01    7.3     0.00008643     -3449.2076923433 -1.06E-02
     - OT LS       0.74E-02    3.9                    -3449.2067207663
   226 OT CG       0.74E-02    7.3     0.00007063     -3449.2086224636 -9.30E-04
     - OT LS       0.76E-03    3.9                    -3449.2062509781
   227 OT CG       0.76E-03    7.3     0.00006981     -3449.2086864520 -6.40E-05
     - OT LS       0.31E-02    3.9                    -3449.2087489757
   228 OT CG       0.31E-02    7.3     0.00006679     -3449.2089322802 -2.46E-04
     - OT LS       0.12E-01    3.9                    -3449.2091581480
   229 OT CG       0.12E-01    7.2     0.00005847     -3449.2097827934 -8.51E-04
     - OT LS       0.34E-03    3.9                    -3449.1978791477
   230 OT CG       0.34E-03    7.3     0.00005835     -3449.2098025275 -1.97E-05
     - OT LS       0.14E-02    3.9                    -3449.2098221826
   231 OT CG       0.14E-02    7.3     0.00005789     -3449.2098809125 -7.84E-05
     - OT LS       0.14E-04    3.8                    -3449.1977215807
   232 OT CG       0.14E-04    7.3     0.00005788     -3449.2098816871 -7.75E-07
     - OT LS       0.55E-04    3.9                    -3449.2098824615
   233 OT CG       0.55E-04    7.2     0.00005787     -3449.2098847845 -3.10E-06
     - OT LS       0.22E-03    3.9                    -3449.2098878799
   234 OT CG       0.22E-03    7.2     0.00011777     -3449.1977007777  1.22E-02
     - OT LS       0.87E-03    3.9                    -3449.1977680902
   235 OT CG       0.87E-03    7.2     0.00011705     -3449.1979682948 -2.68E-04
     - OT LS       0.35E-02    3.9                    -3449.1981701636
   236 OT CG       0.35E-02    7.2     0.00011325     -3449.1987658020 -7.98E-04
     - OT LS       0.14E-01    3.9                    -3449.1995124813
   237 OT CG       0.14E-01    7.3     0.00014808     -3449.1965246442  2.24E-03
     - OT LS       0.56E-01    3.9                    -3449.2053921598
   238 OT CG       0.56E-01    7.2     0.00019783     -3449.1899045946  6.62E-03
     - OT LS       0.38E-01    3.9                    -3449.1998728811
   239 OT CG       0.38E-01    7.2     0.00014254     -3449.2065079595 -1.66E-02
     - OT LS       0.17E-01    3.9                    -3449.2060594459
   240 OT CG       0.17E-01    7.3     0.00008372     -3449.2101769091 -3.67E-03
     - OT LS       0.54E-01    3.9                    -3449.2118030679
   241 OT CG       0.54E-01    7.3     0.00017670     -3449.2048117284  5.37E-03
     - OT LS       0.28E-01    3.9                    -3449.2063990542
   242 OT CG       0.28E-01    7.3     0.00012145     -3449.2111667038 -6.35E-03
     - OT LS       0.13E-01    3.9                    -3449.2104327213
   243 OT CG       0.13E-01    7.3     0.00011016     -3449.2131545416 -1.99E-03
     - OT LS       0.70E-02    3.9                    -3449.2131813589
   244 OT CG       0.70E-02    7.2     0.00011249     -3449.2132452753 -9.07E-05
     - OT LS       0.28E-01    3.9                    -3449.2146808507
   245 OT CG       0.28E-01    7.3     0.00010667     -3449.2112828245  1.96E-03
     - OT LS       0.27E-01    3.9                    -3449.2140913104
   246 OT CG       0.27E-01    7.2     0.00013152     -3449.2142631713 -2.98E-03
     - OT LS       0.11E-01    3.9                    -3449.2128146370
   247 OT CG       0.11E-01    7.3     0.00013145     -3449.2110243622  3.24E-03
     - OT LS       0.46E-01    3.9                    -3449.2147553629
   248 OT CG       0.46E-01    7.3     0.00013887     -3449.2103039211  7.20E-04
     - OT LS       0.18E+00    3.9                    -3449.2228408234
   249 OT CG       0.18E+00    7.3     0.00058003     -3449.1627213499  4.76E-02
     - OT LS       0.37E-01    3.9                    -3447.6649251934
   250 OT CG       0.37E-01    7.2     0.00039263     -3448.3903771357  7.72E-01

  Leaving inner SCF loop after reaching   250 steps.


  Electronic density on regular grids:      -2034.0000000061       -0.0000000061
  Core density on regular grids:             2033.9999999986       -0.0000000014
  Total charge density on r-space grids:       -0.0000000075
  Total charge density g-space grids:          -0.0000000075

  Overlap energy of the core charge distribution:               0.00011754517808
  Self energy of the core charge distribution:              -8859.91288883521156
  Core Hamiltonian energy:                                   2559.06231885032003
  Hartree energy:                                            3796.92888040004345
  Exchange-correlation energy:                               -947.83256154208129
  Dispersion energy:                                            2.59317947929700
  Electric field interaction energy:                            0.77057696677440

  Total energy:                                             -3448.39037713568041

  outer SCF iter =    2 RMS gradient =   0.39E-03 energy =      -3448.3903771357

  ----------------------------------- OT ---------------------------------------
  Minimizer      : CG                  : conjugate gradient
  Preconditioner : FULL_ALL            : diagonalization, state selective
  Precond_solver : DEFAULT
  Line search    : 2PNT                : 2 energies, one gradient
  stepsize       :    0.15000000                  energy_gap     :    0.00100000
  eps_taylor     :   0.10000E-15                  max_taylor     :             4
  ----------------------------------- OT ---------------------------------------

  Step     Update method      Time    Convergence         Total energy    Change
  ------------------------------------------------------------------------------
     1 OT CG       0.15E+00   22.6     0.00081125     -3448.4393601186 -4.90E-02
     - OT LS       0.78E-01    3.9                    -3448.4982512271
     2 OT CG       0.78E-01    7.2     0.00260633     -3449.1928641824 -7.54E-01
     - OT LS       0.33E-01    3.9                    -3447.7552254730
     3 OT CG       0.33E-01    7.2     0.00396172     -3446.1565205152  3.04E+00
     - OT LS       0.76E-01    3.9                    -3447.9527397511
     4 OT CG       0.76E-01    7.2     0.01230466     -3442.3027896549  3.85E+00
     - OT LS       0.36E-01    3.9                    -3434.3046098411
     5 OT CG       0.36E-01    7.2     0.01891700     -3429.1411702694  1.32E+01
     - OT LS       0.18E-01    3.9                    -3431.6724772551
     6 OT CG       0.18E-01    7.3     0.00863777     -3444.7742414924 -1.56E+01
     - OT LS       0.12E-01    3.9                    -3447.4688639036
     7 OT CG       0.12E-01    7.3     0.00460155     -3447.6880263303 -2.91E+00
     - OT LS       0.68E-02    3.9                    -3448.2850822177
     8 OT CG       0.68E-02    7.3     0.00106254     -3448.6032267000 -9.15E-01
     - OT LS       0.14E-01    3.9                    -3448.7002469813
     9 OT CG       0.14E-01    7.2     0.00092941     -3448.4158733834  1.87E-01
     - OT LS       0.26E-01    3.9                    -3448.5647294933
    10 OT CG       0.26E-01    7.3     0.00082688     -3448.6545219090 -2.39E-01
     - OT LS       0.10E+00    3.9                    -3449.1605675579
    11 OT CG       0.10E+00    7.3     0.00639492     -3447.7173219558  9.37E-01
     - OT LS       0.46E-01    3.9                    -3438.3621723609
    12 OT CG       0.46E-01    7.2     0.00299780     -3448.6757607857 -9.58E-01
     - OT LS       0.20E-01    3.9                    -3448.1525542204
    13 OT CG       0.20E-01    7.3     0.00122217     -3448.9079926110 -2.32E-01
     - OT LS       0.49E-02    3.9                    -3448.3903621867
    14 OT CG       0.49E-02    7.3     0.00154415     -3448.6402724036  2.68E-01
     - OT LS       0.11E-02    3.9                    -3448.2944241613
    15 OT CG       0.11E-02    7.2     0.00130318     -3448.6909428828 -5.07E-02
     - OT LS       0.31E-02    3.9                    -3448.7160885369
    16 OT CG       0.31E-02    7.2     0.00177923     -3448.2074824352  4.83E-01
     - OT LS       0.60E-02    3.9                    -3448.3786889631
    17 OT CG       0.60E-02    7.3     0.00077558     -3448.4262357565 -2.19E-01
     - OT LS       0.24E-01    3.9                    -3448.4829512607
    18 OT CG       0.24E-01    7.3     0.00057332     -3448.6199196429 -1.94E-01
     - OT LS       0.50E-01    3.9                    -3448.7276617806
    19 OT CG       0.50E-01    7.2     0.00076647     -3448.8025007232 -1.83E-01
     - OT LS       0.28E-01    3.9                    -3448.8629240248
    20 OT CG       0.28E-01    7.2     0.00053941     -3448.9386889493 -1.36E-01
     - OT LS       0.20E-01    3.9                    -3448.9836223254
    21 OT CG       0.20E-01    7.2     0.00069305     -3448.9906379002 -5.19E-02
     - OT LS       0.19E-01    3.9                    -3449.0522472371
    22 OT CG       0.19E-01    7.2     0.00072752     -3449.0525507130 -6.19E-02
     - OT LS       0.15E-01    3.9                    -3449.1074077175
    23 OT CG       0.15E-01    7.2     0.00049673     -3449.1037233798 -5.12E-02
     - OT LS       0.15E-01    3.9                    -3449.1372539247
    24 OT CG       0.15E-01    7.3     0.00038682     -3449.1381295503 -3.44E-02
     - OT LS       0.50E-01    3.9                    -3449.1733839870
    25 OT CG       0.50E-01    7.3     0.00047471     -3449.4748097259 -3.37E-01
     - OT LS       0.30E-02    3.9                    -3448.8857986042
    26 OT CG       0.30E-02    7.3     0.00136850     -3449.1222966077  3.53E-01
     - OT LS       0.77E-02    3.9                    -3449.2065454743
    27 OT CG       0.77E-02    7.2     0.00097612     -3449.1981518159 -7.59E-02
     - OT LS       0.90E-02    3.9                    -3449.2667809593
    28 OT CG       0.90E-02    7.2     0.00037587     -3449.2648440141 -6.67E-02
     - OT LS       0.36E-01    3.9                    -3449.2800692759
    29 OT CG       0.36E-01    7.3     0.00030953     -3449.2955753385 -3.07E-02
     - OT LS       0.30E-01    3.9                    -3449.3200966332
    30 OT CG       0.30E-01    7.2     0.00026869     -3449.3154780425 -1.99E-02
     - OT LS       0.37E-01    3.9                    -3449.3407859575
    31 OT CG       0.37E-01    7.3     0.00015987     -3449.3501040723 -3.46E-02
     - OT LS       0.15E-01    3.9                    -3449.3462190069
    32 OT CG       0.15E-01    7.3     0.00028864     -3449.3474453533  2.66E-03
     - OT LS       0.25E-01    3.9                    -3449.3708336599
    33 OT CG       0.25E-01    7.3     0.00028017     -3449.3639705130 -1.65E-02
     - OT LS       0.27E-01    3.9                    -3449.3807866567
    34 OT CG       0.27E-01    7.3     0.00041625     -3449.3695429011 -5.57E-03
     - OT LS       0.18E-02    3.9                    -3448.8619382025
    35 OT CG       0.18E-02    7.3     0.00039122     -3449.3749233246 -5.38E-03
     - OT LS       0.73E-02    3.9                    -3449.3792584010
    36 OT CG       0.73E-02    7.3     0.00020960     -3449.3957827364 -2.09E-02
     - OT LS       0.29E-01    3.9                    -3449.4013149293
    37 OT CG       0.29E-01    7.2     0.00020342     -3449.4022907294 -6.51E-03
     - OT LS       0.52E-01    3.9                    -3449.4205354215
    38 OT CG       0.52E-01    7.2     0.00024202     -3449.4291380964 -2.68E-02
     - OT LS       0.30E-02    3.9                    -3448.9618241877
    39 OT CG       0.30E-02    7.2     0.00020397     -3449.4322597369 -3.12E-03
     - OT LS       0.12E-01    3.9                    -3449.4341519344
    40 OT CG       0.12E-01    7.3     0.00014093     -3449.4375942552 -5.33E-03
     - OT LS       0.47E-01    3.9                    -3449.4416767883
    41 OT CG       0.47E-01    7.2     0.00033094     -3449.4294078561  8.19E-03
     - OT LS       0.19E+00    3.9                    -3449.6704141768
    42 OT CG       0.19E+00    7.2     0.00330002     -3448.7933864198  6.36E-01
     - OT LS       0.88E-01    3.9                    -3445.8798363189
    43 OT CG       0.88E-01    7.3     0.00098406     -3448.2038168626  5.90E-01
     - OT LS       0.95E-01    3.9                    -3448.9901477298
    44 OT CG       0.95E-01    7.3     0.00312453     -3448.8172538188 -6.13E-01
     - OT LS       0.48E-01    3.9                    -3448.8917338239
    45 OT CG       0.48E-01    7.2     0.00174258     -3447.7219391979  1.10E+00
     - OT LS       0.40E-01    3.9                    -3448.7087901610
    46 OT CG       0.40E-01    7.3     0.00078896     -3449.4351639580 -1.71E+00
     - OT LS       0.16E+00    3.9                    -3449.6004937744
    47 OT CG       0.16E+00    7.2     0.00093622     -3449.5931354574 -1.58E-01
     - OT LS       0.60E-01    3.9                    -3449.0796360872
    48 OT CG       0.60E-01    7.3     0.00051042     -3449.4949307647  9.82E-02
     - OT LS       0.11E+00    3.9                    -3449.6522610058
    49 OT CG       0.11E+00    7.3     0.00083251     -3449.3710410097  1.24E-01
     - OT LS       0.36E-01    3.9                    -3448.7554327651
    50 OT CG       0.36E-01    7.3     0.00201492     -3448.8568703465  5.14E-01
     - OT LS       0.16E-01    3.9                    -3448.6534299517
    51 OT CG       0.16E-01    7.3     0.00082068     -3449.4293638275 -5.72E-01
     - OT LS       0.15E-01    3.9                    -3449.4768864788
    52 OT CG       0.15E-01    7.2     0.00055680     -3449.4762429734 -4.69E-02
     - OT LS       0.32E-01    3.9                    -3449.5369716870
    53 OT CG       0.32E-01    7.3     0.00045044     -3449.6016850260 -1.25E-01
     - OT LS       0.23E-02    3.9                    -3448.9024404014
    54 OT CG       0.23E-02    7.2     0.00042467     -3449.6026426363 -9.58E-04
     - OT LS       0.93E-02    3.9                    -3449.6095772442
    55 OT CG       0.93E-02    7.2     0.00037583     -3449.6350963560 -3.25E-02
     - OT LS       0.37E-01    3.9                    -3449.6566873545
    56 OT CG       0.37E-01    7.3     0.00028928     -3449.7132627117 -7.82E-02
     - OT LS       0.15E+00    3.9                    -3449.7604603097
    57 OT CG       0.15E+00    7.2     0.00024714     -3449.8224006655 -1.09E-01
     - OT LS       0.15E-01    3.9                    -3449.1595528773
    58 OT CG       0.15E-01    7.3     0.00136185     -3449.0239728110  7.98E-01
     - OT LS       0.64E-02    3.9                    -3448.7326894314
    59 OT CG       0.64E-02    7.2     0.00072652     -3449.0959731255 -7.20E-02
     - OT LS       0.26E-01    3.9                    -3449.1516268531
    60 OT CG       0.26E-01    7.2     0.00050161     -3449.2441937608 -1.48E-01
     - OT LS       0.25E-01    3.9                    -3449.3021581702
    61 OT CG       0.25E-01    7.2     0.00042323     -3449.3010113065 -5.68E-02
     - OT LS       0.35E-01    3.9                    -3449.3529639011
    62 OT CG       0.35E-01    7.2     0.00045057     -3449.3477807630 -4.68E-02
     - OT LS       0.39E-01    3.9                    -3449.4065315785
    63 OT CG       0.39E-01    7.3     0.00029112     -3449.4063969475 -5.86E-02
     - OT LS       0.75E-01    3.9                    -3449.4460257910
    64 OT CG       0.75E-01    7.3     0.00057706     -3449.4320049530 -2.56E-02
     - OT LS       0.86E-01    3.9                    -3449.5107708675
    65 OT CG       0.86E-01    7.3     0.00215032     -3449.3449916578  8.70E-02
     - OT LS       0.37E-01    3.9                    -3448.3742944983
    66 OT CG       0.37E-01    7.2     0.00145752     -3448.2613576160  1.08E+00
     - OT LS       0.15E+00    3.9                    -3449.0959741211
    67 OT CG       0.15E+00    7.2     0.00349082     -3448.4015702754 -1.40E-01
     - OT LS       0.52E-01    3.9                    -3440.7855223820
    68 OT CG       0.52E-01    7.2     0.00355291     -3447.5297128271  8.72E-01
     - OT LS       0.26E-01    3.9                    -3447.5216704751
    69 OT CG       0.26E-01    7.3     0.00161464     -3447.7957026783 -2.66E-01
     - OT LS       0.13E-01    3.9                    -3447.7566064415
    70 OT CG       0.13E-01    7.3     0.00082267     -3448.5285478335 -7.33E-01
     - OT LS       0.50E-01    3.9                    -3448.6738206956
    71 OT CG       0.50E-01    7.2     0.00056575     -3448.9960420382 -4.67E-01
     - OT LS       0.79E-01    3.9                    -3449.1850977678
    72 OT CG       0.79E-01    7.2     0.00039189     -3449.2672193906 -2.71E-01
     - OT LS       0.13E-01    3.9                    -3448.8225448599
    73 OT CG       0.13E-01    7.2     0.00034844     -3449.2915979101 -2.44E-02
     - OT LS       0.51E-01    3.9                    -3449.3215786384
    74 OT CG       0.51E-01    7.2     0.00040733     -3449.3669577341 -7.54E-02
     - OT LS       0.66E-01    3.9                    -3449.4793049881
    75 OT CG       0.66E-01    7.3     0.00078371     -3448.6775722143  6.89E-01
     - OT LS       0.28E-01    3.9                    -3448.4434662059
    76 OT CG       0.28E-01    7.2     0.00069092     -3448.8068366587 -1.29E-01
     - OT LS       0.11E-01    3.9                    -3448.7913927044
    77 OT CG       0.11E-01    7.2     0.00075399     -3448.8291560132 -2.23E-02
     - OT LS       0.25E-01    3.9                    -3448.9133704178
    78 OT CG       0.25E-01    7.2     0.00041691     -3448.9754428126 -1.46E-01
     - OT LS       0.69E-01    3.9                    -3449.0407370960
    79 OT CG       0.69E-01    7.3     0.00195599     -3449.0085812576 -3.31E-02
     - OT LS       0.33E-01    3.9                    -3448.8378860748
    80 OT CG       0.33E-01    7.3     0.00071830     -3449.0635930686 -5.50E-02
     - OT LS       0.10E-01    3.9                    -3448.8808101851
    81 OT CG       0.10E-01    7.2     0.00037191     -3449.1197026009 -5.61E-02
     - OT LS       0.41E-01    3.9                    -3449.1464813060
    82 OT CG       0.41E-01    7.2     0.00035432     -3449.1567942505 -3.71E-02
     - OT LS       0.56E-01    3.9                    -3449.1813606136
    83 OT CG       0.56E-01    7.2     0.00057640     -3449.1742189692 -1.74E-02
     - OT LS       0.26E-01    3.9                    -3449.1486137610
    84 OT CG       0.26E-01    7.3     0.00038383     -3449.2285053421 -5.43E-02
     - OT LS       0.10E+00    3.9                    -3449.2752958547
    85 OT CG       0.10E+00    7.2     0.00106995     -3449.2839745129 -5.55E-02
     - OT LS       0.49E-01    3.9                    -3449.1732279357
    86 OT CG       0.49E-01    7.2     0.00097153     -3449.2050751184  7.89E-02
     - OT LS       0.28E-01    3.9                    -3449.3013989650
    87 OT CG       0.28E-01    7.3     0.00182231     -3449.0104985083  1.95E-01
     - OT LS       0.13E-01    3.9                    -3448.8646390321
    88 OT CG       0.13E-01    7.3     0.00053512     -3449.3360681445 -3.26E-01
     - OT LS       0.39E-02    3.9                    -3449.3249773626
    89 OT CG       0.39E-02    7.2     0.00055634     -3449.3401373248 -4.07E-03
     - OT LS       0.34E-02    3.9                    -3449.3487813089
    90 OT CG       0.34E-02    7.2     0.00049169     -3449.3463949372 -6.26E-03
     - OT LS       0.13E-01    3.9                    -3449.3591156747
    91 OT CG       0.13E-01    7.3     0.00027548     -3449.3873110502 -4.09E-02
     - OT LS       0.11E-01    3.9                    -3449.3948407141
    92 OT CG       0.11E-01    7.2     0.00017019     -3449.3992085114 -1.19E-02
     - OT LS       0.46E-01    3.9                    -3449.4043006981
    93 OT CG       0.46E-01    7.3     0.00013683     -3449.4138813325 -1.47E-02
     - OT LS       0.34E-01    3.9                    -3449.4193005270
    94 OT CG       0.34E-01    7.3     0.00017118     -3449.4154623773 -1.58E-03
     - OT LS       0.61E-01    3.9                    -3449.4339366940
    95 OT CG       0.61E-01    7.2     0.00031873     -3449.4383712638 -2.29E-02
     - OT LS       0.27E-01    3.9                    -3449.4235259533
    96 OT CG       0.27E-01    7.2     0.00024986     -3449.4550799464 -1.67E-02
     - OT LS       0.30E-01    3.8                    -3449.4691799292
    97 OT CG       0.30E-01    7.2     0.00026983     -3449.4690081773 -1.39E-02
     - OT LS       0.20E-01    3.8                    -3449.4773637121
    98 OT CG       0.20E-01    7.2     0.00025859     -3449.4724636760 -3.46E-03
     - OT LS       0.13E-01    3.9                    -3449.4784470811
    99 OT CG       0.13E-01    7.3     0.00018710     -3449.4846847678 -1.22E-02
     - OT LS       0.53E-01    3.9                    -3449.4956730199
   100 OT CG       0.53E-01    7.2     0.00031985     -3449.4900836419 -5.40E-03
     - OT LS       0.27E-01    3.9                    -3449.4911740836
   101 OT CG       0.27E-01    7.3     0.00025292     -3449.5048058500 -1.47E-02
     - OT LS       0.14E-01    3.9                    -3449.5066304288
   102 OT CG       0.14E-01    7.2     0.00017107     -3449.5108693012 -6.06E-03
     - OT LS       0.57E-01    3.9                    -3449.5178121913
   103 OT CG       0.57E-01    7.3     0.00028781     -3449.5175134019 -6.64E-03
     - OT LS       0.41E-02    3.9                    -3449.3925836055
   104 OT CG       0.41E-02    7.3     0.00026891     -3449.5244039735 -6.89E-03
     - OT LS       0.16E-01    3.9                    -3449.5287168214
   105 OT CG       0.16E-01    7.2     0.00020958     -3449.5294940879 -5.09E-03
     - OT LS       0.87E-02    3.9                    -3449.5303920618
   106 OT CG       0.87E-02    7.3     0.00015210     -3449.5403273827 -1.08E-02
     - OT LS       0.17E-02    3.9                    -3449.5343104518
   107 OT CG       0.17E-02    7.2     0.00014115     -3449.5411018312 -7.74E-04
     - OT LS       0.70E-02    3.9                    -3449.5416706147
   108 OT CG       0.70E-02    7.3     0.00013523     -3449.5341971302  6.90E-03
     - OT LS       0.28E-01    3.9                    -3449.5445968568
   109 OT CG       0.28E-01    7.2     0.00018369     -3449.5452421285 -1.10E-02
     - OT LS       0.13E-01    3.9                    -3449.5449254585
   110 OT CG       0.13E-01    7.2     0.00022257     -3449.5412789264  3.96E-03
     - OT LS       0.20E-01    3.9                    -3449.5507924434
   111 OT CG       0.20E-01    7.3     0.00018171     -3449.5524212767 -1.11E-02
     - OT LS       0.61E-02    3.9                    -3449.5437652517
   112 OT CG       0.61E-02    7.2     0.00017702     -3449.5518211610  6.00E-04
     - OT LS       0.24E-01    3.9                    -3449.5584733560
   113 OT CG       0.24E-01    7.2     0.00020110     -3449.5596110076 -7.79E-03
     - OT LS       0.29E-01    3.9                    -3449.5695370225
   114 OT CG       0.29E-01    7.3     0.00013864     -3449.5609954916 -1.38E-03
     - OT LS       0.67E-01    3.8                    -3449.5706888197
   115 OT CG       0.67E-01    7.2     0.00021038     -3449.5648173055 -3.82E-03
     - OT LS       0.45E-01    3.8                    -3449.5666048403
   116 OT CG       0.45E-01    7.2     0.00021108     -3449.5801449413 -1.53E-02
     - OT LS       0.22E-01    3.8                    -3449.5791785581
   117 OT CG       0.22E-01    7.2     0.00023392     -3449.5753423965  4.80E-03
     - OT LS       0.51E-03    3.9                    -3449.1634017017
   118 OT CG       0.51E-03    7.2     0.00022937     -3449.5758052472 -4.63E-04
     - OT LS       0.20E-02    3.9                    -3449.5762543411
   119 OT CG       0.20E-02    7.2     0.00021365     -3449.5775528395 -1.75E-03
     - OT LS       0.81E-02    3.9                    -3449.5790795226
   120 OT CG       0.81E-02    7.2     0.00016306     -3449.5901732257 -1.26E-02
     - OT LS       0.33E-01    3.8                    -3449.5962294997
   121 OT CG       0.33E-01    7.2     0.00014144     -3449.5937559299 -3.58E-03
     - OT LS       0.47E-03    3.9                    -3449.1570662089
   122 OT CG       0.47E-03    7.2     0.00014004     -3449.5939419711 -1.86E-04
     - OT LS       0.19E-02    3.9                    -3449.5940971107
   123 OT CG       0.19E-02    7.3     0.00013508     -3449.5945538412 -6.12E-04
     - OT LS       0.75E-02    3.9                    -3449.5951249219
   124 OT CG       0.75E-02    7.2     0.00012140     -3449.5967321501 -2.18E-03
     - OT LS       0.75E-04    3.9                    -3449.1510333056
   125 OT CG       0.75E-04    7.3     0.00012132     -3449.5967508849 -1.87E-05
     - OT LS       0.30E-03    3.9                    -3449.5967695952
   126 OT CG       0.30E-03    7.2     0.00012101     -3449.5968256530 -7.48E-05
     - OT LS       0.30E-05    3.9                    -3449.1488876223
   127 OT CG       0.30E-05    7.2     0.00012101     -3449.5968263978 -7.45E-07
     - OT LS       0.12E-04    3.9                    -3449.5968271425
   128 OT CG       0.12E-04    7.2     0.00012099     -3449.5968293766 -2.98E-06
     - OT LS       0.48E-04    3.9                    -3449.5968323547
   129 OT CG       0.48E-04    7.3     0.00012094     -3449.5968412873 -1.19E-05
     - OT LS       0.19E-03    3.8                    -3449.5968531883
   130 OT CG       0.19E-03    7.2     0.00012074     -3449.5968888617 -4.76E-05
     - OT LS       0.19E-05    3.9                    -3449.1489343301
   131 OT CG       0.19E-05    7.2     0.00012074     -3449.5968893363 -4.75E-07
     - OT LS       0.77E-05    3.9                    -3449.5968898108
   132 OT CG       0.77E-05    7.2     0.00012073     -3449.5968912344 -1.90E-06
     - OT LS       0.31E-04    3.9                    -3449.5968931323
   133 OT CG       0.31E-04    7.2     0.00069013     -3449.1488859038  4.48E-01
     - OT LS       0.12E-03    3.9                    -3449.1494396207
   134 OT CG       0.12E-03    7.2     0.00067636     -3449.1510736755 -2.19E-03
     - OT LS       0.49E-03    3.9                    -3449.1520198242
   135 OT CG       0.49E-03    7.2     0.00063761     -3449.1547759782 -3.70E-03
     - OT LS       0.20E-02    3.8                    -3449.1580692768
   136 OT CG       0.20E-02    7.3     0.00047670     -3449.1621997286 -7.42E-03
     - OT LS       0.79E-02    3.9                    -3449.1690547072
   137 OT CG       0.79E-02    7.2     0.00019363     -3449.1813999339 -1.92E-02
     - OT LS       0.32E-01    3.9                    -3449.1859035202
   138 OT CG       0.32E-01    7.2     0.00017673     -3449.1974847489 -1.61E-02
     - OT LS       0.26E-01    3.9                    -3449.2050506561
   139 OT CG       0.26E-01    7.2     0.00014190     -3449.2039060635 -6.42E-03
     - OT LS       0.76E-01    3.9                    -3449.2132571451
   140 OT CG       0.76E-01    7.2     0.00019742     -3449.2197353992 -1.58E-02
     - OT LS       0.30E+00    3.9                    -3449.5752649811
   141 OT CG       0.30E+00    7.2     0.00322534     -3448.8259260143  3.94E-01
     - OT LS       0.14E+00    3.9                    -3444.3273675749
   142 OT CG       0.14E+00    7.2     0.00241039     -3448.0226238367  8.03E-01
     - OT LS       0.66E-01    3.9                    -3447.3633340364
   143 OT CG       0.66E-01    7.2     0.00192480     -3447.3970703091  6.26E-01
     - OT LS       0.41E-01    3.9                    -3448.2374118683
   144 OT CG       0.41E-01    7.3     0.00213234     -3448.4514077013 -1.05E+00
     - OT LS       0.21E-01    3.9                    -3448.4713900736
   145 OT CG       0.21E-01    7.3     0.00255848     -3448.3570403868  9.44E-02
     - OT LS       0.18E-01    3.9                    -3449.0441412298
   146 OT CG       0.18E-01    7.2     0.00058263     -3449.0091487305 -6.52E-01
     - OT LS       0.58E-01    3.9                    -3449.0944559566
   147 OT CG       0.58E-01    7.2     0.00073876     -3448.4155989588  5.94E-01
     - OT LS       0.75E-01    3.9                    -3448.8745598470
   148 OT CG       0.75E-01    7.2     0.00064335     -3448.0460628832  3.70E-01
     - OT LS       0.30E+00    3.9                    -3449.2354523462
   149 OT CG       0.30E+00    7.2     0.00722438     -3443.3444937608  4.70E+00
     - OT LS       0.13E+00    3.9                    -3392.8728172835
   150 OT CG       0.13E+00    7.2     0.01874611     -3426.7404264890  1.66E+01
     - OT LS       0.53E-01    3.9                    -3386.8621880098
   151 OT CG       0.53E-01    7.2     0.02677447     -3403.0420616367  2.37E+01
     - OT LS       0.25E-01    3.9                    -3360.0285675953
   152 OT CG       0.25E-01    7.2     0.01603379     -3403.0313296668  1.07E-02
     - OT LS       0.12E-01    3.9                    -3403.1138392121
   153 OT CG       0.12E-01    7.3     0.00467559     -3410.4456689636 -7.41E+00
     - OT LS       0.15E-01    3.9                    -3413.1331583105
   154 OT CG       0.15E-01    7.3     0.00358474     -3413.5813401095 -3.14E+00
     - OT LS       0.60E-01    3.9                    -3416.9417102816
   155 OT CG       0.60E-01    7.3     0.00425425     -3424.6520178440 -1.11E+01
     - OT LS       0.58E-01    3.9                    -3436.6428268499
   156 OT CG       0.58E-01    7.2     0.00199119     -3436.3328765040 -1.17E+01
     - OT LS       0.11E+00    3.9                    -3439.7088418078
   157 OT CG       0.11E+00    7.3     0.00830195     -3438.5847881261 -2.25E+00
     - OT LS       0.40E-01    3.9                    -3392.3375345659
   158 OT CG       0.40E-01    7.2     0.00648310     -3439.5980736525 -1.01E+00
     - OT LS       0.22E-01    3.9                    -3441.9520992199
   159 OT CG       0.22E-01    7.2     0.00176293     -3442.0543603865 -2.46E+00
     - OT LS       0.49E-01    3.9                    -3442.9130400003
   160 OT CG       0.49E-01    7.2     0.00137149     -3444.0219966709 -1.97E+00
     - OT LS       0.41E-01    3.9                    -3444.7190782141
   161 OT CG       0.41E-01    7.3     0.00124895     -3444.5221081823 -5.00E-01
     - OT LS       0.52E-01    3.9                    -3445.2257372364
   162 OT CG       0.52E-01    7.2     0.00089789     -3445.3560490102 -8.34E-01
     - OT LS       0.17E+00    3.9                    -3446.0244888860
   163 OT CG       0.17E+00    7.2     0.00178578     -3447.2276056685 -1.87E+00
     - OT LS       0.24E-01    3.9                    -3435.2576909408
   164 OT CG       0.24E-01    7.2     0.00209869     -3447.6489538867 -4.21E-01
     - OT LS       0.13E-01    3.9                    -3447.7407612954
   165 OT CG       0.13E-01    7.2     0.00060103     -3448.2514354600 -6.02E-01
     - OT LS       0.62E-03    3.9                    -3447.5408464202
   166 OT CG       0.62E-03    7.2     0.00059060     -3448.2551917962 -3.76E-03
     - OT LS       0.25E-02    3.9                    -3448.2588202015
   167 OT CG       0.25E-02    7.2     0.00155622     -3447.4220238508  8.33E-01
     - OT LS       0.57E-02    3.9                    -3447.6179386216
   168 OT CG       0.57E-02    7.2     0.00060683     -3447.7701739561 -3.48E-01
     - OT LS       0.23E-01    3.9                    -3447.8047192879
   169 OT CG       0.23E-01    7.3     0.00053472     -3447.8912872415 -1.21E-01
     - OT LS       0.92E-01    3.9                    -3448.0284558114
   170 OT CG       0.92E-01    7.2     0.00072772     -3448.1472094043 -2.56E-01
     - OT LS       0.76E-01    3.9                    -3448.5086549801
   171 OT CG       0.76E-01    7.3     0.00138818     -3448.4608933013 -3.14E-01
     - OT LS       0.25E-01    3.9                    -3447.1499137454
   172 OT CG       0.25E-01    7.2     0.00086549     -3448.2792052919  1.82E-01
     - OT LS       0.21E-01    3.9                    -3448.4062134941
   173 OT CG       0.21E-01    7.2     0.00053841     -3448.3988099382 -1.20E-01
     - OT LS       0.83E-01    3.9                    -3448.4952471358
   174 OT CG       0.83E-01    7.2     0.00034294     -3448.6161712832 -2.17E-01
     - OT LS       0.57E-01    3.8                    -3448.6641728640
   175 OT CG       0.57E-01    7.2     0.00033956     -3448.6639674449 -4.78E-02
     - OT LS       0.59E-01    3.9                    -3448.7278307704
   176 OT CG       0.59E-01    7.2     0.00032425     -3448.7280334036 -6.41E-02
     - OT LS       0.35E-01    3.9                    -3448.7454155728
   177 OT CG       0.35E-01    7.2     0.00023329     -3448.7567599224 -2.87E-02
     - OT LS       0.56E-01    3.9                    -3448.7796550482
   178 OT CG       0.56E-01    7.3     0.00024951     -3448.7931799753 -3.64E-02
     - OT LS       0.37E-01    3.9                    -3448.8100020933
   179 OT CG       0.37E-01    7.2     0.00016987     -3448.8200641892 -2.69E-02
     - OT LS       0.25E-01    3.9                    -3448.8257369065
   180 OT CG       0.25E-01    7.2     0.00013716     -3448.8291039743 -9.04E-03
     - OT LS       0.69E-02    3.9                    -3448.8214724894
   181 OT CG       0.69E-02    7.3     0.00011836     -3448.8314900158 -2.39E-03
     - OT LS       0.28E-01    3.9                    -3448.8330716036
   182 OT CG       0.28E-01    7.2     0.00040405     -3448.8224707785  9.02E-03
     - OT LS       0.60E-02    3.9                    -3448.7369377654
   183 OT CG       0.60E-02    7.3     0.00055531     -3448.8355989923 -1.31E-02
     - OT LS       0.39E-02    3.9                    -3448.8447610907
   184 OT CG       0.39E-02    7.3     0.00024509     -3448.8423930503 -6.79E-03
     - OT LS       0.16E-01    3.9                    -3448.8460520060
   185 OT CG       0.16E-01    7.3     0.00019097     -3448.8492267306 -6.83E-03
     - OT LS       0.63E-01    3.9                    -3448.8592054185
   186 OT CG       0.63E-01    7.3     0.00029486     -3448.8432065749  6.02E-03
     - OT LS       0.43E-01    3.9                    -3448.8682834825
   187 OT CG       0.43E-01    7.3     0.00023465     -3448.8676495297 -2.44E-02
     - OT LS       0.27E-01    3.9                    -3448.8726822294
   188 OT CG       0.27E-01    7.3     0.00022554     -3448.8708256593 -3.18E-03
     - OT LS       0.11E+00    3.9                    -3448.8888313670
   189 OT CG       0.11E+00    7.2     0.00014963     -3448.9122480254 -4.14E-02
     - OT LS       0.10E+00    3.9                    -3448.9317322998
   190 OT CG       0.10E+00    7.7     0.00016828     -3448.9318521115 -1.96E-02
     - OT LS       0.48E-01    3.9                    -3448.9287308672
   191 OT CG       0.48E-01    7.3     0.00012427     -3448.9449854363 -1.31E-02
     - OT LS       0.17E-01    3.9                    -3448.9388531547
   192 OT CG       0.17E-01    7.2     0.00024247     -3448.9399840345  5.00E-03
     - OT LS       0.12E-01    3.9                    -3448.9496810693
   193 OT CG       0.12E-01    7.2     0.00013746     -3448.9358482713  4.14E-03
     - OT LS       0.46E-01    3.9                    -3448.9401730582
   194 OT CG       0.46E-01    7.2     0.00015655     -3448.9453669816 -9.52E-03
     - OT LS       0.37E-01    3.9                    -3448.9519440937
   195 OT CG       0.37E-01    7.3     0.00015637     -3448.9528963951 -7.53E-03
     - OT LS       0.57E-01    3.9                    -3448.9621992006
   196 OT CG       0.57E-01    7.2     0.00014489     -3448.9627419917 -9.85E-03
     - OT LS       0.33E-01    3.9                    -3448.9652926797
   197 OT CG       0.33E-01    7.2     0.00009128     -3448.9672711092 -4.53E-03
     - OT LS       0.13E+00    3.9                    -3448.9726624858
   198 OT CG       0.13E+00    7.2     0.00024211     -3448.9641993800  3.07E-03
     - OT LS       0.18E+00    3.9                    -3448.9837891686
   199 OT CG       0.18E+00    7.4     0.00180283     -3448.6474322965  3.17E-01
     - OT LS       0.81E-01    3.9                    -3447.8144548352
   200 OT CG       0.81E-01    7.3     0.00069211     -3448.3493281378  2.98E-01
     - OT LS       0.59E-01    3.9                    -3448.4477408712
   201 OT CG       0.59E-01    7.2     0.00039156     -3448.4551278224 -1.06E-01
     - OT LS       0.12E+00    3.9                    -3448.5713282923
   202 OT CG       0.12E+00    7.2     0.00024146     -3448.6485119283 -1.93E-01
     - OT LS       0.11E+00    3.9                    -3448.7032760703
   203 OT CG       0.11E+00    7.2     0.00028822     -3448.7037806342 -5.53E-02
     - OT LS       0.65E-01    3.9                    -3448.7338915320
   204 OT CG       0.65E-01    7.2     0.00030140     -3448.7424232549 -3.86E-02
     - OT LS       0.70E-01    3.9                    -3448.8024553149
   205 OT CG       0.70E-01    7.2     0.00032837     -3448.8021422142 -5.97E-02
     - OT LS       0.35E-01    3.9                    -3448.8029205033
   206 OT CG       0.35E-01    7.2     0.00037188     -3448.8198793430 -1.77E-02
     - OT LS       0.18E-01    3.9                    -3448.8229556330
   207 OT CG       0.18E-01    7.2     0.00017590     -3448.8349957824 -1.51E-02
     - OT LS       0.74E-01    3.9                    -3448.8504953885
   208 OT CG       0.74E-01    7.2     0.00015331     -3448.8602636912 -2.53E-02
     - OT LS       0.61E-01    3.9                    -3448.8738653459
   209 OT CG       0.61E-01    7.3     0.00011052     -3448.8833525609 -2.31E-02
     - OT LS       0.35E-01    3.9                    -3448.8847897600
   210 OT CG       0.35E-01    7.2     0.00008551     -3448.8894834824 -6.13E-03
     - OT LS       0.89E-02    3.8                    -3448.8854727488
   211 OT CG       0.89E-02    7.2     0.00008249     -3448.8905660528 -1.08E-03
     - OT LS       0.63E-03    3.9                    -3448.8843783703
   212 OT CG       0.63E-03    7.2     0.00008229     -3448.8906389140 -7.29E-05
     - OT LS       0.25E-02    3.9                    -3448.8907114245
   213 OT CG       0.25E-02    7.2     0.00010186     -3448.8839809205  6.66E-03
     - OT LS       0.10E-01    3.9                    -3448.8845836412
   214 OT CG       0.10E-01    7.2     0.00009422     -3448.8863212020 -2.34E-03
     - OT LS       0.78E-03    3.9                    -3448.8780027611
   215 OT CG       0.78E-03    7.3     0.00009377     -3448.8864387454 -1.18E-04
     - OT LS       0.31E-02    3.9                    -3448.8865551683
   216 OT CG       0.31E-02    7.2     0.00009200     -3448.8869011035 -4.62E-04
     - OT LS       0.13E-01    3.9                    -3448.8873463710
   217 OT CG       0.13E-01    7.3     0.00017388     -3448.8788445905  8.06E-03
     - OT LS       0.50E-01    3.9                    -3448.8887900694
   218 OT CG       0.50E-01    7.2     0.00017050     -3448.8843669233 -5.52E-03
     - OT LS       0.42E-01    3.9                    -3448.8941813264
   219 OT CG       0.42E-01    7.3     0.00013693     -3448.8946285436 -1.03E-02
     - OT LS       0.49E-01    3.9                    -3448.9017799971
   220 OT CG       0.49E-01    7.3     0.00012528     -3448.8970303017 -2.40E-03
     - OT LS       0.81E-01    3.9                    -3448.9061014346
   221 OT CG       0.81E-01    7.3     0.00012996     -3448.8984154439 -1.39E-03
     - OT LS       0.46E-01    3.9                    -3448.9011214435
   222 OT CG       0.46E-01    7.2     0.00007156     -3448.9073489726 -8.93E-03
     - OT LS       0.18E-01    3.9                    -3448.9061335644
   223 OT CG       0.18E-01    7.2     0.00007788     -3448.9067953957  5.54E-04
     - OT LS       0.70E-01    3.9                    -3448.9099169822
   224 OT CG       0.70E-01    7.3     0.00015683     -3448.9070992947 -3.04E-04
     - OT LS       0.89E-02    3.9                    -3448.8880566931
   225 OT CG       0.89E-02    7.2     0.00022710     -3448.8975778516  9.52E-03
     - OT LS       0.88E-02    3.9                    -3448.9003827705
   226 OT CG       0.88E-02    7.2     0.00018277     -3448.9003460622 -2.77E-03
     - OT LS       0.35E-01    3.9                    -3448.9047977324
   227 OT CG       0.35E-01    7.2     0.00012941     -3448.9103879684 -1.00E-02
     - OT LS       0.20E-01    3.9                    -3448.9115223140
   228 OT CG       0.20E-01    7.2     0.00010933     -3448.9134023613 -3.01E-03
     - OT LS       0.80E-01    3.9                    -3448.9172050859
   229 OT CG       0.80E-01    7.2     0.00010486     -3448.9163640642 -2.96E-03
     - OT LS       0.18E-01    3.9                    -3448.9045940098
   230 OT CG       0.18E-01    7.3     0.00009480     -3448.9176791082 -1.32E-03
     - OT LS       0.21E-02    3.9                    -3448.9084996338
   231 OT CG       0.21E-02    7.2     0.00009082     -3448.9179623696 -2.83E-04
     - OT LS       0.82E-02    3.9                    -3448.9182437620
   232 OT CG       0.82E-02    7.2     0.00007798     -3448.9190234782 -1.06E-03
     - OT LS       0.33E-01    3.9                    -3448.9198196972
   233 OT CG       0.33E-01    7.3     0.00009753     -3448.9115518230  7.47E-03
     - OT LS       0.11E-01    3.9                    -3448.9082490177
   234 OT CG       0.11E-01    7.3     0.00012490     -3448.9082645791  3.29E-03
     - OT LS       0.45E-01    3.9                    -3448.9173832714
   235 OT CG       0.45E-01    7.2     0.00013991     -3448.9125386958 -4.27E-03
     - OT LS       0.33E-01    3.9                    -3448.9172638911
   236 OT CG       0.33E-01    7.2     0.00007900     -3448.9202904587 -7.75E-03
     - OT LS       0.15E-01    3.9                    -3448.9198837727
   237 OT CG       0.15E-01    7.2     0.00007112     -3448.9194933503  7.97E-04
     - OT LS       0.33E-02    3.9                    -3448.9176447640
   238 OT CG       0.33E-02    7.2     0.00006767     -3448.9198197218 -3.26E-04
     - OT LS       0.13E-01    3.9                    -3448.9200718927
   239 OT CG       0.13E-01    7.3     0.00009233     -3448.9194281042  3.92E-04
     - OT LS       0.83E-02    3.9                    -3448.9198176275
   240 OT CG       0.83E-02    7.3     0.00006608     -3448.9202091634 -7.81E-04
     - OT LS       0.31E-02    3.9                    -3448.9199935037
   241 OT CG       0.31E-02    7.2     0.00007831     -3448.9185846141  1.62E-03
     - OT LS       0.12E-01    3.9                    -3448.9201996629
   242 OT CG       0.12E-01    7.2     0.00005814     -3448.9215562048 -2.97E-03
     - OT LS       0.49E-01    3.9                    -3448.9228250198
   243 OT CG       0.49E-01    7.3     0.00013099     -3448.9170296814  4.53E-03
     - OT LS       0.46E-01    3.9                    -3448.9236485798
   244 OT CG       0.46E-01    7.2     0.00007221     -3448.9240313104 -7.00E-03
     - OT LS       0.27E-02    3.9                    -3448.9179620961
   245 OT CG       0.27E-02    7.3     0.00007109     -3448.9240779300 -4.66E-05
     - OT LS       0.11E-01    3.9                    -3448.9243032582
   246 OT CG       0.11E-01    7.2     0.00005458     -3448.9248921413 -8.14E-04
     - OT LS       0.95E-02    3.9                    -3448.9251267238
   247 OT CG       0.95E-02    7.2     0.00006071     -3448.9251439871 -2.52E-04
     - OT LS       0.23E-01    3.9                    -3448.9254795317
   248 OT CG       0.23E-01    7.3     0.00007226     -3448.9256407208 -4.97E-04
     - OT LS       0.13E-01    3.9                    -3448.9258829074
   249 OT CG       0.13E-01    7.3     0.00004755     -3448.9259711395 -3.30E-04
     - OT LS       0.51E-01    3.9                    -3448.9263845323
   250 OT CG       0.51E-01    7.3     0.00005367     -3448.9271877047 -1.22E-03

  Leaving inner SCF loop after reaching   250 steps.


  Electronic density on regular grids:      -2033.9999973862        0.0000026138
  Core density on regular grids:             2033.9999999986       -0.0000000014
  Total charge density on r-space grids:        0.0000026124
  Total charge density g-space grids:           0.0000026124

  Overlap energy of the core charge distribution:               0.00011754517808
  Self energy of the core charge distribution:              -8859.91288883521156
  Core Hamiltonian energy:                                   2559.46916229848102
  Hartree energy:                                            3796.60095395587905
  Exchange-correlation energy:                               -947.89866653139291
  Dispersion energy:                                            2.59329186857685
  Electric field interaction energy:                            0.22084199379993

  Total energy:                                             -3448.92718770468946

  outer SCF iter =    3 RMS gradient =   0.54E-04 energy =      -3448.9271877047

  ----------------------------------- OT ---------------------------------------
  Minimizer      : CG                  : conjugate gradient
  Preconditioner : FULL_ALL            : diagonalization, state selective
  Precond_solver : DEFAULT
  Line search    : 2PNT                : 2 energies, one gradient
  stepsize       :    0.15000000                  energy_gap     :    0.00100000
  eps_taylor     :   0.10000E-15                  max_taylor     :             4
  ----------------------------------- OT ---------------------------------------

  Step     Update method      Time    Convergence         Total energy    Change
  ------------------------------------------------------------------------------
     1 OT CG       0.15E+00   22.6     0.00082400     -3448.9155303048  1.17E-02
     - OT LS       0.57E-01    3.9                    -3448.3875294537
     2 OT CG       0.57E-01    7.2     0.00275990     -3449.1549697935 -2.39E-01
     - OT LS       0.25E-01    3.9                    -3448.2260078881
     3 OT CG       0.25E-01    7.3     0.00499417     -3446.8283660084  2.33E+00
     - OT LS       0.16E-01    3.9                    -3447.8736029880
     4 OT CG       0.16E-01    7.2     0.00251206     -3449.1558670358 -2.33E+00
     - OT LS       0.78E-02    3.9                    -3449.1437668187
     5 OT CG       0.78E-02    7.3     0.00463648     -3448.8132491885  3.43E-01
     - OT LS       0.37E-02    3.9                    -3448.7128398671
     6 OT CG       0.37E-02    7.3     0.00135423     -3448.2898406584  5.23E-01
     - OT LS       0.15E-01    3.9                    -3448.3984760328
     7 OT CG       0.15E-01    7.2     0.00131232     -3448.6379782410 -3.48E-01
     - OT LS       0.17E-01    3.9                    -3448.9414884277
     8 OT CG       0.17E-01    7.2     0.00124795     -3448.9308006889 -2.93E-01
     - OT LS       0.11E-01    3.9                    -3449.0037449596
     9 OT CG       0.11E-01    7.3     0.00090745     -3449.0331983066 -1.02E-01
     - OT LS       0.70E-02    3.9                    -3449.0642674231
    10 OT CG       0.70E-02    7.3     0.00063342     -3449.0751384821 -4.19E-02
     - OT LS       0.10E-01    3.9                    -3449.1103102804
    11 OT CG       0.10E-01    7.3     0.00040897     -3449.1345970296 -5.95E-02
     - OT LS       0.36E-01    3.9                    -3449.1597269327
    12 OT CG       0.36E-01    7.3     0.00032547     -3449.2122287553 -7.76E-02
     - OT LS       0.48E-01    3.8                    -3449.2578240747
    13 OT CG       0.48E-01    7.3     0.00039868     -3449.2691509151 -5.69E-02
     - OT LS       0.38E-01    3.9                    -3449.3349440541
    14 OT CG       0.38E-01    7.3     0.00058208     -3449.3231107114 -5.40E-02
     - OT LS       0.21E-01    3.9                    -3449.3456275029
    15 OT CG       0.21E-01    7.2     0.00057981     -3449.3685115609 -4.54E-02
     - OT LS       0.21E-01    3.9                    -3449.4187449568
    16 OT CG       0.21E-01    7.3     0.00047123     -3449.4187577809 -5.02E-02
     - OT LS       0.13E-01    3.9                    -3449.4352299311
    17 OT CG       0.13E-01    7.3     0.00049784     -3449.4476678078 -2.89E-02
     - OT LS       0.20E-01    3.9                    -3449.4888396357
    18 OT CG       0.20E-01    7.2     0.00084264     -3448.9409332838  5.07E-01
     - OT LS       0.68E-02    3.9                    -3448.7857071873
    19 OT CG       0.68E-02    7.3     0.00064182     -3448.9547244340 -1.38E-02
     - OT LS       0.27E-01    3.9                    -3448.9864132344
    20 OT CG       0.27E-01    7.2     0.00087913     -3448.9827920140 -2.81E-02
     - OT LS       0.28E-01    3.9                    -3449.1409726687
    21 OT CG       0.28E-01    7.2     0.00505689     -3449.0999587395 -1.17E-01
     - OT LS       0.13E-01    3.9                    -3447.8765425385
    22 OT CG       0.13E-01    7.2     0.00325589     -3447.4950547455  1.60E+00
     - OT LS       0.51E-01    3.8                    -3448.5922322859
    23 OT CG       0.51E-01    7.3     0.00378860     -3449.2348817234 -1.74E+00
     - OT LS       0.26E-01    3.9                    -3449.5072343097
    24 OT CG       0.26E-01    7.3     0.00174323     -3448.8995780121  3.35E-01
     - OT LS       0.15E-01    3.9                    -3449.0516676069
    25 OT CG       0.15E-01    7.3     0.00115326     -3449.2239860993 -3.24E-01
     - OT LS       0.31E-01    3.9                    -3449.4045890656
    26 OT CG       0.31E-01    7.3     0.00173909     -3449.7527362839 -5.29E-01
     - OT LS       0.97E-02    3.9                    -3448.8044911612
    27 OT CG       0.97E-02    7.3     0.00056888     -3449.4505845772  3.02E-01
     - OT LS       0.39E-01    3.9                    -3449.8023405276
    28 OT CG       0.39E-01    7.3     0.00032756     -3449.8821088723 -4.32E-01
     - OT LS       0.28E-01    3.9                    -3449.9028747367
    29 OT CG       0.28E-01    7.3     0.00042161     -3449.9077118215 -2.56E-02
     - OT LS       0.28E-02    3.9                    -3449.5796934431
    30 OT CG       0.28E-02    7.3     0.00037671     -3449.9175890776 -9.88E-03
     - OT LS       0.11E-01    3.9                    -3449.9235412357
    31 OT CG       0.11E-01    7.3     0.00021884     -3449.9333523342 -1.58E-02
     - OT LS       0.44E-01    3.9                    -3449.9428747325
    32 OT CG       0.44E-01    7.2     0.00063379     -3449.5930152307  3.40E-01
     - OT LS       0.29E-01    3.9                    -3449.7031002594
    33 OT CG       0.29E-01    7.3     0.00125865     -3449.3183528005  2.75E-01
     - OT LS       0.16E-01    3.9                    -3449.4034373435
    34 OT CG       0.16E-01    7.3     0.00099249     -3449.5948465056 -2.76E-01
     - OT LS       0.21E-01    3.9                    -3449.6430873492
    35 OT CG       0.21E-01    7.3     0.00042814     -3449.1091937466  4.86E-01
     - OT LS       0.83E-01    3.9                    -3449.9814601275
    36 OT CG       0.83E-01    7.3     0.00223328     -3449.8961216833 -7.87E-01
     - OT LS       0.36E-01    3.9                    -3448.9298751288
    37 OT CG       0.36E-01    7.3     0.00136248     -3449.4519632956  4.44E-01
     - OT LS       0.14E-01    3.9                    -3449.0340440506
    38 OT CG       0.14E-01    7.3     0.00148049     -3449.8873895140 -4.35E-01
     - OT LS       0.15E-02    3.9                    -3449.8277219848
    39 OT CG       0.15E-02    7.3     0.00170771     -3449.8838096627  3.58E-03
     - OT LS       0.32E-02    3.9                    -3449.9393670691
    40 OT CG       0.32E-02    7.3     0.00071631     -3449.9859782992 -1.02E-01
     - OT LS       0.75E-02    3.9                    -3450.0080312130
    41 OT CG       0.75E-02    7.3     0.00046067     -3450.0167784314 -3.08E-02
     - OT LS       0.30E-01    3.9                    -3450.0437282576
    42 OT CG       0.30E-01    7.3     0.00095962     -3450.0151561549  1.62E-03
     - OT LS       0.81E-02    3.9                    -3449.6098039464
    43 OT CG       0.81E-02    7.3     0.00020367     -3450.0667860570 -5.16E-02
     - OT LS       0.32E-01    3.9                    -3450.0717952504
    44 OT CG       0.32E-01    7.3     0.00017835     -3450.0792446223 -1.25E-02
     - OT LS       0.34E-01    3.9                    -3450.0894390656
    45 OT CG       0.34E-01    7.2     0.00031170     -3450.0890862981 -9.84E-03
     - OT LS       0.73E-03    3.9                    -3449.5803561347
    46 OT CG       0.73E-03    7.3     0.00030482     -3450.0892722000 -1.86E-04
     - OT LS       0.29E-02    3.9                    -3450.0906938090
    47 OT CG       0.29E-02    7.3     0.00023689     -3450.0897802169 -5.08E-04
     - OT LS       0.12E-01    3.9                    -3450.0922939656
    48 OT CG       0.12E-01    7.2     0.00014208     -3450.0972120848 -7.43E-03
     - OT LS       0.47E-01    3.9                    -3450.1008090232
    49 OT CG       0.47E-01    7.3     0.00024432     -3450.1077101032 -1.05E-02
     - OT LS       0.22E-01    3.9                    -3450.1023641768
    50 OT CG       0.22E-01    7.3     0.00022610     -3450.1092166209 -1.51E-03
     - OT LS       0.87E-01    3.9                    -3450.1362850793
    51 OT CG       0.87E-01    7.3     0.00282312     -3449.5341363946  5.75E-01
     - OT LS       0.43E-01    3.9                    -3449.4115250261
    52 OT CG       0.43E-01    7.3     0.00090425     -3449.7019266946 -1.68E-01
     - OT LS       0.17E-01    3.9                    -3449.5506062621
    53 OT CG       0.17E-01    7.3     0.00121445     -3449.3490174455  3.53E-01
     - OT LS       0.68E-01    3.9                    -3449.7470174505
    54 OT CG       0.68E-01    7.3     0.00337856     -3449.1973236251  1.52E-01
     - OT LS       0.34E-01    3.9                    -3449.2873796886
    55 OT CG       0.34E-01    7.3     0.00134076     -3449.0708658742  1.26E-01
     - OT LS       0.21E-01    3.9                    -3449.2479251463
    56 OT CG       0.21E-01    7.3     0.00111240     -3449.4874393768 -4.17E-01
     - OT LS       0.14E-01    3.9                    -3449.6180690285
    57 OT CG       0.14E-01    7.3     0.00094385     -3449.6503017322 -1.63E-01
     - OT LS       0.26E-02    3.9                    -3449.2560159480
    58 OT CG       0.26E-02    7.2     0.00065136     -3449.6893687482 -3.91E-02
     - OT LS       0.24E-02    3.9                    -3449.6980834120
    59 OT CG       0.24E-02    7.3     0.00057309     -3449.6974596487 -8.09E-03
     - OT LS       0.97E-02    3.9                    -3449.7111024019
    60 OT CG       0.97E-02    7.4     0.00083207     -3449.2410451422  4.56E-01
     - OT LS       0.39E-01    3.9                    -3449.7432601327
    61 OT CG       0.39E-01    7.3     0.00123546     -3449.6259569467 -3.85E-01
     - OT LS       0.48E-02    3.9                    -3446.6304430524
    62 OT CG       0.48E-02    7.2     0.00126371     -3449.2508536691  3.75E-01
     - OT LS       0.57E-02    3.9                    -3449.3264134516
    63 OT CG       0.57E-02    7.2     0.00057154     -3449.3338122417 -8.30E-02
     - OT LS       0.23E-01    3.9                    -3449.7633965430
    64 OT CG       0.23E-01    7.3     0.00035835     -3449.8350002708 -5.01E-01
     - OT LS       0.12E-02    3.9                    -3449.3907617406
    65 OT CG       0.12E-02    7.3     0.00034740     -3449.8374950863 -2.49E-03
     - OT LS       0.46E-02    3.9                    -3449.8402933008
    66 OT CG       0.46E-02    7.2     0.00029538     -3449.8454279781 -7.93E-03
     - OT LS       0.19E-01    3.9                    -3449.8543661355
    67 OT CG       0.19E-01    7.3     0.00083629     -3449.4226077316  4.23E-01
     - OT LS       0.74E-01    3.9                    -3450.0102521997
    68 OT CG       0.74E-01    7.3     0.00730558     -3446.9611591384  2.46E+00
     - OT LS       0.32E-01    3.9                    -3437.2126747945
    69 OT CG       0.32E-01    7.2     0.00495938     -3448.3441074531 -1.38E+00
     - OT LS       0.16E-01    3.9                    -3448.2903959882
    70 OT CG       0.16E-01    7.3     0.00224905     -3449.0749084680 -7.31E-01
     - OT LS       0.69E-02    3.9                    -3448.8791151856
    71 OT CG       0.69E-02    7.3     0.00175779     -3448.8347923788  2.40E-01
     - OT LS       0.73E-02    3.9                    -3449.0245696723
    72 OT CG       0.73E-02    7.3     0.00093671     -3449.0256524499 -1.91E-01
     - OT LS       0.29E-01    3.8                    -3449.1246158822
    73 OT CG       0.29E-01    7.3     0.00058903     -3449.3277157646 -3.02E-01
     - OT LS       0.63E-01    3.9                    -3449.4795447682
    74 OT CG       0.63E-01    7.3     0.00088703     -3449.4830830367 -1.55E-01
     - OT LS       0.16E-01    3.9                    -3448.7707097720
    75 OT CG       0.16E-01    7.3     0.00063034     -3449.5495056738 -6.64E-02
     - OT LS       0.16E-02    3.9                    -3449.1559245775
    76 OT CG       0.16E-02    7.3     0.00059674     -3449.5531769759 -3.67E-03
     - OT LS       0.63E-02    3.9                    -3449.5621609564
    77 OT CG       0.63E-02    7.3     0.00047012     -3449.5773117872 -2.41E-02
     - OT LS       0.25E-01    3.9                    -3449.6038715572
    78 OT CG       0.25E-01    7.3     0.00053183     -3449.6879924829 -1.11E-01
     - OT LS       0.15E-01    3.9                    -3449.7106613102
    79 OT CG       0.15E-01    7.3     0.00043036     -3449.7119871710 -2.40E-02
     - OT LS       0.92E-02    3.9                    -3449.7216547005
    80 OT CG       0.92E-02    7.3     0.00043252     -3449.7352721027 -2.33E-02
     - OT LS       0.22E-01    3.9                    -3449.7542173517
    81 OT CG       0.22E-01    7.3     0.00055800     -3449.7781849691 -4.29E-02
     - OT LS       0.18E-02    3.9                    -3449.0841991343
    82 OT CG       0.18E-02    7.3     0.00040452     -3449.7873854496 -9.20E-03
     - OT LS       0.33E-02    3.9                    -3449.7909735532
    83 OT CG       0.33E-02    7.3     0.00028238     -3449.7944100248 -7.02E-03
     - OT LS       0.13E-01    3.9                    -3449.7987084423
    84 OT CG       0.13E-01    7.3     0.00029492     -3449.8075256357 -1.31E-02
     - OT LS       0.27E-01    3.9                    -3449.8261980973
    85 OT CG       0.27E-01    7.3     0.00069794     -3449.8196373256 -1.21E-02
     - OT LS       0.31E-02    3.9                    -3449.0952609275
    86 OT CG       0.31E-02    7.3     0.00026783     -3449.8394802809 -1.98E-02
     - OT LS       0.12E-01    3.9                    -3449.8441798155
    87 OT CG       0.12E-01    7.3     0.00033636     -3449.8449198681 -5.44E-03
     - OT LS       0.12E-03    3.9                    -3449.0350865338
    88 OT CG       0.12E-03    7.3     0.00033786     -3449.8450485180 -1.29E-04
     - OT LS       0.49E-03    3.9                    -3449.8452870261
    89 OT CG       0.49E-03    7.3     0.00031672     -3449.8459799934 -9.31E-04
     - OT LS       0.20E-02    3.9                    -3449.8467986938
    90 OT CG       0.20E-02    7.3     0.00024447     -3449.8489467639 -2.97E-03
     - OT LS       0.22E-02    3.9                    -3449.8500424176
    91 OT CG       0.22E-02    7.3     0.00019438     -3449.8501921369 -1.25E-03
     - OT LS       0.88E-02    3.9                    -3449.8515724718
    92 OT CG       0.88E-02    7.3     0.00018186     -3449.8549900237 -4.80E-03
     - OT LS       0.30E-02    3.9                    -3449.8522252958
    93 OT CG       0.30E-02    7.2     0.00017296     -3449.8569397624 -1.95E-03
     - OT LS       0.12E-01    3.9                    -3449.8584607038
    94 OT CG       0.12E-01    7.3     0.00022157     -3449.8541245399  2.82E-03
     - OT LS       0.47E-01    3.9                    -3449.8676009317
    95 OT CG       0.47E-01    7.3     0.00029322     -3449.8892288671 -3.51E-02
     - OT LS       0.25E-02    3.9                    -3449.1500080229
    96 OT CG       0.25E-02    7.3     0.00025401     -3449.8936871109 -4.46E-03
     - OT LS       0.99E-02    3.9                    -3449.8962100054
    97 OT CG       0.99E-02    7.3     0.00024480     -3449.8943225466 -6.35E-04
     - OT LS       0.40E-01    3.9                    -3449.9100071498
    98 OT CG       0.40E-01    7.3     0.00073562     -3449.9030570708 -8.73E-03
     - OT LS       0.57E-02    3.9                    -3449.0094163909
    99 OT CG       0.57E-02    7.3     0.00029674     -3449.9068301360 -3.77E-03
     - OT LS       0.57E-04    3.9                    -3449.0888214158
   100 OT CG       0.57E-04    7.3     0.00029711     -3449.9068649923 -3.49E-05
     - OT LS       0.23E-03    3.9                    -3449.9069510048
   101 OT CG       0.23E-03    7.3     0.00028963     -3449.9072057993 -3.41E-04
     - OT LS       0.91E-03    3.9                    -3449.9075298313
   102 OT CG       0.91E-03    7.3     0.00026203     -3449.9084538167 -1.25E-03
     - OT LS       0.37E-02    3.9                    -3449.9094856686
   103 OT CG       0.37E-02    7.3     0.00016093     -3449.9250673742 -1.66E-02
     - OT LS       0.15E-01    3.9                    -3449.9267138324
   104 OT CG       0.15E-01    7.3     0.00016162     -3449.9306427480 -5.58E-03
     - OT LS       0.27E-01    3.9                    -3449.9364807150
   105 OT CG       0.27E-01    7.3     0.00186606     -3449.1069140286  8.24E-01
     - OT LS       0.80E-02    3.9                    -3442.4404708306
   106 OT CG       0.80E-02    7.3     0.00337465     -3449.2502145049 -1.43E-01
     - OT LS       0.42E-02    3.9                    -3449.3029573689
   107 OT CG       0.42E-02    7.3     0.00326935     -3448.9292527574  3.21E-01
     - OT LS       0.45E-02    3.9                    -3449.3582712295
   108 OT CG       0.45E-02    7.3     0.00101029     -3449.3690776786 -4.40E-01
     - OT LS       0.18E-01    3.9                    -3449.4432148048
   109 OT CG       0.18E-01    7.2     0.00080262     -3449.6029393964 -2.34E-01
     - OT LS       0.32E-02    3.9                    -3449.2016951438
   110 OT CG       0.32E-02    7.3     0.00069288     -3449.6388309798 -3.59E-02
     - OT LS       0.98E-04    3.9                    -3449.2487707043
   111 OT CG       0.98E-04    7.3     0.00069082     -3449.6396270396 -7.96E-04
     - OT LS       0.36E-05    3.9                    -3449.6298229889
   112 OT CG       0.36E-05    7.3     0.00069075     -3449.6396565771 -2.95E-05
     - OT LS       0.15E-04    3.9                    -3449.6396861082
   113 OT CG       0.15E-04    7.3     0.00069044     -3449.6397746819 -1.18E-04
     - OT LS       0.58E-04    3.9                    -3449.6398926833
   114 OT CG       0.58E-04    7.3     0.00073260     -3449.6296523838  1.01E-02
     - OT LS       0.23E-03    3.9                    -3449.6432606256
   115 OT CG       0.23E-03    7.3     0.00134006     -3449.2331751708  3.96E-01
     - OT LS       0.93E-03    3.9                    -3449.2453639341
   116 OT CG       0.93E-03    7.3     0.00121103     -3449.2757622855 -4.26E-02
     - OT LS       0.37E-02    3.9                    -3449.3022578553
   117 OT CG       0.37E-02    7.3     0.00078790     -3449.3596557648 -8.39E-02
     - OT LS       0.15E-01    3.9                    -3449.3954727296
   118 OT CG       0.15E-01    7.3     0.00059100     -3449.4667762401 -1.07E-01
     - OT LS       0.15E-01    3.9                    -3449.5143653477
   119 OT CG       0.15E-01    7.2     0.00080887     -3449.5141868222 -4.74E-02
     - OT LS       0.20E-01    3.9                    -3449.6273408371
   120 OT CG       0.20E-01    7.3     0.00122693     -3449.6223556633 -1.08E-01
     - OT LS       0.45E-02    3.9                    -3449.1099150281
   121 OT CG       0.45E-02    7.2     0.00064561     -3449.6824124985 -6.01E-02
     - OT LS       0.81E-02    3.9                    -3449.7054330691
   122 OT CG       0.81E-02    7.3     0.00041186     -3449.7123738400 -3.00E-02
     - OT LS       0.29E-01    3.9                    -3449.7339304853
   123 OT CG       0.29E-01    7.3     0.00114132     -3449.7236981862 -1.13E-02
     - OT LS       0.73E-02    3.9                    -3449.0676561927
   124 OT CG       0.73E-02    7.3     0.00058968     -3449.7432224687 -1.95E-02
     - OT LS       0.21E-01    3.9                    -3449.7507302661
   125 OT CG       0.21E-01    7.2     0.00047457     -3449.7511405244 -7.92E-03
     - OT LS       0.10E-01    3.9                    -3449.7487319712
   126 OT CG       0.10E-01    7.3     0.00038406     -3449.7791283254 -2.80E-02
     - OT LS       0.18E-01    3.9                    -3449.7986715884
   127 OT CG       0.18E-01    7.2     0.00032670     -3449.7975835281 -1.85E-02
     - OT LS       0.13E-01    3.9                    -3449.8092125693
   128 OT CG       0.13E-01    7.2     0.00030134     -3449.8107963884 -1.32E-02
     - OT LS       0.53E-01    3.9                    -3449.8275613804
   129 OT CG       0.53E-01    7.2     0.00178876     -3449.7646228225  4.62E-02
     - OT LS       0.21E-01    3.9                    -3449.0208279448
   130 OT CG       0.21E-01    7.2     0.00138936     -3449.2569204301  5.08E-01
     - OT LS       0.12E-01    3.9                    -3449.3286306342
   131 OT CG       0.12E-01    7.3     0.00117879     -3449.3779285054 -1.21E-01
     - OT LS       0.58E-02    3.9                    -3449.3638553455
   132 OT CG       0.58E-02    7.3     0.00040441     -3449.4338092609 -5.59E-02
     - OT LS       0.23E-01    3.9                    -3449.4432304809
   133 OT CG       0.23E-01    7.3     0.00028237     -3449.4599724772 -2.62E-02
     - OT LS       0.93E-01    3.9                    -3449.8686367421
   134 OT CG       0.93E-01    7.2     0.00102905     -3449.9722727144 -5.12E-01
     - OT LS       0.24E-01    3.9                    -3448.4424138575
   135 OT CG       0.24E-01    7.3     0.00123899     -3449.3712729155  6.01E-01
     - OT LS       0.94E-02    3.9                    -3449.2517696201
   136 OT CG       0.94E-02    7.2     0.00141050     -3449.3012156572  7.01E-02
     - OT LS       0.57E-02    3.9                    -3449.3389122505
   137 OT CG       0.57E-02    7.3     0.00062167     -3449.3847848858 -8.36E-02
     - OT LS       0.23E-01    3.9                    -3449.4173970364
   138 OT CG       0.23E-01    7.3     0.00098065     -3449.4167690453 -3.20E-02
     - OT LS       0.91E-01    3.9                    -3449.4988702698
   139 OT CG       0.91E-01    7.3     0.00306480     -3448.9327684431  4.84E-01
     - OT LS       0.44E-01    3.9                    -3448.5329438570
   140 OT CG       0.44E-01    7.3     0.00131139     -3448.9314924634  1.28E-03
     - OT LS       0.29E-01    3.9                    -3449.2570868596
   141 OT CG       0.29E-01    7.3     0.00228746     -3449.1230367286 -1.92E-01
     - OT LS       0.10E-01    3.9                    -3448.0862799948
   142 OT CG       0.10E-01    7.2     0.00090559     -3449.4309749560 -3.08E-01
     - OT LS       0.35E-01    3.8                    -3449.5227612238
   143 OT CG       0.35E-01    7.2     0.00099096     -3449.2665754178  1.64E-01
     - OT LS       0.15E-01    3.9                    -3449.1637737559
   144 OT CG       0.15E-01    7.3     0.00065806     -3449.4127743094 -1.46E-01
     - OT LS       0.48E-01    3.9                    -3449.5097949673
   145 OT CG       0.48E-01    7.3     0.00096834     -3449.5431576550 -1.30E-01
     - OT LS       0.17E-01    3.9                    -3449.2877077780
   146 OT CG       0.17E-01    7.3     0.00173308     -3449.5421637814  9.94E-04
     - OT LS       0.74E-02    3.9                    -3449.4283471939
   147 OT CG       0.74E-02    7.2     0.00063559     -3449.6259786510 -8.38E-02
     - OT LS       0.27E-01    3.9                    -3449.6475417339
   148 OT CG       0.27E-01    7.3     0.00033872     -3449.6820773202 -5.61E-02
     - OT LS       0.68E-01    3.9                    -3449.7235997759
   149 OT CG       0.68E-01    7.3     0.00163044     -3449.6485265383  3.36E-02
     - OT LS       0.24E-01    3.9                    -3448.3813399679
   150 OT CG       0.24E-01    7.2     0.00158151     -3449.4287728300  2.20E-01
     - OT LS       0.96E-01    3.9                    -3449.8796254321
   151 OT CG       0.96E-01    7.2     0.00482774     -3449.0533786138  3.75E-01
     - OT LS       0.46E-01    3.9                    -3447.6082026626
   152 OT CG       0.46E-01    7.3     0.00178781     -3449.5522606542 -4.99E-01
     - OT LS       0.16E-01    3.9                    -3448.5188509272
   153 OT CG       0.16E-01    7.2     0.00065161     -3449.7788560447 -2.27E-01
     - OT LS       0.11E-02    3.9                    -3449.1204555405
   154 OT CG       0.11E-02    7.3     0.00063829     -3449.7860191336 -7.16E-03
     - OT LS       0.45E-02    3.9                    -3449.7938682770
   155 OT CG       0.45E-02    7.3     0.00242608     -3448.9807210743  8.05E-01
     - OT LS       0.54E-02    3.9                    -3449.7761064678
   156 OT CG       0.54E-02    7.3     0.00035705     -3449.7979765735 -8.17E-01
     - OT LS       0.12E-01    3.9                    -3449.8069382734
   157 OT CG       0.12E-01    7.3     0.00033709     -3449.8227739869 -2.48E-02
     - OT LS       0.44E-01    3.9                    -3449.8423740235
   158 OT CG       0.44E-01    7.3     0.00135932     -3449.5212162877  3.02E-01
     - OT LS       0.12E-01    3.9                    -3446.7495426199
   159 OT CG       0.12E-01    7.3     0.00135652     -3449.9107520244 -3.90E-01
     - OT LS       0.22E-02    3.9                    -3449.2488688400
   160 OT CG       0.22E-02    7.2     0.00091952     -3449.9673093958 -5.66E-02
     - OT LS       0.26E-02    3.9                    -3449.9854692867
   161 OT CG       0.26E-02    7.3     0.00072304     -3449.9901427473 -2.28E-02
     - OT LS       0.10E-01    3.9                    -3450.0169963118
   162 OT CG       0.10E-01    7.3     0.00032343     -3450.0447147609 -5.46E-02
     - OT LS       0.42E-01    3.9                    -3450.0652778291
   163 OT CG       0.42E-01    7.3     0.00024380     -3450.0981652683 -5.35E-02
     - OT LS       0.39E-02    3.9                    -3449.8889904296
   164 OT CG       0.39E-02    7.3     0.00021473     -3450.1026227092 -4.46E-03
     - OT LS       0.53E-02    3.9                    -3450.1045521955
   165 OT CG       0.53E-02    7.3     0.00023056     -3450.1055454225 -2.92E-03
     - OT LS       0.21E-01    3.9                    -3450.1112614332
   166 OT CG       0.21E-01    7.3     0.00134061     -3449.2971719811  8.08E-01
     - OT LS       0.10E-01    3.9                    -3449.2389596973
   167 OT CG       0.10E-01    7.3     0.00070024     -3449.9511583297 -6.54E-01
     - OT LS       0.10E-03    3.9                    -3449.4091142485
   168 OT CG       0.10E-03    7.3     0.00069041     -3449.9513136978 -1.55E-04
     - OT LS       0.41E-03    3.9                    -3449.9521516791
   169 OT CG       0.41E-03    7.2     0.00067468     -3449.9546367337 -3.32E-03
     - OT LS       0.17E-02    3.9                    -3449.9578115087
   170 OT CG       0.17E-02    7.3     0.00067015     -3449.9639937451 -9.36E-03
     - OT LS       0.38E-04    3.9                    -3449.6694472789
   171 OT CG       0.38E-04    7.3     0.00066834     -3449.9643250250 -3.31E-04
     - OT LS       0.15E-03    3.9                    -3449.9646159693
   172 OT CG       0.15E-03    7.3     0.00066189     -3449.9654845737 -1.16E-03
     - OT LS       0.61E-03    3.8                    -3449.9666220811
   173 OT CG       0.61E-03    7.2     0.00063722     -3449.9699691767 -4.48E-03
     - OT LS       0.61E-05    3.9                    -3449.6687238018
   174 OT CG       0.61E-05    7.3     0.00063700     -3449.9700115576 -4.24E-05
     - OT LS       0.25E-04    3.9                    -3449.9700539094
   175 OT CG       0.25E-04    7.3     0.00063612     -3449.9701808775 -1.69E-04
     - OT LS       0.98E-04    3.9                    -3449.9703497338
   176 OT CG       0.98E-04    7.3     0.00082517     -3449.6610001831  3.09E-01
     - OT LS       0.39E-03    3.9                    -3449.9719873921
   177 OT CG       0.39E-03    7.3     0.00058085     -3449.9811619088 -3.20E-01
     - OT LS       0.39E-05    3.9                    -3449.6753932714
   178 OT CG       0.39E-05    7.3     0.00058074     -3449.9811921951 -3.03E-05
     - OT LS       0.16E-04    3.9                    -3449.9812147514
   179 OT CG       0.16E-04    7.3     0.00058036     -3449.9812823984 -9.02E-05
     - OT LS       0.63E-04    3.9                    -3449.9813724843
   180 OT CG       0.63E-04    7.2     0.00057884     -3449.9816423898 -3.60E-04
     - OT LS       0.25E-03    3.9                    -3449.9820005158
   181 OT CG       0.25E-03    7.3     0.00082766     -3449.6741240529  3.08E-01
     - OT LS       0.10E-02    3.9                    -3449.9859724629
   182 OT CG       0.10E-02    7.3     0.00054438     -3449.9919459696 -3.18E-01
     - OT LS       0.40E-02    3.9                    -3450.0015075097
   183 OT CG       0.40E-02    7.3     0.00052723     -3450.0170189081 -2.51E-02
     - OT LS       0.14E-03    3.9                    -3449.7194689595
   184 OT CG       0.14E-03    7.3     0.00094551     -3449.7094966851  3.08E-01
     - OT LS       0.56E-03    3.9                    -3450.0202042488
   185 OT CG       0.56E-03    7.3     0.00051710     -3450.0274155659 -3.18E-01
     - OT LS       0.22E-02    3.9                    -3450.0306056885
   186 OT CG       0.22E-02    7.2     0.00107554     -3449.7352928566  2.92E-01
     - OT LS       0.16E-03    3.9                    -3449.2445342840
   187 OT CG       0.16E-03    7.3     0.00111107     -3449.7371022134 -1.81E-03
     - OT LS       0.65E-03    3.9                    -3449.7408069231
   188 OT CG       0.65E-03    7.3     0.00050777     -3450.0467681804 -3.10E-01
     - OT LS       0.24E-03    3.9                    -3450.0456362157
   189 OT CG       0.24E-03    7.3     0.00050552     -3450.0478731827 -1.11E-03
     - OT LS       0.95E-03    3.9                    -3450.0489009179
   190 OT CG       0.95E-03    7.3     0.00049989     -3450.0476225847  2.51E-04
     - OT LS       0.38E-02    3.9                    -3450.0558773561
   191 OT CG       0.38E-02    7.3     0.00123036     -3449.7752779774  2.72E-01
     - OT LS       0.56E-03    3.9                    -3449.3748367050
   192 OT CG       0.56E-03    7.3     0.00044931     -3450.0786235620 -3.03E-01
     - OT LS       0.22E-02    3.9                    -3450.0805534172
   193 OT CG       0.22E-02    7.3     0.00041721     -3450.0836278862 -5.00E-03
     - OT LS       0.90E-02    3.9                    -3450.0902317087
   194 OT CG       0.90E-02    7.3     0.00237488     -3449.2720994071  8.12E-01
     - OT LS       0.34E-02    3.9                    -3448.6459451890
   195 OT CG       0.34E-02    7.3     0.00182856     -3450.0258458298 -7.54E-01
     - OT LS       0.89E-03    3.9                    -3449.8461238582
   196 OT CG       0.89E-03    7.3     0.00150994     -3450.0717916776 -4.59E-02
     - OT LS       0.36E-02    3.9                    -3450.1031707629
   197 OT CG       0.36E-02    7.3     0.00157371     -3449.8666924893  2.05E-01
     - OT LS       0.45E-02    3.9                    -3449.9619488808
   198 OT CG       0.45E-02    7.2     0.00053196     -3449.9767512995 -1.10E-01
     - OT LS       0.18E-01    3.9                    -3450.0046516129
   199 OT CG       0.18E-01    7.2     0.00041287     -3449.5845421527  3.92E-01
     - OT LS       0.72E-01    3.9                    -3450.0189274441
   200 OT CG       0.72E-01    7.3     0.00052146     -3449.6533323559 -6.88E-02
     - OT LS       0.22E-01    3.9                    -3449.4899774875
   201 OT CG       0.22E-01    7.3     0.00063837     -3449.6837250604 -3.04E-02
     - OT LS       0.82E-02    3.9                    -3449.6484051396
   202 OT CG       0.82E-02    7.3     0.00052061     -3449.7047522387 -2.10E-02
     - OT LS       0.67E-02    3.8                    -3449.7193207669
   203 OT CG       0.67E-02    7.3     0.00031276     -3449.7162551470 -1.15E-02
     - OT LS       0.27E-01    3.9                    -3449.7268303833
   204 OT CG       0.27E-01    7.3     0.00019483     -3449.7573271097 -4.11E-02
     - OT LS       0.32E-01    3.9                    -3449.7674387324
   205 OT CG       0.32E-01    7.3     0.00021437     -3449.7688882493 -1.16E-02
     - OT LS       0.28E-01    3.9                    -3449.7814673221
   206 OT CG       0.28E-01    7.3     0.00014610     -3449.7910473050 -2.22E-02
     - OT LS       0.17E-01    3.9                    -3449.7930709583
   207 OT CG       0.17E-01    7.3     0.00012497     -3449.7971399329 -6.09E-03
     - OT LS       0.65E-02    3.9                    -3449.7956243756
   208 OT CG       0.65E-02    7.2     0.00011984     -3449.7990901261 -1.95E-03
     - OT LS       0.26E-01    3.9                    -3449.8009137107
   209 OT CG       0.26E-01    7.2     0.00011217     -3449.8061372277 -7.05E-03
     - OT LS       0.10E+00    3.9                    -3449.8124679923
   210 OT CG       0.10E+00    7.3     0.00016444     -3449.8284991587 -2.24E-02
     - OT LS       0.18E-01    3.9                    -3449.6955126868
   211 OT CG       0.18E-01    7.3     0.00017605     -3449.8273005721  1.20E-03
     - OT LS       0.11E-01    3.9                    -3449.8300191413
   212 OT CG       0.11E-01    7.3     0.00027825     -3449.8293079834 -2.01E-03
     - OT LS       0.44E-01    3.8                    -3449.8456653661
   213 OT CG       0.44E-01    7.3     0.00042965     -3450.1258408857 -2.97E-01
     - OT LS       0.44E-03    3.9                    -3449.6788797975
   214 OT CG       0.44E-03    7.2     0.00042942     -3450.1261468722 -3.06E-04
     - OT LS       0.18E-02    3.9                    -3450.1275151634
   215 OT CG       0.18E-02    7.2     0.00037317     -3450.1313303337 -5.18E-03
     - OT LS       0.64E-03    3.9                    -3450.1297712077
   216 OT CG       0.64E-03    7.3     0.00037636     -3450.1272335432  4.10E-03
     - OT LS       0.26E-02    3.9                    -3450.1288309119
   217 OT CG       0.26E-02    7.3     0.00033105     -3450.1333096358 -6.08E-03
     - OT LS       0.10E-01    3.9                    -3450.1379486437
   218 OT CG       0.10E-01    7.3     0.00020941     -3450.1526549845 -1.93E-02
     - OT LS       0.41E-01    3.9                    -3450.1597620100
   219 OT CG       0.41E-01    7.2     0.00099240     -3449.8412291407  3.11E-01
     - OT LS       0.90E-02    3.9                    -3448.9593006836
   220 OT CG       0.90E-02    7.2     0.00057444     -3449.3564016365  4.85E-01
     - OT LS       0.85E-02    3.9                    -3449.3801533701
   221 OT CG       0.85E-02    7.3     0.00026729     -3449.3800043665 -2.36E-02
     - OT LS       0.34E-01    3.9                    -3449.3903751819
   222 OT CG       0.34E-01    7.3     0.00027999     -3449.4017946729 -2.18E-02
     - OT LS       0.14E+00    3.8                    -3449.4471256282
   223 OT CG       0.14E+00    7.3     0.00076462     -3449.8450930898 -4.43E-01
     - OT LS       0.61E-01    3.9                    -3449.6859605802
   224 OT CG       0.61E-01    7.3     0.00121726     -3449.4066912296  4.38E-01
     - OT LS       0.11E-01    3.9                    -3448.7775857043
   225 OT CG       0.11E-01    7.3     0.00072201     -3449.3907173737  1.60E-02
     - OT LS       0.30E-01    3.9                    -3449.4556223349
   226 OT CG       0.30E-01    7.3     0.00085280     -3449.4861521206 -9.54E-02
     - OT LS       0.12E+00    3.9                    -3449.9234507839
   227 OT CG       0.12E+00    7.3     0.00343446     -3449.0371953889  4.49E-01
     - OT LS       0.30E-01    3.9                    -3435.6149366883
   228 OT CG       0.30E-01    7.3     0.00664822     -3446.0824960505  2.95E+00
     - OT LS       0.17E-01    3.9                    -3448.6438512699
   229 OT CG       0.17E-01    7.2     0.00100817     -3448.3033606445 -2.22E+00
     - OT LS       0.68E-01    3.9                    -3448.9763167534
   230 OT CG       0.68E-01    7.3     0.00083447     -3448.3615345661 -5.82E-02
     - OT LS       0.27E+00    3.9                    -3449.5605122942
   231 OT CG       0.27E+00    7.3     0.00885294     -3443.9665047636  4.40E+00
     - OT LS       0.13E+00    3.9                    -3425.8577440857
   232 OT CG       0.13E+00    7.3     0.01773116     -3430.1315306020  1.38E+01
     - OT LS       0.64E-01    3.8                    -3423.7185756624
   233 OT CG       0.64E-01    7.2     0.01413695     -3428.6059006115  1.53E+00
     - OT LS       0.32E-01    3.9                    -3426.0537503584
   234 OT CG       0.32E-01    7.2     0.00945056     -3433.2714248736 -4.67E+00
     - OT LS       0.15E-01    3.9                    -3431.2551545534
   235 OT CG       0.15E-01    7.3     0.00345518     -3436.9224006576 -3.65E+00
     - OT LS       0.99E-02    3.9                    -3437.5853715476
   236 OT CG       0.99E-02    7.3     0.00223526     -3437.9786941704 -1.06E+00
     - OT LS       0.40E-01    3.9                    -3438.7168045662
   237 OT CG       0.40E-01    7.3     0.00195670     -3439.8239029756 -1.85E+00
     - OT LS       0.16E+00    3.9                    -3442.6935557497
   238 OT CG       0.16E+00    7.2     0.00731716     -3441.9305706814 -2.11E+00
     - OT LS       0.33E-02    3.9                    -3171.8641146502
   239 OT CG       0.33E-02    7.2     0.00725485     -3442.3742083019 -4.44E-01
     - OT LS       0.59E-02    3.9                    -3444.5129575215
   240 OT CG       0.59E-02    7.3     0.00556363     -3445.1094452317 -2.74E+00
     - OT LS       0.79E-02    3.9                    -3447.0351067107
   241 OT CG       0.79E-02    7.2     0.00257387     -3446.4892453461 -1.38E+00
     - OT LS       0.19E-01    3.9                    -3447.1909502985
   242 OT CG       0.19E-01    7.3     0.00096239     -3446.5232119651 -3.40E-02
     - OT LS       0.75E-01    3.8                    -3446.7862308922
   243 OT CG       0.75E-01    7.3     0.00085666     -3447.2530716824 -7.30E-01
     - OT LS       0.76E-01    3.9                    -3447.8203539301
   244 OT CG       0.76E-01    7.3     0.00332247     -3447.7641749241 -5.11E-01
     - OT LS       0.38E-01    3.9                    -3447.7959875702
   245 OT CG       0.38E-01    7.3     0.00092192     -3447.4046704974  3.60E-01
     - OT LS       0.27E-01    3.9                    -3447.5581474097
   246 OT CG       0.27E-01    7.2     0.00108731     -3447.6104099208 -2.06E-01
     - OT LS       0.31E-01    3.9                    -3447.9035243974
   247 OT CG       0.31E-01    7.3     0.00127147     -3447.8984600978 -2.88E-01
     - OT LS       0.23E-01    3.9                    -3448.1295721228
   248 OT CG       0.23E-01    7.3     0.00055103     -3448.1292913876 -2.31E-01
     - OT LS       0.34E-01    3.9                    -3448.2079377477
   249 OT CG       0.34E-01    7.3     0.00049935     -3448.2173385840 -8.80E-02
     - OT LS       0.87E-01    3.9                    -3448.3364741434
   250 OT CG       0.87E-01    7.3     0.00220631     -3448.1557718529  6.16E-02

  Leaving inner SCF loop after reaching   250 steps.


  Electronic density on regular grids:      -2033.9916780115        0.0083219885
  Core density on regular grids:             2033.9999999986       -0.0000000014
  Total charge density on r-space grids:        0.0083219871
  Total charge density g-space grids:           0.0083219871

  Overlap energy of the core charge distribution:               0.00011754517808
  Self energy of the core charge distribution:              -8859.91288883521156
  Core Hamiltonian energy:                                   2559.82957471066584
  Hartree energy:                                            3796.27852256107735
  Exchange-correlation energy:                               -947.76697692423886
  Dispersion energy:                                            2.59204445388465
  Electric field interaction energy:                            0.82383463576159

  Total energy:                                             -3448.15577185288294

  outer SCF iter =    4 RMS gradient =   0.22E-02 energy =      -3448.1557718529

  ----------------------------------- OT ---------------------------------------
  Minimizer      : CG                  : conjugate gradient
  Preconditioner : FULL_ALL            : diagonalization, state selective
  Precond_solver : DEFAULT
  Line search    : 2PNT                : 2 energies, one gradient
  stepsize       :    0.15000000                  energy_gap     :    0.00100000
  eps_taylor     :   0.10000E-15                  max_taylor     :             4
  ----------------------------------- OT ---------------------------------------

  Step     Update method      Time    Convergence         Total energy    Change
  ------------------------------------------------------------------------------
     1 OT CG       0.15E+00   22.6     0.00093762     -3448.8008204743 -6.45E-01
     - OT LS       0.26E-01    3.8                    -3444.4841237477
     2 OT CG       0.26E-01    7.2     0.00095687     -3448.0264927803  7.74E-01
     - OT LS       0.39E-02    3.8                    -3447.0243648683
     3 OT CG       0.39E-02    7.1     0.00092361     -3447.8906767379  1.36E-01
     - OT LS       0.59E-03    3.8                    -3447.7560901626
     4 OT CG       0.59E-03    7.2     0.00092301     -3447.8707740116  1.99E-02
     - OT LS       0.87E-04    3.8                    -3447.8508121234
     5 OT CG       0.87E-04    7.2     0.00092294     -3447.8678096019  2.96E-03
     - OT LS       0.13E-04    3.8                    -3447.8648429624
     6 OT CG       0.13E-04    7.2     0.00092292     -3447.8673688375  4.41E-04
     - OT LS       0.19E-05    3.8                    -3447.8669280241
     7 OT CG       0.19E-05    7.2     0.00092292     -3447.8673033399  6.55E-05
     - OT LS       0.29E-06    3.8                    -3447.8672378413
     8 OT CG       0.29E-06    7.2     0.00092292     -3447.8672936078  9.73E-06
     - OT LS       0.42E-07    3.8                    -3447.8672838757
     9 OT CG       0.42E-07    7.2     0.00092292     -3447.8672921618  1.45E-06
     - OT LS       0.63E-08    3.8                    -3447.8672907157
    10 OT CG       0.63E-08    7.2     0.00092292     -3447.8672919469  2.15E-07
     - OT LS       0.94E-09    3.8                    -3447.8672917320
    11 OT CG       0.94E-09    7.2     0.00092292     -3447.8672919150  3.19E-08
     - OT LS       0.14E-09    3.8                    -3447.8672918831
    12 OT CG       0.14E-09    7.2     0.00092292     -3447.8672919102  4.74E-09
     - OT LS       0.21E-10    3.8                    -3447.8672919055
    13 OT CG       0.21E-10    7.4     0.00092292     -3447.8672919095  7.05E-10
     - OT LS       0.31E-11    3.8                    -3447.8672919088
    14 OT CG       0.31E-11    7.2     0.00092292     -3447.8672919094  1.06E-10
     - OT LS       0.46E-12    3.8                    -3447.8672919093
    15 OT CG       0.46E-12    7.2     0.00092292     -3447.8672919094  1.46E-11
     - OT LS       0.67E-13    3.8                    -3447.8672919094
    16 OT CG       0.67E-13    7.2     0.00092292     -3447.8672919094  1.82E-12
     - OT LS       0.13E-12    3.8                    -3447.8672919094
    17 OT CG       0.13E-12    7.2     0.00092292     -3447.8672919094  5.46E-12
     - OT LS       0.27E-12    3.8                    -3447.8672919094
    18 OT CG       0.27E-12    7.2     0.00092292     -3447.8672919094  9.55E-12
     - OT LS       0.38E-13    3.8                    -3447.8672919094
    19 OT CG       0.38E-13    7.2     0.00092292     -3447.8672919094  1.36E-12
     - OT LS       0.77E-13    3.8                    -3447.8672919094
    20 OT CG       0.77E-13    7.2     0.00092292     -3447.8672919094  2.27E-12
     - OT LS       0.15E-12    3.8                    -3447.8672919094
    21 OT CG       0.15E-12    7.2     0.00092292     -3447.8672919094  5.91E-12
     - OT LS       0.31E-12    3.8                    -3447.8672919094
    22 OT CG       0.31E-12    7.2     0.00092292     -3447.8672919094  1.00E-11
     - OT LS       0.45E-13    3.8                    -3447.8672919094
    23 OT CG       0.45E-13    7.2     0.00092292     -3447.8672919094  1.36E-12
     - OT LS       0.90E-13    3.8                    -3447.8672919094
    24 OT CG       0.90E-13    7.2     0.00092292     -3447.8672919094  2.73E-12
     - OT LS       0.18E-12    3.8                    -3447.8672919094
    25 OT CG       0.18E-12    7.1     0.00092292     -3447.8672919094  6.82E-12
     - OT LS       0.36E-12    3.8                    -3447.8672919094
    26 OT CG       0.36E-12    7.2     0.00092292     -3447.8672919093  1.18E-11
     - OT LS       0.54E-13    3.8                    -3447.8672919093
    27 OT CG       0.54E-13    7.2     0.00092292     -3447.8672919093  2.27E-12
     - OT LS       0.11E-12    3.8                    -3447.8672919093
    28 OT CG       0.11E-12    7.2     0.00092292     -3447.8672919093  3.18E-12
     - OT LS       0.22E-12    3.8                    -3447.8672919093
    29 OT CG       0.22E-12    7.2     0.00092292     -3447.8672919093  7.73E-12
     - OT LS       0.33E-13    3.8                    -3447.8672919093
    30 OT CG       0.33E-13    7.2     0.00092292     -3447.8672919093  0.00E+00
     - OT LS       0.67E-13    3.8                    -3447.8672919093
    31 OT CG       0.67E-13    7.2     0.00092292     -3447.8672919093  2.73E-12
     - OT LS       0.13E-12    3.8                    -3447.8672919093
    32 OT CG       0.13E-12    7.2     0.00092292     -3447.8672919093  5.00E-12
     - OT LS       0.27E-12    3.8                    -3447.8672919093
    33 OT CG       0.27E-12    7.1     0.00092292     -3447.8672919093  9.09E-12
     - OT LS       0.41E-13    3.8                    -3447.8672919093
    34 OT CG       0.41E-13    7.2     0.00092292     -3447.8672919093  1.36E-12
     - OT LS       0.81E-13    3.8                    -3447.8672919093
    35 OT CG       0.81E-13    7.2     0.00092292     -3447.8672919093  3.64E-12
     - OT LS       0.16E-12    3.8                    -3447.8672919093
    36 OT CG       0.16E-12    7.2     0.00092292     -3447.8672919093  4.55E-12
     - OT LS       0.32E-12    3.8                    -3447.8672919093
    37 OT CG       0.32E-12    7.2     0.00092292     -3447.8672919093  1.05E-11
     - OT LS       0.44E-13    3.8                    -3447.8672919093
    38 OT CG       0.44E-13    7.2     0.00092292     -3447.8672919093  2.73E-12
     - OT LS       0.88E-13    3.8                    -3447.8672919093
    39 OT CG       0.88E-13    7.2     0.00092292     -3447.8672919093  2.73E-12
     - OT LS       0.18E-12    3.8                    -3447.8672919093
    40 OT CG       0.18E-12    7.2     0.00092292     -3447.8672919093  5.46E-12
     - OT LS       0.35E-12    3.8                    -3447.8672919093
    41 OT CG       0.35E-12    7.2     0.00092292     -3447.8672919093  1.18E-11
     - OT LS       0.52E-13    3.8                    -3447.8672919093
    42 OT CG       0.52E-13    7.2     0.00092292     -3447.8672919093  2.27E-12
     - OT LS       0.10E-12    3.8                    -3447.8672919093
    43 OT CG       0.10E-12    7.2     0.00092292     -3447.8672919093  2.73E-12
     - OT LS       0.21E-12    3.8                    -3447.8672919093
    44 OT CG       0.21E-12    7.2     0.00092292     -3447.8672919093  8.64E-12
     - OT LS       0.32E-13    3.8                    -3447.8672919093
    45 OT CG       0.32E-13    7.2     0.00092292     -3447.8672919093  4.55E-13
     - OT LS       0.64E-13    3.8                    -3447.8672919093
    46 OT CG       0.64E-13    7.2     0.00092292     -3447.8672919093  2.73E-12
     - OT LS       0.13E-12    3.8                    -3447.8672919093
    47 OT CG       0.13E-12    7.2     0.00092292     -3447.8672919093  3.64E-12
     - OT LS       0.26E-12    3.8                    -3447.8672919093
    48 OT CG       0.26E-12    7.2     0.00092292     -3447.8672919092  9.09E-12
     - OT LS       0.40E-13    3.8                    -3447.8672919092
    49 OT CG       0.40E-13    7.2     0.00092292     -3447.8672919092  1.36E-12
     - OT LS       0.81E-13    3.8                    -3447.8672919092
    50 OT CG       0.81E-13    7.2     0.00092292     -3447.8672919092  2.73E-12
     - OT LS       0.16E-12    3.8                    -3447.8672919092
    51 OT CG       0.16E-12    7.2     0.00092292     -3447.8672919092  5.00E-12
     - OT LS       0.32E-12    3.8                    -3447.8672919092
    52 OT CG       0.32E-12    7.2     0.00092292     -3447.8672919092  1.18E-11
     - OT LS       0.53E-13    3.8                    -3447.8672919092
    53 OT CG       0.53E-13    7.1     0.00092292     -3447.8672919092  9.09E-13
     - OT LS       0.11E-12    3.8                    -3447.8672919092
    54 OT CG       0.11E-12    7.1     0.00092292     -3447.8672919092  4.09E-12
     - OT LS       0.21E-12    3.8                    -3447.8672919092
    55 OT CG       0.21E-12    7.2     0.00092292     -3447.8672919092  7.73E-12
     - OT LS       0.33E-13    3.8                    -3447.8672919092
    56 OT CG       0.33E-13    7.2     0.00092292     -3447.8672919092  0.00E+00
     - OT LS       0.65E-13    3.8                    -3447.8672919092
    57 OT CG       0.65E-13    7.2     0.00092292     -3447.8672919092  2.27E-12
     - OT LS       0.13E-12    3.8                    -3447.8672919092
    58 OT CG       0.13E-12    7.2     0.00092292     -3447.8672919092  5.46E-12
     - OT LS       0.26E-12    3.8                    -3447.8672919092
    59 OT CG       0.26E-12    7.2     0.00092292     -3447.8672919092  8.19E-12
     - OT LS       0.38E-13    3.8                    -3447.8672919092
    60 OT CG       0.38E-13    7.2     0.00092292     -3447.8672919092  2.27E-12
     - OT LS       0.15E-12    3.8                    -3447.8672919092
    61 OT CG       0.15E-12    7.2     0.00092292     -3447.8672919092  4.55E-12
     - OT LS       0.31E-12    3.8                    -3447.8672919092
    62 OT CG       0.31E-12    7.2     0.00092292     -3447.8672919092  1.00E-11
     - OT LS       0.47E-13    3.8                    -3447.8672919092
    63 OT CG       0.47E-13    7.1     0.00092292     -3447.8672919092  1.36E-12
     - OT LS       0.94E-13    3.8                    -3447.8672919092
    64 OT CG       0.94E-13    7.2     0.00092292     -3447.8672919092  3.18E-12
     - OT LS       0.19E-12    3.8                    -3447.8672919092
    65 OT CG       0.19E-12    7.2     0.00092292     -3447.8672919092  7.28E-12
     - OT LS       0.38E-12    3.8                    -3447.8672919092
    66 OT CG       0.38E-12    7.2     0.00092292     -3447.8672919092  1.23E-11
     - OT LS       0.54E-13    3.8                    -3447.8672919091
    67 OT CG       0.54E-13    7.2     0.00092292     -3447.8672919092  1.82E-12
     - OT LS       0.11E-12    3.8                    -3447.8672919092
    68 OT CG       0.11E-12    7.2     0.00092292     -3447.8672919092  4.09E-12
     - OT LS       0.22E-12    3.8                    -3447.8672919091
    69 OT CG       0.22E-12    7.2     0.00092292     -3447.8672919091  7.73E-12
     - OT LS       0.34E-13    3.8                    -3447.8672919091
    70 OT CG       0.34E-13    7.2     0.00092292     -3447.8672919091  4.55E-13
     - OT LS       0.68E-13    3.8                    -3447.8672919091
    71 OT CG       0.68E-13    7.2     0.00092292     -3447.8672919091  1.82E-12
     - OT LS       0.14E-12    3.8                    -3447.8672919091
    72 OT CG       0.14E-12    7.2     0.00092292     -3447.8672919091  5.46E-12
     - OT LS       0.27E-12    3.8                    -3447.8672919091
    73 OT CG       0.27E-12    7.2     0.00092292     -3447.8672919091  1.00E-11
     - OT LS       0.42E-13    3.8                    -3447.8672919091
    74 OT CG       0.42E-13    7.2     0.00092292     -3447.8672919091  0.00E+00
     - OT LS       0.85E-13    3.8                    -3447.8672919091
    75 OT CG       0.85E-13    7.2     0.00092292     -3447.8672919091  2.73E-12
     - OT LS       0.17E-12    3.8                    -3447.8672919091
    76 OT CG       0.17E-12    7.2     0.00092292     -3447.8672919091  6.82E-12
     - OT LS       0.34E-12    3.8                    -3447.8672919091
    77 OT CG       0.34E-12    7.2     0.00092292     -3447.8672919091  1.18E-11
     - OT LS       0.52E-13    3.8                    -3447.8672919091
    78 OT CG       0.52E-13    7.2     0.00092292     -3447.8672919091  9.09E-13
     - OT LS       0.10E-12    3.8                    -3447.8672919091
    79 OT CG       0.10E-12    7.2     0.00092292     -3447.8672919091  3.18E-12
     - OT LS       0.21E-12    3.8                    -3447.8672919091
    80 OT CG       0.21E-12    7.1     0.00092292     -3447.8672919091  8.19E-12
     - OT LS       0.41E-12    3.8                    -3447.8672919091
    81 OT CG       0.41E-12    7.2     0.00092292     -3447.8672919091  1.32E-11
     - OT LS       0.62E-13    3.8                    -3447.8672919091
    82 OT CG       0.62E-13    7.2     0.00092292     -3447.8672919091  1.82E-12
     - OT LS       0.12E-12    3.8                    -3447.8672919091
    83 OT CG       0.12E-12    7.1     0.00092292     -3447.8672919091  5.46E-12
     - OT LS       0.25E-12    3.8                    -3447.8672919091
    84 OT CG       0.25E-12    7.2     0.00092292     -3447.8672919091  7.28E-12
     - OT LS       0.33E-13    3.8                    -3447.8672919091
    85 OT CG       0.33E-13    7.2     0.00092292     -3447.8672919091  2.27E-12
     - OT LS       0.67E-13    3.8                    -3447.8672919091
    86 OT CG       0.67E-13    7.2     0.00092292     -3447.8672919091  1.36E-12
     - OT LS       0.13E-12    3.8                    -3447.8672919091
    87 OT CG       0.13E-12    7.2     0.00092292     -3447.8672919091  4.55E-12
     - OT LS       0.27E-12    3.8                    -3447.8672919091
    88 OT CG       0.27E-12    7.2     0.00092292     -3447.8672919090  9.55E-12
     - OT LS       0.43E-13    3.8                    -3447.8672919090
    89 OT CG       0.43E-13    7.2     0.00092292     -3447.8672919090  1.82E-12
     - OT LS       0.87E-13    3.8                    -3447.8672919090
    90 OT CG       0.87E-13    7.2     0.00092292     -3447.8672919090  2.73E-12
     - OT LS       0.17E-12    3.8                    -3447.8672919090
    91 OT CG       0.17E-12    7.2     0.00092292     -3447.8672919090  5.46E-12
     - OT LS       0.35E-12    4.0                    -3447.8672919090
    92 OT CG       0.35E-12    7.2     0.00092292     -3447.8672919090  1.27E-11
     - OT LS       0.55E-13    3.8                    -3447.8672919090
    93 OT CG       0.55E-13    7.2     0.00092292     -3447.8672919090  1.36E-12
     - OT LS       0.11E-12    3.8                    -3447.8672919090
    94 OT CG       0.11E-12    7.2     0.00092292     -3447.8672919090  3.64E-12
     - OT LS       0.22E-12    3.8                    -3447.8672919090
    95 OT CG       0.22E-12    7.2     0.00092292     -3447.8672919090  6.82E-12
     - OT LS       0.44E-12    3.8                    -3447.8672919090
    96 OT CG       0.44E-12    7.2     0.00092292     -3447.8672919090  1.50E-11
     - OT LS       0.64E-13    3.8                    -3447.8672919090
    97 OT CG       0.64E-13    7.2     0.00092292     -3447.8672919090  2.73E-12
     - OT LS       0.13E-12    3.8                    -3447.8672919090
    98 OT CG       0.13E-12    7.2     0.00092292     -3447.8672919090  4.55E-12
     - OT LS       0.26E-12    3.8                    -3447.8672919090
    99 OT CG       0.26E-12    7.2     0.00092292     -3447.8672919090  7.73E-12
     - OT LS       0.37E-13    3.8                    -3447.8672919090
   100 OT CG       0.37E-13    7.2     0.00092292     -3447.8672919090  2.27E-12
     - OT LS       0.75E-13    3.8                    -3447.8672919090
   101 OT CG       0.75E-13    7.2     0.00092292     -3447.8672919090  2.27E-12
     - OT LS       0.15E-12    3.8                    -3447.8672919090
   102 OT CG       0.15E-12    7.2     0.00092292     -3447.8672919090  5.00E-12
     - OT LS       0.30E-12    3.8                    -3447.8672919090
   103 OT CG       0.30E-12    7.2     0.00092292     -3447.8672919090  1.09E-11
     - OT LS       0.47E-13    3.8                    -3447.8672919090
   104 OT CG       0.47E-13    7.2     0.00092292     -3447.8672919090  9.09E-13
     - OT LS       0.94E-13    3.8                    -3447.8672919090
   105 OT CG       0.94E-13    7.2     0.00092292     -3447.8672919090  3.18E-12
     - OT LS       0.19E-12    3.8                    -3447.8672919090
   106 OT CG       0.19E-12    7.2     0.00092292     -3447.8672919090  5.91E-12
     - OT LS       0.38E-12    3.8                    -3447.8672919089
   107 OT CG       0.38E-12    7.2     0.00092292     -3447.8672919089  1.32E-11
     - OT LS       0.53E-13    3.8                    -3447.8672919089
   108 OT CG       0.53E-13    7.2     0.00092292     -3447.8672919089  1.82E-12
     - OT LS       0.11E-12    3.8                    -3447.8672919089
   109 OT CG       0.11E-12    7.2     0.00092292     -3447.8672919089  4.55E-12
     - OT LS       0.21E-12    3.8                    -3447.8672919089
   110 OT CG       0.21E-12    7.2     0.00092292     -3447.8672919089  7.28E-12
     - OT LS       0.43E-12    3.8                    -3447.8672919089
   111 OT CG       0.43E-12    7.2     0.00092292     -3447.8672919089  1.41E-11
     - OT LS       0.64E-13    3.8                    -3447.8672919089
   112 OT CG       0.64E-13    7.2     0.00092292     -3447.8672919089  1.82E-12
     - OT LS       0.13E-12    3.8                    -3447.8672919089
   113 OT CG       0.13E-12    7.1     0.00092292     -3447.8672919089  5.00E-12
     - OT LS       0.26E-12    3.8                    -3447.8672919089
   114 OT CG       0.26E-12    7.2     0.00092292     -3447.8672919089  8.19E-12
     - OT LS       0.38E-13    3.8                    -3447.8672919089
   115 OT CG       0.38E-13    7.2     0.00092292     -3447.8672919089  1.82E-12
     - OT LS       0.75E-13    3.8                    -3447.8672919089
   116 OT CG       0.75E-13    7.2     0.00092292     -3447.8672919089  2.73E-12
     - OT LS       0.15E-12    3.8                    -3447.8672919089
   117 OT CG       0.15E-12    7.2     0.00092292     -3447.8672919089  5.00E-12
     - OT LS       0.30E-12    3.8                    -3447.8672919089
   118 OT CG       0.30E-12    7.2     0.00092292     -3447.8672919089  1.05E-11
     - OT LS       0.45E-13    3.8                    -3447.8672919089
   119 OT CG       0.45E-13    7.2     0.00092292     -3447.8672919089  0.00E+00
     - OT LS       0.89E-13    3.8                    -3447.8672919089
   120 OT CG       0.89E-13    7.2     0.00092292     -3447.8672919089  3.18E-12
     - OT LS       0.18E-12    3.8                    -3447.8672919089
   121 OT CG       0.18E-12    7.2     0.00092292     -3447.8672919089  6.37E-12
     - OT LS       0.36E-12    3.8                    -3447.8672919089
   122 OT CG       0.36E-12    7.1     0.00092292     -3447.8672919089  1.23E-11
     - OT LS       0.52E-13    3.8                    -3447.8672919088
   123 OT CG       0.52E-13    7.1     0.00092292     -3447.8672919089  2.73E-12
     - OT LS       0.10E-12    3.8                    -3447.8672919088
   124 OT CG       0.10E-12    7.2     0.00092292     -3447.8672919088  2.73E-12
     - OT LS       0.21E-12    3.8                    -3447.8672919088
   125 OT CG       0.21E-12    7.2     0.00092292     -3447.8672919088  7.28E-12
     - OT LS       0.41E-12    3.8                    -3447.8672919088
   126 OT CG       0.41E-12    7.2     0.00092292     -3447.8672919088  1.41E-11
     - OT LS       0.61E-13    3.8                    -3447.8672919088
   127 OT CG       0.61E-13    7.2     0.00092292     -3447.8672919088  2.27E-12
     - OT LS       0.12E-12    3.8                    -3447.8672919088
   128 OT CG       0.12E-12    7.1     0.00092292     -3447.8672919088  4.09E-12
     - OT LS       0.25E-12    3.8                    -3447.8672919088
   129 OT CG       0.25E-12    7.2     0.00092292     -3447.8672919088  8.64E-12
     - OT LS       0.38E-13    3.8                    -3447.8672919088
   130 OT CG       0.38E-13    7.2     0.00092292     -3447.8672919088  9.09E-13
     - OT LS       0.76E-13    3.8                    -3447.8672919088
   131 OT CG       0.76E-13    7.1     0.00092292     -3447.8672919088  3.64E-12
     - OT LS       0.15E-12    3.8                    -3447.8672919088
   132 OT CG       0.15E-12    7.2     0.00092292     -3447.8672919088  4.09E-12
     - OT LS       0.31E-12    3.8                    -3447.8672919088
   133 OT CG       0.31E-12    7.1     0.00092292     -3447.8672919088  1.09E-11
     - OT LS       0.48E-13    3.8                    -3447.8672919088
   134 OT CG       0.48E-13    7.2     0.00092292     -3447.8672919088  1.82E-12
     - OT LS       0.96E-13    3.8                    -3447.8672919088
   135 OT CG       0.96E-13    7.2     0.00092292     -3447.8672919088  2.73E-12
     - OT LS       0.19E-12    3.8                    -3447.8672919088
   136 OT CG       0.19E-12    7.2     0.00092292     -3447.8672919088  6.82E-12
     - OT LS       0.38E-12    3.8                    -3447.8672919088
   137 OT CG       0.38E-12    7.2     0.00092292     -3447.8672919088  1.41E-11
     - OT LS       0.66E-13    3.8                    -3447.8672919088
   138 OT CG       0.66E-13    7.2     0.00092292     -3447.8672919088  9.09E-13
     - OT LS       0.13E-12    3.8                    -3447.8672919088
   139 OT CG       0.13E-12    7.2     0.00092292     -3447.8672919088  4.55E-12
     - OT LS       0.27E-12    3.8                    -3447.8672919088
   140 OT CG       0.27E-12    7.2     0.00092292     -3447.8672919088  7.73E-12
     - OT LS       0.37E-13    3.8                    -3447.8672919087
   141 OT CG       0.37E-13    7.2     0.00092292     -3447.8672919088  1.82E-12
     - OT LS       0.74E-13    3.8                    -3447.8672919087
   142 OT CG       0.74E-13    7.2     0.00092292     -3447.8672919087  3.18E-12
     - OT LS       0.15E-12    3.8                    -3447.8672919087
   143 OT CG       0.15E-12    7.1     0.00092292     -3447.8672919087  4.55E-12
     - OT LS       0.30E-12    3.8                    -3447.8672919087
   144 OT CG       0.30E-12    7.2     0.00092292     -3447.8672919087  1.00E-11
     - OT LS       0.42E-13    3.8                    -3447.8672919087
   145 OT CG       0.42E-13    7.2     0.00092292     -3447.8672919087  2.27E-12
     - OT LS       0.84E-13    3.8                    -3447.8672919087
   146 OT CG       0.84E-13    7.2     0.00092292     -3447.8672919087  2.27E-12
     - OT LS       0.17E-12    3.8                    -3447.8672919087
   147 OT CG       0.17E-12    7.1     0.00092292     -3447.8672919087  6.37E-12
     - OT LS       0.34E-12    3.8                    -3447.8672919087
   148 OT CG       0.34E-12    7.1     0.00092292     -3447.8672919087  1.14E-11
     - OT LS       0.53E-13    3.8                    -3447.8672919087
   149 OT CG       0.53E-13    7.2     0.00092292     -3447.8672919087  1.82E-12
     - OT LS       0.11E-12    3.8                    -3447.8672919087
   150 OT CG       0.11E-12    7.2     0.00092292     -3447.8672919087  2.27E-12
     - OT LS       0.21E-12    3.8                    -3447.8672919087
   151 OT CG       0.21E-12    7.2     0.00092292     -3447.8672919087  8.64E-12
     - OT LS       0.33E-13    3.8                    -3447.8672919087
   152 OT CG       0.33E-13    7.2     0.00092292     -3447.8672919087  4.55E-13
     - OT LS       0.65E-13    3.8                    -3447.8672919087
   153 OT CG       0.65E-13    7.1     0.00092292     -3447.8672919087  3.18E-12
     - OT LS       0.13E-12    3.8                    -3447.8672919087
   154 OT CG       0.13E-12    7.1     0.00092292     -3447.8672919087  4.09E-12
     - OT LS       0.26E-12    3.8                    -3447.8672919087
   155 OT CG       0.26E-12    7.2     0.00092292     -3447.8672919087  9.09E-12
     - OT LS       0.40E-13    3.8                    -3447.8672919087
   156 OT CG       0.40E-13    7.2     0.00092292     -3447.8672919087  1.36E-12
     - OT LS       0.80E-13    3.8                    -3447.8672919087
   157 OT CG       0.80E-13    7.2     0.00092292     -3447.8672919087  2.73E-12
     - OT LS       0.16E-12    3.8                    -3447.8672919087
   158 OT CG       0.16E-12    7.2     0.00092292     -3447.8672919087  5.00E-12
     - OT LS       0.32E-12    3.8                    -3447.8672919087
   159 OT CG       0.32E-12    7.2     0.00092292     -3447.8672919087  1.09E-11
     - OT LS       0.51E-13    3.8                    -3447.8672919087
   160 OT CG       0.51E-13    7.2     0.00092292     -3447.8672919087  1.36E-12
     - OT LS       0.10E-12    3.8                    -3447.8672919087
   161 OT CG       0.10E-12    7.2     0.00092292     -3447.8672919087  3.18E-12
     - OT LS       0.20E-12    3.8                    -3447.8672919087
   162 OT CG       0.20E-12    7.2     0.00092292     -3447.8672919087  6.82E-12
     - OT LS       0.40E-12    3.8                    -3447.8672919086
   163 OT CG       0.40E-12    7.2     0.00092292     -3447.8672919086  1.46E-11
     - OT LS       0.62E-13    3.8                    -3447.8672919086
   164 OT CG       0.62E-13    7.2     0.00092292     -3447.8672919086  1.82E-12
     - OT LS       0.12E-12    3.8                    -3447.8672919086
   165 OT CG       0.12E-12    7.2     0.00092292     -3447.8672919086  3.64E-12
     - OT LS       0.25E-12    3.8                    -3447.8672919086
   166 OT CG       0.25E-12    7.2     0.00092292     -3447.8672919086  9.09E-12
     - OT LS       0.34E-13    3.8                    -3447.8672919086
   167 OT CG       0.34E-13    7.2     0.00092292     -3447.8672919086  4.55E-13
     - OT LS       0.69E-13    3.8                    -3447.8672919086
   168 OT CG       0.69E-13    7.2     0.00092292     -3447.8672919086  2.27E-12
     - OT LS       0.14E-12    3.8                    -3447.8672919086
   169 OT CG       0.14E-12    7.2     0.00092292     -3447.8672919086  5.91E-12
     - OT LS       0.28E-12    3.8                    -3447.8672919086
   170 OT CG       0.28E-12    7.2     0.00092292     -3447.8672919086  8.64E-12
     - OT LS       0.40E-13    3.8                    -3447.8672919086
   171 OT CG       0.40E-13    7.2     0.00092292     -3447.8672919086  9.09E-13
     - OT LS       0.80E-13    3.8                    -3447.8672919086
   172 OT CG       0.80E-13    7.2     0.00092292     -3447.8672919086  4.09E-12
     - OT LS       0.16E-12    3.8                    -3447.8672919086
   173 OT CG       0.16E-12    7.1     0.00092292     -3447.8672919086  5.00E-12
     - OT LS       0.32E-12    3.8                    -3447.8672919086
   174 OT CG       0.32E-12    7.2     0.00092292     -3447.8672919086  1.09E-11
     - OT LS       0.49E-13    3.8                    -3447.8672919086
   175 OT CG       0.49E-13    7.2     0.00092292     -3447.8672919086  4.55E-13
     - OT LS       0.98E-13    3.8                    -3447.8672919086
   176 OT CG       0.98E-13    7.2     0.00092292     -3447.8672919086  4.09E-12
     - OT LS       0.20E-12    3.8                    -3447.8672919086
   177 OT CG       0.20E-12    7.2     0.00092292     -3447.8672919086  7.28E-12
     - OT LS       0.32E-13    3.8                    -3447.8672919086
   178 OT CG       0.32E-13    7.2     0.00092292     -3447.8672919086  1.36E-12
     - OT LS       0.64E-13    3.8                    -3447.8672919086
   179 OT CG       0.64E-13    7.2     0.00092292     -3447.8672919086  9.09E-13
     - OT LS       0.13E-12    3.8                    -3447.8672919086
   180 OT CG       0.13E-12    7.2     0.00092292     -3447.8672919086  5.91E-12
     - OT LS       0.26E-12    3.8                    -3447.8672919086
   181 OT CG       0.26E-12    7.2     0.00092292     -3447.8672919086  8.19E-12
     - OT LS       0.39E-13    3.8                    -3447.8672919085
   182 OT CG       0.39E-13    7.2     0.00092292     -3447.8672919086  4.55E-13
     - OT LS       0.78E-13    3.8                    -3447.8672919086
   183 OT CG       0.78E-13    7.1     0.00092292     -3447.8672919086  3.18E-12
     - OT LS       0.16E-12    3.8                    -3447.8672919085
   184 OT CG       0.16E-12    7.2     0.00092292     -3447.8672919085  5.00E-12
     - OT LS       0.31E-12    3.8                    -3447.8672919085
   185 OT CG       0.31E-12    7.2     0.00092292     -3447.8672919085  1.05E-11
     - OT LS       0.44E-13    3.8                    -3447.8672919085
   186 OT CG       0.44E-13    7.2     0.00092292     -3447.8672919085  2.27E-12
     - OT LS       0.87E-13    3.8                    -3447.8672919085
   187 OT CG       0.87E-13    7.2     0.00092292     -3447.8672919085  3.64E-12
     - OT LS       0.17E-12    3.8                    -3447.8672919085
   188 OT CG       0.17E-12    7.2     0.00092292     -3447.8672919085  5.46E-12
     - OT LS       0.35E-12    3.8                    -3447.8672919085
   189 OT CG       0.35E-12    7.2     0.00092292     -3447.8672919085  1.23E-11
     - OT LS       0.55E-13    3.8                    -3447.8672919085
   190 OT CG       0.55E-13    7.1     0.00092292     -3447.8672919085  9.09E-13
     - OT LS       0.11E-12    3.8                    -3447.8672919085
   191 OT CG       0.11E-12    7.2     0.00092292     -3447.8672919085  3.64E-12
     - OT LS       0.22E-12    3.8                    -3447.8672919085
   192 OT CG       0.22E-12    7.2     0.00092292     -3447.8672919085  7.73E-12
     - OT LS       0.34E-13    3.8                    -3447.8672919085
   193 OT CG       0.34E-13    7.2     0.00092292     -3447.8672919085  1.82E-12
     - OT LS       0.67E-13    3.8                    -3447.8672919085
   194 OT CG       0.67E-13    7.2     0.00092292     -3447.8672919085  1.36E-12
     - OT LS       0.13E-12    3.8                    -3447.8672919085
   195 OT CG       0.13E-12    7.2     0.00092292     -3447.8672919085  4.55E-12
     - OT LS       0.27E-12    3.8                    -3447.8672919085
   196 OT CG       0.27E-12    7.2     0.00092292     -3447.8672919085  9.55E-12
     - OT LS       0.39E-13    3.8                    -3447.8672919085
   197 OT CG       0.39E-13    7.2     0.00092292     -3447.8672919085  1.36E-12
     - OT LS       0.79E-13    3.8                    -3447.8672919085
   198 OT CG       0.79E-13    7.2     0.00092292     -3447.8672919085  1.82E-12
     - OT LS       0.16E-12    3.8                    -3447.8672919085
   199 OT CG       0.16E-12    7.1     0.00092292     -3447.8672919085  6.37E-12
     - OT LS       0.32E-12    3.8                    -3447.8672919085
   200 OT CG       0.32E-12    7.2     0.00092292     -3447.8672919085  1.14E-11
     - OT LS       0.48E-13    3.8                    -3447.8672919085
   201 OT CG       0.48E-13    7.2     0.00092292     -3447.8672919085  9.09E-13
     - OT LS       0.96E-13    3.8                    -3447.8672919085
   202 OT CG       0.96E-13    7.2     0.00092292     -3447.8672919085  3.64E-12
     - OT LS       0.19E-12    3.8                    -3447.8672919085
   203 OT CG       0.19E-12    7.2     0.00092292     -3447.8672919085  6.82E-12
     - OT LS       0.32E-13    3.8                    -3447.8672919084
   204 OT CG       0.32E-13    7.2     0.00092292     -3447.8672919085  4.55E-13
     - OT LS       0.64E-13    3.8                    -3447.8672919084
   205 OT CG       0.64E-13    7.2     0.00092292     -3447.8672919084  1.36E-12
     - OT LS       0.13E-12    3.8                    -3447.8672919084
   206 OT CG       0.13E-12    7.2     0.00092292     -3447.8672919084  5.91E-12
     - OT LS       0.26E-12    3.8                    -3447.8672919084
   207 OT CG       0.26E-12    7.2     0.00092292     -3447.8672919084  7.73E-12
     - OT LS       0.36E-13    3.8                    -3447.8672919084
   208 OT CG       0.36E-13    7.2     0.00092292     -3447.8672919084  2.27E-12
     - OT LS       0.72E-13    3.8                    -3447.8672919084
   209 OT CG       0.72E-13    7.2     0.00092292     -3447.8672919084  1.82E-12
     - OT LS       0.14E-12    3.8                    -3447.8672919084
   210 OT CG       0.14E-12    7.2     0.00092292     -3447.8672919084  4.09E-12
     - OT LS       0.29E-12    3.8                    -3447.8672919084
   211 OT CG       0.29E-12    7.2     0.00092292     -3447.8672919084  1.05E-11
     - OT LS       0.43E-13    3.8                    -3447.8672919084
   212 OT CG       0.43E-13    7.2     0.00092292     -3447.8672919084  1.82E-12
     - OT LS       0.86E-13    3.8                    -3447.8672919084
   213 OT CG       0.86E-13    7.2     0.00092292     -3447.8672919084  3.64E-12
     - OT LS       0.17E-12    3.8                    -3447.8672919084
   214 OT CG       0.17E-12    7.2     0.00092292     -3447.8672919084  5.00E-12
     - OT LS       0.34E-12    3.8                    -3447.8672919084
   215 OT CG       0.34E-12    7.2     0.00092292     -3447.8672919084  1.18E-11
     - OT LS       0.52E-13    4.2                    -3447.8672919084
   216 OT CG       0.52E-13    7.2     0.00092292     -3447.8672919084  1.82E-12
     - OT LS       0.10E-12    3.8                    -3447.8672919084
   217 OT CG       0.10E-12    7.2     0.00092292     -3447.8672919084  2.73E-12
     - OT LS       0.21E-12    3.8                    -3447.8672919084
   218 OT CG       0.21E-12    7.2     0.00092292     -3447.8672919084  7.73E-12
     - OT LS       0.41E-12    3.8                    -3447.8672919084
   219 OT CG       0.41E-12    7.2     0.00092292     -3447.8672919084  1.41E-11
     - OT LS       0.60E-13    3.8                    -3447.8672919084
   220 OT CG       0.60E-13    7.2     0.00092292     -3447.8672919084  1.82E-12
     - OT LS       0.12E-12    3.8                    -3447.8672919084
   221 OT CG       0.12E-12    7.2     0.00092292     -3447.8672919084  4.09E-12
     - OT LS       0.24E-12    3.8                    -3447.8672919084
   222 OT CG       0.24E-12    7.2     0.00092292     -3447.8672919084  8.64E-12
     - OT LS       0.36E-13    3.8                    -3447.8672919083
   223 OT CG       0.36E-13    7.2     0.00092292     -3447.8672919084  4.55E-13
     - OT LS       0.72E-13    3.8                    -3447.8672919084
   224 OT CG       0.72E-13    7.2     0.00092292     -3447.8672919083  3.18E-12
     - OT LS       0.14E-12    3.8                    -3447.8672919083
   225 OT CG       0.14E-12    7.2     0.00092292     -3447.8672919083  4.55E-12
     - OT LS       0.29E-12    3.8                    -3447.8672919083
   226 OT CG       0.29E-12    7.1     0.00092292     -3447.8672919083  1.05E-11
     - OT LS       0.46E-13    3.8                    -3447.8672919083
   227 OT CG       0.46E-13    7.2     0.00092292     -3447.8672919083  9.09E-13
     - OT LS       0.92E-13    3.8                    -3447.8672919083
   228 OT CG       0.92E-13    7.2     0.00092292     -3447.8672919083  2.27E-12
     - OT LS       0.18E-12    3.8                    -3447.8672919083
   229 OT CG       0.18E-12    7.2     0.00092292     -3447.8672919083  7.28E-12
     - OT LS       0.37E-12    3.8                    -3447.8672919083
   230 OT CG       0.37E-12    7.1     0.00092292     -3447.8672919083  1.18E-11
     - OT LS       0.55E-13    3.8                    -3447.8672919083
   231 OT CG       0.55E-13    7.2     0.00092292     -3447.8672919083  2.27E-12
     - OT LS       0.11E-12    3.8                    -3447.8672919083
   232 OT CG       0.11E-12    7.2     0.00092292     -3447.8672919083  2.73E-12
     - OT LS       0.22E-12    3.8                    -3447.8672919083
   233 OT CG       0.22E-12    7.2     0.00092292     -3447.8672919083  8.64E-12
     - OT LS       0.35E-13    3.8                    -3447.8672919083
   234 OT CG       0.35E-13    7.2     0.00092292     -3447.8672919083  9.09E-13
     - OT LS       0.69E-13    3.8                    -3447.8672919083
   235 OT CG       0.69E-13    7.2     0.00092292     -3447.8672919083  2.27E-12
     - OT LS       0.14E-12    3.8                    -3447.8672919083
   236 OT CG       0.14E-12    7.2     0.00092292     -3447.8672919083  4.55E-12
     - OT LS       0.28E-12    3.8                    -3447.8672919083
   237 OT CG       0.28E-12    7.2     0.00092292     -3447.8672919083  9.55E-12
     - OT LS       0.42E-13    3.8                    -3447.8672919083
   238 OT CG       0.42E-13    7.2     0.00092292     -3447.8672919083  1.36E-12
     - OT LS       0.83E-13    3.8                    -3447.8672919083
   239 OT CG       0.83E-13    7.2     0.00092292     -3447.8672919083  2.73E-12
     - OT LS       0.17E-12    3.8                    -3447.8672919083
   240 OT CG       0.17E-12    7.2     0.00092292     -3447.8672919083  5.91E-12
     - OT LS       0.33E-12    3.8                    -3447.8672919083
   241 OT CG       0.33E-12    7.2     0.00092292     -3447.8672919083  1.14E-11
     - OT LS       0.48E-13    3.8                    -3447.8672919082
   242 OT CG       0.48E-13    7.2     0.00092292     -3447.8672919083  1.36E-12
     - OT LS       0.95E-13    3.8                    -3447.8672919083
   243 OT CG       0.95E-13    7.1     0.00092292     -3447.8672919083  3.64E-12
     - OT LS       0.19E-12    3.8                    -3447.8672919083
   244 OT CG       0.19E-12    7.2     0.00092292     -3447.8672919082  6.82E-12
     - OT LS       0.32E-13    3.8                    -3447.8672919082
   245 OT CG       0.32E-13    7.2     0.00092292     -3447.8672919082  4.55E-13
     - OT LS       0.64E-13    3.8                    -3447.8672919082
   246 OT CG       0.64E-13    7.2     0.00092292     -3447.8672919082  2.73E-12
     - OT LS       0.13E-12    3.8                    -3447.8672919082
   247 OT CG       0.13E-12    7.2     0.00092292     -3447.8672919082  3.64E-12
     - OT LS       0.26E-12    3.8                    -3447.8672919082
   248 OT CG       0.26E-12    7.2     0.00092292     -3447.8672919082  8.19E-12
     - OT LS       0.37E-13    3.8                    -3447.8672919082
   249 OT CG       0.37E-13    7.2     0.00092292     -3447.8672919082  1.82E-12
     - OT LS       0.74E-13    3.8                    -3447.8672919082
   250 OT CG       0.74E-13    7.2     0.00092292     -3447.8672919082  3.18E-12

  Leaving inner SCF loop after reaching   250 steps.


  Electronic density on regular grids:      -2033.0927905828        0.9072094172
  Core density on regular grids:             2033.9999999986       -0.0000000014
  Total charge density on r-space grids:        0.9072094158
  Total charge density g-space grids:           0.9072094158

  Overlap energy of the core charge distribution:               0.00011754517808
  Self energy of the core charge distribution:              -8859.91288883521156
  Core Hamiltonian energy:                                   2558.76665810724216
  Hartree energy:                                            3797.62829699935128
  Exchange-correlation energy:                               -947.03735594116472
  Dispersion energy:                                            2.59080123444314
  Electric field interaction energy:                            0.09707898193309

  Total energy:                                             -3447.86729190822825

  outer SCF iter =    5 RMS gradient =   0.92E-03 energy =      -3447.8672919082

  ----------------------------------- OT ---------------------------------------
  Minimizer      : CG                  : conjugate gradient
  Preconditioner : FULL_ALL            : diagonalization, state selective
  Precond_solver : DEFAULT
  Line search    : 2PNT                : 2 energies, one gradient
  stepsize       :    0.15000000                  energy_gap     :    0.00100000
  eps_taylor     :   0.10000E-15                  max_taylor     :             4
  ----------------------------------- OT ---------------------------------------

  Step     Update method      Time    Convergence         Total energy    Change
  ------------------------------------------------------------------------------
     1 OT CG       0.15E+00   22.5     0.00105853     -3447.8672919082  2.27E-12
     - OT LS       0.18E-01    3.8                    -3438.7594095845
     2 OT CG       0.18E-01    7.2     0.00118839     -3446.8321053936  1.04E+00
     - OT LS       0.23E-02    3.8                    -3445.3130116613
     3 OT CG       0.23E-02    7.1     0.00117757     -3446.6441645691  1.88E-01
     - OT LS       0.28E-03    3.7                    -3446.4831233088
     4 OT CG       0.28E-03    7.1     0.00117599     -3446.6253383281  1.88E-02
     - OT LS       0.37E-04    3.8                    -3446.6064630408
     5 OT CG       0.37E-04    7.1     0.00117579     -3446.6228812961  2.46E-03
     - OT LS       0.48E-05    3.8                    -3446.6204234366
     6 OT CG       0.48E-05    7.2     0.00117577     -3446.6225612928  3.20E-04
     - OT LS       0.63E-06    3.7                    -3446.6222412756
     7 OT CG       0.63E-06    7.1     0.00117576     -3446.6225196269  4.17E-05
     - OT LS       0.82E-07    3.8                    -3446.6224779607
     8 OT CG       0.82E-07    7.1     0.00117576     -3446.6225142020  5.42E-06
     - OT LS       0.11E-07    3.8                    -3446.6225087771
     9 OT CG       0.11E-07    7.1     0.00117576     -3446.6225134957  7.06E-07
     - OT LS       0.14E-08    3.8                    -3446.6225127894
    10 OT CG       0.14E-08    7.2     0.00117576     -3446.6225134037  9.20E-08
     - OT LS       0.18E-09    3.8                    -3446.6225133118
    11 OT CG       0.18E-09    7.1     0.00117576     -3446.6225133917  1.20E-08
     - OT LS       0.23E-10    3.8                    -3446.6225133798
    12 OT CG       0.23E-10    7.2     0.00117576     -3446.6225133902  1.56E-09
     - OT LS       0.31E-11    3.8                    -3446.6225133886
    13 OT CG       0.31E-11    7.2     0.00117576     -3446.6225133900  2.03E-10
     - OT LS       0.40E-12    3.7                    -3446.6225133898
    14 OT CG       0.40E-12    7.2     0.00117576     -3446.6225133900  2.73E-11
     - OT LS       0.55E-13    3.8                    -3446.6225133899
    15 OT CG       0.55E-13    7.2     0.00117576     -3446.6225133900  2.27E-12
     - OT LS       0.11E-12    3.8                    -3446.6225133900
    16 OT CG       0.11E-12    7.1     0.00117576     -3446.6225133899  7.73E-12
     - OT LS       0.22E-12    3.8                    -3446.6225133899
    17 OT CG       0.22E-12    7.2     0.00117576     -3446.6225133899  1.36E-11
     - OT LS       0.28E-13    3.8                    -3446.6225133899
    18 OT CG       0.28E-13    7.2     0.00117576     -3446.6225133899  2.73E-12
     - OT LS       0.56E-13    3.8                    -3446.6225133899
    19 OT CG       0.56E-13    7.1     0.00117576     -3446.6225133899  4.09E-12
     - OT LS       0.11E-12    3.8                    -3446.6225133899
    20 OT CG       0.11E-12    7.2     0.00117576     -3446.6225133899  5.91E-12
     - OT LS       0.22E-12    3.8                    -3446.6225133899
    21 OT CG       0.22E-12    7.2     0.00117576     -3446.6225133899  1.64E-11
     - OT LS       0.29E-13    3.8                    -3446.6225133899
    22 OT CG       0.29E-13    7.2     0.00117576     -3446.6225133899  1.36E-12
     - OT LS       0.59E-13    3.8                    -3446.6225133899
    23 OT CG       0.59E-13    7.1     0.00117576     -3446.6225133899  3.64E-12
     - OT LS       0.12E-12    3.7                    -3446.6225133899
    24 OT CG       0.12E-12    7.2     0.00117576     -3446.6225133899  8.19E-12
     - OT LS       0.23E-12    3.8                    -3446.6225133899
    25 OT CG       0.23E-12    7.1     0.00117576     -3446.6225133899  1.59E-11
     - OT LS       0.31E-13    3.8                    -3446.6225133899
    26 OT CG       0.31E-13    7.2     0.00117576     -3446.6225133899  2.27E-12
     - OT LS       0.62E-13    3.8                    -3446.6225133899
    27 OT CG       0.62E-13    7.2     0.00117576     -3446.6225133899  3.64E-12
     - OT LS       0.12E-12    3.8                    -3446.6225133899
    28 OT CG       0.12E-12    7.1     0.00117576     -3446.6225133899  7.28E-12
     - OT LS       0.25E-12    3.8                    -3446.6225133899
    29 OT CG       0.25E-12    7.2     0.00117576     -3446.6225133898  1.77E-11
     - OT LS       0.32E-13    3.8                    -3446.6225133898
    30 OT CG       0.32E-13    7.1     0.00117576     -3446.6225133898  1.82E-12
     - OT LS       0.64E-13    3.8                    -3446.6225133898
    31 OT CG       0.64E-13    7.1     0.00117576     -3446.6225133898  4.09E-12
     - OT LS       0.13E-12    3.8                    -3446.6225133898
    32 OT CG       0.13E-12    7.1     0.00117576     -3446.6225133898  8.64E-12
     - OT LS       0.26E-12    3.8                    -3446.6225133898
    33 OT CG       0.26E-12    7.2     0.00117576     -3446.6225133898  1.64E-11
     - OT LS       0.32E-13    3.7                    -3446.6225133898
    34 OT CG       0.32E-13    7.2     0.00117576     -3446.6225133898  2.27E-12
     - OT LS       0.65E-13    3.8                    -3446.6225133898
    35 OT CG       0.65E-13    7.2     0.00117576     -3446.6225133898  4.55E-12
     - OT LS       0.13E-12    3.8                    -3446.6225133898
    36 OT CG       0.13E-12    7.1     0.00117576     -3446.6225133898  8.19E-12
     - OT LS       0.26E-12    3.8                    -3446.6225133898
    37 OT CG       0.26E-12    7.2     0.00117576     -3446.6225133898  1.73E-11
     - OT LS       0.34E-13    3.8                    -3446.6225133898
    38 OT CG       0.34E-13    7.2     0.00117576     -3446.6225133898  2.73E-12
     - OT LS       0.67E-13    3.8                    -3446.6225133898
    39 OT CG       0.67E-13    7.1     0.00117576     -3446.6225133898  5.91E-12
     - OT LS       0.13E-12    3.8                    -3446.6225133898
    40 OT CG       0.13E-12    7.1     0.00117576     -3446.6225133898  7.73E-12
     - OT LS       0.27E-12    3.8                    -3446.6225133898
    41 OT CG       0.27E-12    7.2     0.00117576     -3446.6225133897  1.82E-11
     - OT LS       0.36E-13    3.8                    -3446.6225133897
    42 OT CG       0.36E-13    7.2     0.00117576     -3446.6225133897  1.36E-12
     - OT LS       0.71E-13    3.8                    -3446.6225133897
    43 OT CG       0.71E-13    7.2     0.00117576     -3446.6225133897  5.91E-12
     - OT LS       0.14E-12    3.8                    -3446.6225133897
    44 OT CG       0.14E-12    7.2     0.00117576     -3446.6225133897  8.64E-12
     - OT LS       0.29E-12    3.8                    -3446.6225133897
    45 OT CG       0.29E-12    7.2     0.00117576     -3446.6225133897  1.91E-11
     - OT LS       0.36E-13    3.8                    -3446.6225133897
    46 OT CG       0.36E-13    7.2     0.00117576     -3446.6225133897  3.18E-12
     - OT LS       0.72E-13    3.8                    -3446.6225133897
    47 OT CG       0.72E-13    7.1     0.00117576     -3446.6225133897  3.64E-12
     - OT LS       0.14E-12    3.8                    -3446.6225133897
    48 OT CG       0.14E-12    7.2     0.00117576     -3446.6225133897  9.55E-12
     - OT LS       0.29E-12    3.8                    -3446.6225133897
    49 OT CG       0.29E-12    7.1     0.00117576     -3446.6225133897  1.96E-11
     - OT LS       0.38E-13    3.8                    -3446.6225133897
    50 OT CG       0.38E-13    7.2     0.00117576     -3446.6225133897  1.36E-12
     - OT LS       0.77E-13    3.8                    -3446.6225133897
    51 OT CG       0.77E-13    7.2     0.00117576     -3446.6225133897  5.91E-12
     - OT LS       0.15E-12    3.8                    -3446.6225133897
    52 OT CG       0.15E-12    7.2     0.00117576     -3446.6225133897  9.55E-12
     - OT LS       0.31E-12    3.8                    -3446.6225133896
    53 OT CG       0.31E-12    7.2     0.00117576     -3446.6225133896  2.05E-11
     - OT LS       0.40E-13    3.8                    -3446.6225133896
    54 OT CG       0.40E-13    7.2     0.00117576     -3446.6225133896  3.18E-12
     - OT LS       0.79E-13    3.8                    -3446.6225133896
    55 OT CG       0.79E-13    7.1     0.00117576     -3446.6225133896  5.00E-12
     - OT LS       0.16E-12    3.8                    -3446.6225133896
    56 OT CG       0.16E-12    7.1     0.00117576     -3446.6225133896  1.09E-11
     - OT LS       0.22E-13    3.8                    -3446.6225133896
    57 OT CG       0.22E-13    7.2     0.00117576     -3446.6225133896  1.36E-12
     - OT LS       0.43E-13    3.8                    -3446.6225133896
    58 OT CG       0.43E-13    7.2     0.00117576     -3446.6225133896  2.73E-12
     - OT LS       0.86E-13    3.8                    -3446.6225133896
    59 OT CG       0.86E-13    7.2     0.00117576     -3446.6225133896  5.91E-12
     - OT LS       0.17E-12    3.8                    -3446.6225133896
    60 OT CG       0.17E-12    7.2     0.00117576     -3446.6225133896  1.18E-11
     - OT LS       0.24E-13    3.8                    -3446.6225133896
    61 OT CG       0.24E-13    7.1     0.00117576     -3446.6225133896  2.27E-12
     - OT LS       0.48E-13    3.8                    -3446.6225133896
    62 OT CG       0.48E-13    7.1     0.00117576     -3446.6225133896  2.27E-12
     - OT LS       0.96E-13    3.8                    -3446.6225133896
    63 OT CG       0.96E-13    7.1     0.00117576     -3446.6225133896  5.91E-12
     - OT LS       0.19E-12    3.7                    -3446.6225133896
    64 OT CG       0.19E-12    7.1     0.00117576     -3446.6225133896  1.36E-11
     - OT LS       0.26E-13    3.8                    -3446.6225133896
    65 OT CG       0.26E-13    7.1     0.00117576     -3446.6225133896  4.55E-13
     - OT LS       0.53E-13    3.8                    -3446.6225133896
    66 OT CG       0.53E-13    7.1     0.00117576     -3446.6225133896  4.55E-12
     - OT LS       0.11E-12    3.8                    -3446.6225133896
    67 OT CG       0.11E-12    7.1     0.00117576     -3446.6225133896  7.73E-12
     - OT LS       0.21E-12    3.8                    -3446.6225133896
    68 OT CG       0.21E-12    7.1     0.00117576     -3446.6225133895  1.27E-11
     - OT LS       0.27E-13    3.8                    -3446.6225133895
    69 OT CG       0.27E-13    7.2     0.00117576     -3446.6225133895  2.27E-12
     - OT LS       0.54E-13    3.8                    -3446.6225133895
    70 OT CG       0.54E-13    7.1     0.00117576     -3446.6225133895  3.18E-12
     - OT LS       0.11E-12    3.8                    -3446.6225133895
    71 OT CG       0.11E-12    7.1     0.00117576     -3446.6225133895  6.82E-12
     - OT LS       0.22E-12    3.8                    -3446.6225133895
    72 OT CG       0.22E-12    7.1     0.00117576     -3446.6225133895  1.41E-11
     - OT LS       0.27E-13    3.8                    -3446.6225133895
    73 OT CG       0.27E-13    7.1     0.00117576     -3446.6225133895  2.73E-12
     - OT LS       0.55E-13    3.8                    -3446.6225133895
    74 OT CG       0.55E-13    7.2     0.00117576     -3446.6225133895  3.64E-12
     - OT LS       0.11E-12    3.8                    -3446.6225133895
    75 OT CG       0.11E-12    7.1     0.00117576     -3446.6225133895  7.73E-12
     - OT LS       0.22E-12    3.8                    -3446.6225133895
    76 OT CG       0.22E-12    7.2     0.00117576     -3446.6225133895  1.36E-11
     - OT LS       0.28E-13    3.8                    -3446.6225133895
    77 OT CG       0.28E-13    7.2     0.00117576     -3446.6225133895  1.82E-12
     - OT LS       0.56E-13    3.8                    -3446.6225133895
    78 OT CG       0.56E-13    7.1     0.00117576     -3446.6225133895  4.55E-12
     - OT LS       0.11E-12    3.8                    -3446.6225133895
    79 OT CG       0.11E-12    7.2     0.00117576     -3446.6225133895  6.37E-12
     - OT LS       0.22E-12    3.8                    -3446.6225133895
    80 OT CG       0.22E-12    7.2     0.00117576     -3446.6225133895  1.55E-11
     - OT LS       0.29E-13    3.8                    -3446.6225133895
    81 OT CG       0.29E-13    7.1     0.00117576     -3446.6225133895  2.73E-12
     - OT LS       0.59E-13    3.8                    -3446.6225133895
    82 OT CG       0.59E-13    7.2     0.00117576     -3446.6225133895  3.18E-12
     - OT LS       0.12E-12    3.8                    -3446.6225133895
    83 OT CG       0.12E-12    7.2     0.00117576     -3446.6225133895  8.64E-12
     - OT LS       0.24E-12    3.8                    -3446.6225133894
    84 OT CG       0.24E-12    7.2     0.00117576     -3446.6225133894  1.50E-11
     - OT LS       0.30E-13    3.8                    -3446.6225133894
    85 OT CG       0.30E-13    7.2     0.00117576     -3446.6225133894  2.27E-12
     - OT LS       0.60E-13    3.8                    -3446.6225133894
    86 OT CG       0.60E-13    7.1     0.00117576     -3446.6225133894  4.09E-12
     - OT LS       0.12E-12    3.8                    -3446.6225133894
    87 OT CG       0.12E-12    7.2     0.00117576     -3446.6225133894  8.19E-12
     - OT LS       0.24E-12    3.8                    -3446.6225133894
    88 OT CG       0.24E-12    7.2     0.00117576     -3446.6225133894  1.64E-11
     - OT LS       0.32E-13    3.8                    -3446.6225133894
    89 OT CG       0.32E-13    7.2     0.00117576     -3446.6225133894  1.36E-12
     - OT LS       0.64E-13    3.8                    -3446.6225133894
    90 OT CG       0.64E-13    7.2     0.00117576     -3446.6225133894  4.55E-12
     - OT LS       0.13E-12    3.8                    -3446.6225133894
    91 OT CG       0.13E-12    7.2     0.00117576     -3446.6225133894  8.19E-12
     - OT LS       0.26E-12    3.8                    -3446.6225133894
    92 OT CG       0.26E-12    7.2     0.00117576     -3446.6225133894  1.64E-11
     - OT LS       0.31E-13    3.8                    -3446.6225133894
    93 OT CG       0.31E-13    7.2     0.00117576     -3446.6225133894  2.27E-12
     - OT LS       0.62E-13    3.8                    -3446.6225133894
    94 OT CG       0.62E-13    7.1     0.00117576     -3446.6225133894  4.55E-12
     - OT LS       0.12E-12    3.8                    -3446.6225133894
    95 OT CG       0.12E-12    7.2     0.00117576     -3446.6225133894  7.73E-12
     - OT LS       0.25E-12    3.8                    -3446.6225133894
    96 OT CG       0.25E-12    7.1     0.00117576     -3446.6225133893  1.64E-11
     - OT LS       0.31E-13    3.8                    -3446.6225133893
    97 OT CG       0.31E-13    7.1     0.00117576     -3446.6225133893  3.18E-12
     - OT LS       0.63E-13    3.8                    -3446.6225133893
    98 OT CG       0.63E-13    7.1     0.00117576     -3446.6225133893  4.09E-12
     - OT LS       0.13E-12    3.8                    -3446.6225133893
    99 OT CG       0.13E-12    7.2     0.00117576     -3446.6225133893  8.19E-12
     - OT LS       0.25E-12    3.8                    -3446.6225133893
   100 OT CG       0.25E-12    7.2     0.00117576     -3446.6225133893  1.64E-11
     - OT LS       0.33E-13    3.8                    -3446.6225133893
   101 OT CG       0.33E-13    7.5     0.00117576     -3446.6225133893  3.18E-12
     - OT LS       0.65E-13    4.4                    -3446.6225133893
   102 OT CG       0.65E-13    7.2     0.00117576     -3446.6225133893  4.09E-12
     - OT LS       0.13E-12    3.8                    -3446.6225133893
   103 OT CG       0.13E-12    7.1     0.00117576     -3446.6225133893  8.19E-12
     - OT LS       0.26E-12    3.8                    -3446.6225133893
   104 OT CG       0.26E-12    7.1     0.00117576     -3446.6225133893  1.77E-11
     - OT LS       0.34E-13    3.8                    -3446.6225133893
   105 OT CG       0.34E-13    7.1     0.00117576     -3446.6225133893  1.82E-12
     - OT LS       0.69E-13    3.8                    -3446.6225133893
   106 OT CG       0.69E-13    7.1     0.00117576     -3446.6225133893  4.55E-12
     - OT LS       0.14E-12    3.8                    -3446.6225133893
   107 OT CG       0.14E-12    7.1     0.00117576     -3446.6225133893  9.09E-12
     - OT LS       0.27E-12    3.8                    -3446.6225133893
   108 OT CG       0.27E-12    7.1     0.00117576     -3446.6225133892  1.86E-11
     - OT LS       0.39E-13    3.8                    -3446.6225133892
   109 OT CG       0.39E-13    7.1     0.00117576     -3446.6225133892  2.27E-12
     - OT LS       0.77E-13    3.8                    -3446.6225133892
   110 OT CG       0.77E-13    7.1     0.00117576     -3446.6225133892  4.55E-12
     - OT LS       0.15E-12    3.8                    -3446.6225133892
   111 OT CG       0.15E-12    7.2     0.00117576     -3446.6225133892  9.55E-12
     - OT LS       0.31E-12    3.8                    -3446.6225133892
   112 OT CG       0.31E-12    7.2     0.00117576     -3446.6225133892  2.18E-11
     - OT LS       0.41E-13    3.8                    -3446.6225133892
   113 OT CG       0.41E-13    7.1     0.00117576     -3446.6225133892  2.27E-12
     - OT LS       0.82E-13    3.8                    -3446.6225133892
   114 OT CG       0.82E-13    7.1     0.00117576     -3446.6225133892  6.37E-12
     - OT LS       0.16E-12    3.8                    -3446.6225133892
   115 OT CG       0.16E-12    7.2     0.00117576     -3446.6225133892  1.00E-11
     - OT LS       0.22E-13    3.8                    -3446.6225133892
   116 OT CG       0.22E-13    7.1     0.00117576     -3446.6225133892  1.36E-12
     - OT LS       0.45E-13    3.8                    -3446.6225133892
   117 OT CG       0.45E-13    7.2     0.00117576     -3446.6225133892  3.18E-12
     - OT LS       0.89E-13    3.8                    -3446.6225133892
   118 OT CG       0.89E-13    7.1     0.00117576     -3446.6225133892  5.91E-12
     - OT LS       0.18E-12    3.8                    -3446.6225133892
   119 OT CG       0.18E-12    7.2     0.00117576     -3446.6225133892  1.18E-11
     - OT LS       0.24E-13    3.8                    -3446.6225133892
   120 OT CG       0.24E-13    7.1     0.00117576     -3446.6225133892  1.36E-12
     - OT LS       0.48E-13    3.8                    -3446.6225133892
   121 OT CG       0.48E-13    7.2     0.00117576     -3446.6225133892  2.73E-12
     - OT LS       0.97E-13    3.8                    -3446.6225133892
   122 OT CG       0.97E-13    7.1     0.00117576     -3446.6225133892  8.19E-12
     - OT LS       0.19E-12    3.8                    -3446.6225133891
   123 OT CG       0.19E-12    7.1     0.00117576     -3446.6225133891  1.18E-11
     - OT LS       0.26E-13    3.8                    -3446.6225133891
   124 OT CG       0.26E-13    7.2     0.00117576     -3446.6225133891  1.82E-12
     - OT LS       0.52E-13    3.8                    -3446.6225133891
   125 OT CG       0.52E-13    7.1     0.00117576     -3446.6225133891  3.64E-12
     - OT LS       0.10E-12    3.8                    -3446.6225133891
   126 OT CG       0.10E-12    7.2     0.00117576     -3446.6225133891  7.28E-12
     - OT LS       0.21E-12    3.8                    -3446.6225133891
   127 OT CG       0.21E-12    7.2     0.00117576     -3446.6225133891  1.36E-11
     - OT LS       0.28E-13    3.8                    -3446.6225133891
   128 OT CG       0.28E-13    7.1     0.00117576     -3446.6225133891  1.36E-12
     - OT LS       0.55E-13    3.8                    -3446.6225133891
   129 OT CG       0.55E-13    7.1     0.00117576     -3446.6225133891  4.09E-12
     - OT LS       0.11E-12    3.8                    -3446.6225133891
   130 OT CG       0.11E-12    7.2     0.00117576     -3446.6225133891  7.28E-12
     - OT LS       0.22E-12    3.8                    -3446.6225133891
   131 OT CG       0.22E-12    7.1     0.00117576     -3446.6225133891  1.46E-11
     - OT LS       0.30E-13    3.8                    -3446.6225133891
   132 OT CG       0.30E-13    7.2     0.00117576     -3446.6225133891  2.27E-12
     - OT LS       0.61E-13    3.8                    -3446.6225133891
   133 OT CG       0.61E-13    7.1     0.00117576     -3446.6225133891  3.64E-12
     - OT LS       0.12E-12    3.8                    -3446.6225133891
   134 OT CG       0.12E-12    7.1     0.00117576     -3446.6225133891  7.28E-12
     - OT LS       0.24E-12    3.8                    -3446.6225133891
   135 OT CG       0.24E-12    7.1     0.00117576     -3446.6225133891  1.64E-11
     - OT LS       0.31E-13    3.8                    -3446.6225133890
   136 OT CG       0.31E-13    7.1     0.00117576     -3446.6225133891  2.73E-12
     - OT LS       0.61E-13    3.8                    -3446.6225133891
   137 OT CG       0.61E-13    7.1     0.00117576     -3446.6225133891  4.09E-12
     - OT LS       0.12E-12    3.8                    -3446.6225133890
   138 OT CG       0.12E-12    7.1     0.00117576     -3446.6225133890  7.28E-12
     - OT LS       0.24E-12    3.8                    -3446.6225133890
   139 OT CG       0.24E-12    7.2     0.00117576     -3446.6225133890  1.68E-11
     - OT LS       0.31E-13    3.8                    -3446.6225133890
   140 OT CG       0.31E-13    7.2     0.00117576     -3446.6225133890  2.73E-12
     - OT LS       0.63E-13    3.8                    -3446.6225133890
   141 OT CG       0.63E-13    7.2     0.00117576     -3446.6225133890  3.64E-12
     - OT LS       0.13E-12    3.8                    -3446.6225133890
   142 OT CG       0.13E-12    7.1     0.00117576     -3446.6225133890  8.19E-12
     - OT LS       0.25E-12    3.8                    -3446.6225133890
   143 OT CG       0.25E-12    7.1     0.00117576     -3446.6225133890  1.68E-11
     - OT LS       0.33E-13    3.8                    -3446.6225133890
   144 OT CG       0.33E-13    7.2     0.00117576     -3446.6225133890  2.73E-12
     - OT LS       0.66E-13    3.8                    -3446.6225133890
   145 OT CG       0.66E-13    7.2     0.00117576     -3446.6225133890  2.73E-12
     - OT LS       0.13E-12    3.8                    -3446.6225133890
   146 OT CG       0.13E-12    7.2     0.00117576     -3446.6225133890  9.55E-12
     - OT LS       0.26E-12    3.8                    -3446.6225133890
   147 OT CG       0.26E-12    7.2     0.00117576     -3446.6225133890  1.59E-11
     - OT LS       0.31E-13    3.8                    -3446.6225133889
   148 OT CG       0.31E-13    7.2     0.00117576     -3446.6225133890  3.64E-12
     - OT LS       0.63E-13    3.8                    -3446.6225133890
   149 OT CG       0.63E-13    7.2     0.00117576     -3446.6225133890  4.55E-12
     - OT LS       0.13E-12    3.8                    -3446.6225133890
   150 OT CG       0.13E-12    7.2     0.00117576     -3446.6225133889  8.19E-12
     - OT LS       0.25E-12    3.8                    -3446.6225133889
   151 OT CG       0.25E-12    7.2     0.00117576     -3446.6225133889  1.68E-11
     - OT LS       0.34E-13    3.8                    -3446.6225133889
   152 OT CG       0.34E-13    7.1     0.00117576     -3446.6225133889  1.82E-12
     - OT LS       0.67E-13    3.8                    -3446.6225133889
   153 OT CG       0.67E-13    7.1     0.00117576     -3446.6225133889  5.00E-12
     - OT LS       0.13E-12    3.8                    -3446.6225133889
   154 OT CG       0.13E-12    7.2     0.00117576     -3446.6225133889  9.09E-12
     - OT LS       0.27E-12    3.8                    -3446.6225133889
   155 OT CG       0.27E-12    7.2     0.00117576     -3446.6225133889  1.73E-11
     - OT LS       0.34E-13    3.8                    -3446.6225133889
   156 OT CG       0.34E-13    7.2     0.00117576     -3446.6225133889  2.27E-12
     - OT LS       0.69E-13    3.8                    -3446.6225133889
   157 OT CG       0.69E-13    7.1     0.00117576     -3446.6225133889  5.00E-12
     - OT LS       0.14E-12    3.8                    -3446.6225133889
   158 OT CG       0.14E-12    7.2     0.00117576     -3446.6225133889  8.64E-12
     - OT LS       0.28E-12    3.8                    -3446.6225133889
   159 OT CG       0.28E-12    7.2     0.00117576     -3446.6225133889  1.91E-11
     - OT LS       0.37E-13    3.8                    -3446.6225133888
   160 OT CG       0.37E-13    7.2     0.00117576     -3446.6225133889  1.36E-12
     - OT LS       0.74E-13    3.8                    -3446.6225133889
   161 OT CG       0.74E-13    7.1     0.00117576     -3446.6225133889  5.91E-12
     - OT LS       0.15E-12    3.8                    -3446.6225133889
   162 OT CG       0.15E-12    7.1     0.00117576     -3446.6225133888  9.55E-12
     - OT LS       0.29E-12    3.8                    -3446.6225133888
   163 OT CG       0.29E-12    7.2     0.00117576     -3446.6225133888  1.91E-11
     - OT LS       0.38E-13    3.8                    -3446.6225133888
   164 OT CG       0.38E-13    7.2     0.00117576     -3446.6225133888  3.18E-12
     - OT LS       0.77E-13    3.8                    -3446.6225133888
   165 OT CG       0.77E-13    7.1     0.00117576     -3446.6225133888  4.55E-12
     - OT LS       0.15E-12    3.8                    -3446.6225133888
   166 OT CG       0.15E-12    7.1     0.00117576     -3446.6225133888  1.00E-11
     - OT LS       0.31E-12    3.8                    -3446.6225133888
   167 OT CG       0.31E-12    7.2     0.00117576     -3446.6225133888  2.09E-11
     - OT LS       0.40E-13    3.8                    -3446.6225133888
   168 OT CG       0.40E-13    7.2     0.00117576     -3446.6225133888  1.82E-12
     - OT LS       0.80E-13    3.8                    -3446.6225133888
   169 OT CG       0.80E-13    7.2     0.00117576     -3446.6225133888  5.46E-12
     - OT LS       0.16E-12    3.8                    -3446.6225133888
   170 OT CG       0.16E-12    7.1     0.00117576     -3446.6225133888  1.09E-11
     - OT LS       0.22E-13    3.8                    -3446.6225133888
   171 OT CG       0.22E-13    7.2     0.00117576     -3446.6225133888  1.36E-12
     - OT LS       0.43E-13    3.8                    -3446.6225133888
   172 OT CG       0.43E-13    7.1     0.00117576     -3446.6225133888  2.27E-12
     - OT LS       0.87E-13    3.8                    -3446.6225133888
   173 OT CG       0.87E-13    7.2     0.00117576     -3446.6225133888  5.91E-12
     - OT LS       0.17E-12    3.8                    -3446.6225133888
   174 OT CG       0.17E-12    7.1     0.00117576     -3446.6225133887  1.14E-11
     - OT LS       0.23E-13    3.8                    -3446.6225133887
   175 OT CG       0.23E-13    7.2     0.00117576     -3446.6225133887  1.82E-12
     - OT LS       0.45E-13    3.8                    -3446.6225133887
   176 OT CG       0.45E-13    7.2     0.00117576     -3446.6225133887  3.64E-12
     - OT LS       0.91E-13    3.8                    -3446.6225133887
   177 OT CG       0.91E-13    7.2     0.00117576     -3446.6225133887  5.91E-12
     - OT LS       0.18E-12    3.8                    -3446.6225133887
   178 OT CG       0.18E-12    7.2     0.00117576     -3446.6225133887  1.18E-11
     - OT LS       0.24E-13    3.8                    -3446.6225133887
   179 OT CG       0.24E-13    7.2     0.00117576     -3446.6225133887  1.82E-12
     - OT LS       0.49E-13    3.8                    -3446.6225133887
   180 OT CG       0.49E-13    7.2     0.00117576     -3446.6225133887  2.73E-12
     - OT LS       0.97E-13    3.8                    -3446.6225133887
   181 OT CG       0.97E-13    7.1     0.00117576     -3446.6225133887  6.82E-12
     - OT LS       0.19E-12    3.8                    -3446.6225133887
   182 OT CG       0.19E-12    7.1     0.00117576     -3446.6225133887  1.23E-11
     - OT LS       0.24E-13    3.8                    -3446.6225133887
   183 OT CG       0.24E-13    7.2     0.00117576     -3446.6225133887  2.27E-12
     - OT LS       0.47E-13    3.8                    -3446.6225133887
   184 OT CG       0.47E-13    7.1     0.00117576     -3446.6225133887  2.27E-12
     - OT LS       0.95E-13    3.8                    -3446.6225133887
   185 OT CG       0.95E-13    7.1     0.00117576     -3446.6225133887  7.28E-12
     - OT LS       0.19E-12    3.8                    -3446.6225133887
   186 OT CG       0.19E-12    7.1     0.00117576     -3446.6225133887  1.14E-11
     - OT LS       0.24E-13    3.8                    -3446.6225133887
   187 OT CG       0.24E-13    7.2     0.00117576     -3446.6225133887  3.18E-12
     - OT LS       0.47E-13    3.8                    -3446.6225133887
   188 OT CG       0.47E-13    7.1     0.00117576     -3446.6225133887  2.27E-12
     - OT LS       0.95E-13    3.8                    -3446.6225133887
   189 OT CG       0.95E-13    7.2     0.00117576     -3446.6225133887  6.37E-12
     - OT LS       0.19E-12    3.8                    -3446.6225133887
   190 OT CG       0.19E-12    7.2     0.00117576     -3446.6225133887  1.27E-11
     - OT LS       0.24E-13    3.8                    -3446.6225133886
   191 OT CG       0.24E-13    7.2     0.00117576     -3446.6225133887  1.82E-12
     - OT LS       0.49E-13    3.8                    -3446.6225133887
   192 OT CG       0.49E-13    7.2     0.00117576     -3446.6225133886  3.18E-12
     - OT LS       0.97E-13    3.8                    -3446.6225133886
   193 OT CG       0.97E-13    7.2     0.00117576     -3446.6225133886  5.91E-12
     - OT LS       0.19E-12    3.8                    -3446.6225133886
   194 OT CG       0.19E-12    7.2     0.00117576     -3446.6225133886  1.36E-11
     - OT LS       0.26E-13    3.8                    -3446.6225133886
   195 OT CG       0.26E-13    7.1     0.00117576     -3446.6225133886  1.82E-12
     - OT LS       0.52E-13    3.8                    -3446.6225133886
   196 OT CG       0.52E-13    7.1     0.00117576     -3446.6225133886  3.64E-12
     - OT LS       0.10E-12    3.8                    -3446.6225133886
   197 OT CG       0.10E-12    7.1     0.00117576     -3446.6225133886  6.37E-12
     - OT LS       0.21E-12    3.8                    -3446.6225133886
   198 OT CG       0.21E-12    7.2     0.00117576     -3446.6225133886  1.46E-11
     - OT LS       0.29E-13    3.8                    -3446.6225133886
   199 OT CG       0.29E-13    7.2     0.00117576     -3446.6225133886  4.55E-13
     - OT LS       0.58E-13    3.8                    -3446.6225133886
   200 OT CG       0.58E-13    7.1     0.00117576     -3446.6225133886  4.09E-12
     - OT LS       0.12E-12    3.8                    -3446.6225133886
   201 OT CG       0.12E-12    7.2     0.00117576     -3446.6225133886  8.64E-12
     - OT LS       0.23E-12    3.8                    -3446.6225133886
   202 OT CG       0.23E-12    7.1     0.00117576     -3446.6225133886  1.36E-11
     - OT LS       0.29E-13    3.8                    -3446.6225133886
   203 OT CG       0.29E-13    7.2     0.00117576     -3446.6225133886  2.27E-12
     - OT LS       0.57E-13    3.7                    -3446.6225133886
   204 OT CG       0.57E-13    7.1     0.00117576     -3446.6225133886  5.46E-12
     - OT LS       0.11E-12    3.8                    -3446.6225133886
   205 OT CG       0.11E-12    7.2     0.00117576     -3446.6225133886  6.37E-12
     - OT LS       0.23E-12    3.8                    -3446.6225133886
   206 OT CG       0.23E-12    7.2     0.00117576     -3446.6225133885  1.55E-11
     - OT LS       0.30E-13    3.8                    -3446.6225133885
   207 OT CG       0.30E-13    7.2     0.00117576     -3446.6225133885  2.27E-12
     - OT LS       0.60E-13    3.8                    -3446.6225133885
   208 OT CG       0.60E-13    7.2     0.00117576     -3446.6225133885  2.73E-12
     - OT LS       0.12E-12    3.8                    -3446.6225133885
   209 OT CG       0.12E-12    7.1     0.00117576     -3446.6225133885  9.09E-12
     - OT LS       0.24E-12    3.8                    -3446.6225133885
   210 OT CG       0.24E-12    7.2     0.00117576     -3446.6225133885  1.55E-11
     - OT LS       0.32E-13    3.8                    -3446.6225133885
   211 OT CG       0.32E-13    7.2     0.00117576     -3446.6225133885  2.73E-12
     - OT LS       0.64E-13    3.8                    -3446.6225133885
   212 OT CG       0.64E-13    7.2     0.00117576     -3446.6225133885  4.09E-12
     - OT LS       0.13E-12    3.8                    -3446.6225133885
   213 OT CG       0.13E-12    7.1     0.00117576     -3446.6225133885  7.73E-12
     - OT LS       0.25E-12    3.8                    -3446.6225133885
   214 OT CG       0.25E-12    7.1     0.00117576     -3446.6225133885  1.73E-11
     - OT LS       0.33E-13    3.8                    -3446.6225133885
   215 OT CG       0.33E-13    7.2     0.00117576     -3446.6225133885  3.18E-12
     - OT LS       0.66E-13    3.8                    -3446.6225133885
   216 OT CG       0.66E-13    7.2     0.00117576     -3446.6225133885  3.64E-12
     - OT LS       0.13E-12    3.8                    -3446.6225133885
   217 OT CG       0.13E-12    7.2     0.00117576     -3446.6225133885  8.64E-12
     - OT LS       0.27E-12    3.8                    -3446.6225133885
   218 OT CG       0.27E-12    7.2     0.00117576     -3446.6225133885  1.77E-11
     - OT LS       0.35E-13    3.8                    -3446.6225133884
   219 OT CG       0.35E-13    7.1     0.00117576     -3446.6225133885  2.27E-12
     - OT LS       0.70E-13    3.8                    -3446.6225133884
   220 OT CG       0.70E-13    7.1     0.00117576     -3446.6225133884  4.55E-12
     - OT LS       0.14E-12    3.8                    -3446.6225133884
   221 OT CG       0.14E-12    7.2     0.00117576     -3446.6225133884  9.09E-12
     - OT LS       0.28E-12    3.8                    -3446.6225133884
   222 OT CG       0.28E-12    7.1     0.00117576     -3446.6225133884  1.86E-11
     - OT LS       0.36E-13    3.8                    -3446.6225133884
   223 OT CG       0.36E-13    7.1     0.00117576     -3446.6225133884  2.27E-12
     - OT LS       0.73E-13    3.8                    -3446.6225133884
   224 OT CG       0.73E-13    7.1     0.00117576     -3446.6225133884  5.00E-12
     - OT LS       0.15E-12    3.8                    -3446.6225133884
   225 OT CG       0.15E-12    7.1     0.00117576     -3446.6225133884  1.00E-11
     - OT LS       0.20E-13    3.8                    -3446.6225133884
   226 OT CG       0.20E-13    7.1     0.00117576     -3446.6225133884  1.36E-12
     - OT LS       0.41E-13    3.8                    -3446.6225133884
   227 OT CG       0.41E-13    7.2     0.00117576     -3446.6225133884  2.73E-12
     - OT LS       0.81E-13    3.8                    -3446.6225133884
   228 OT CG       0.81E-13    7.2     0.00117576     -3446.6225133884  5.46E-12
     - OT LS       0.16E-12    3.8                    -3446.6225133884
   229 OT CG       0.16E-12    7.2     0.00117576     -3446.6225133884  1.05E-11
     - OT LS       0.22E-13    3.8                    -3446.6225133884
   230 OT CG       0.22E-13    7.2     0.00117576     -3446.6225133884  2.73E-12
     - OT LS       0.44E-13    3.8                    -3446.6225133884
   231 OT CG       0.44E-13    7.1     0.00117576     -3446.6225133884  1.82E-12
     - OT LS       0.87E-13    3.8                    -3446.6225133884
   232 OT CG       0.87E-13    7.1     0.00117576     -3446.6225133884  5.46E-12
     - OT LS       0.17E-12    3.8                    -3446.6225133884
   233 OT CG       0.17E-12    7.1     0.00117576     -3446.6225133884  1.14E-11
     - OT LS       0.23E-13    3.8                    -3446.6225133883
   234 OT CG       0.23E-13    7.1     0.00117576     -3446.6225133884  2.27E-12
     - OT LS       0.46E-13    3.8                    -3446.6225133884
   235 OT CG       0.46E-13    7.2     0.00117576     -3446.6225133884  3.18E-12
     - OT LS       0.92E-13    3.8                    -3446.6225133884
   236 OT CG       0.92E-13    7.1     0.00117576     -3446.6225133883  6.82E-12
     - OT LS       0.18E-12    3.8                    -3446.6225133883
   237 OT CG       0.18E-12    7.2     0.00117576     -3446.6225133883  1.09E-11
     - OT LS       0.24E-13    3.8                    -3446.6225133883
   238 OT CG       0.24E-13    7.2     0.00117576     -3446.6225133883  1.36E-12
     - OT LS       0.49E-13    3.8                    -3446.6225133883
   239 OT CG       0.49E-13    7.2     0.00117576     -3446.6225133883  4.09E-12
     - OT LS       0.97E-13    3.8                    -3446.6225133883
   240 OT CG       0.97E-13    7.2     0.00117576     -3446.6225133883  6.37E-12
     - OT LS       0.19E-12    3.8                    -3446.6225133883
   241 OT CG       0.19E-12    7.1     0.00117576     -3446.6225133883  1.18E-11
     - OT LS       0.25E-13    3.8                    -3446.6225133883
   242 OT CG       0.25E-13    7.1     0.00117576     -3446.6225133883  1.82E-12
     - OT LS       0.50E-13    3.8                    -3446.6225133883
   243 OT CG       0.50E-13    7.2     0.00117576     -3446.6225133883  4.09E-12
     - OT LS       0.10E-12    3.8                    -3446.6225133883
   244 OT CG       0.10E-12    7.1     0.00117576     -3446.6225133883  6.82E-12
     - OT LS       0.20E-12    3.8                    -3446.6225133883
   245 OT CG       0.20E-12    7.1     0.00117576     -3446.6225133883  1.27E-11
     - OT LS       0.26E-13    3.8                    -3446.6225133883
   246 OT CG       0.26E-13    7.1     0.00117576     -3446.6225133883  1.82E-12
     - OT LS       0.53E-13    3.8                    -3446.6225133883
   247 OT CG       0.53E-13    7.1     0.00117576     -3446.6225133883  3.64E-12
     - OT LS       0.11E-12    3.8                    -3446.6225133883
   248 OT CG       0.11E-12    7.1     0.00117576     -3446.6225133883  6.82E-12
     - OT LS       0.21E-12    3.8                    -3446.6225133883
   249 OT CG       0.21E-12    7.1     0.00117576     -3446.6225133883  1.41E-11
     - OT LS       0.27E-13    3.8                    -3446.6225133882
   250 OT CG       0.27E-13    7.2     0.00117576     -3446.6225133883  4.55E-13

  Leaving inner SCF loop after reaching   250 steps.


  Electronic density on regular grids:      -2032.0683799138        1.9316200862
  Core density on regular grids:             2033.9999999986       -0.0000000014
  Total charge density on r-space grids:        1.9316200848
  Total charge density g-space grids:           1.9316200848

  Overlap energy of the core charge distribution:               0.00011754517808
  Self energy of the core charge distribution:              -8859.91288883521156
  Core Hamiltonian energy:                                   2557.91368027611543
  Hartree energy:                                            3798.95260442003519
  Exchange-correlation energy:                               -946.28716714228403
  Dispersion energy:                                            2.58954316660916
  Electric field interaction energy:                            0.12159718129817

  Total energy:                                             -3446.62251338826036

  outer SCF iter =    6 RMS gradient =   0.12E-02 energy =      -3446.6225133883

  ----------------------------------- OT ---------------------------------------
  Minimizer      : CG                  : conjugate gradient
  Preconditioner : FULL_ALL            : diagonalization, state selective
  Precond_solver : DEFAULT
  Line search    : 2PNT                : 2 energies, one gradient
  stepsize       :    0.15000000                  energy_gap     :    0.00100000
  eps_taylor     :   0.10000E-15                  max_taylor     :             4
  ----------------------------------- OT ---------------------------------------

  Step     Update method      Time    Convergence         Total energy    Change
  ------------------------------------------------------------------------------
     1 OT CG       0.15E+00   22.5     0.00142434     -3446.6225133883  2.73E-12
     - OT LS       0.19E-01    3.8                    -3431.9234279749
     2 OT CG       0.19E-01    7.3     0.00176738     -3443.9732451764  2.65E+00
     - OT LS       0.22E-02    3.8                    -3439.1869861602
     3 OT CG       0.22E-02    7.2     0.00162686     -3443.4929133916  4.80E-01
     - OT LS       0.28E-03    3.8                    -3443.1934025855
     4 OT CG       0.28E-03    7.1     0.00161601     -3443.4561434716  3.68E-02
     - OT LS       0.35E-04    3.8                    -3443.4189421808
     5 OT CG       0.35E-04    7.2     0.00161478     -3443.4515317403  4.61E-03
     - OT LS       0.43E-05    3.8                    -3443.4469136009
     6 OT CG       0.43E-05    7.1     0.00161463     -3443.4509585854  5.73E-04
     - OT LS       0.53E-06    3.8                    -3443.4503853321
     7 OT CG       0.53E-06    7.1     0.00161461     -3443.4508874291  7.12E-05
     - OT LS       0.66E-07    3.8                    -3443.4508162713
     8 OT CG       0.66E-07    7.1     0.00161461     -3443.4508785963  8.83E-06
     - OT LS       0.82E-08    3.8                    -3443.4508697636
     9 OT CG       0.82E-08    7.1     0.00161461     -3443.4508774999  1.10E-06
     - OT LS       0.10E-08    3.8                    -3443.4508764035
    10 OT CG       0.10E-08    7.2     0.00161461     -3443.4508773638  1.36E-07
     - OT LS       0.13E-09    3.8                    -3443.4508772277
    11 OT CG       0.13E-09    7.2     0.00161461     -3443.4508773469  1.69E-08
     - OT LS       0.16E-10    3.8                    -3443.4508773300
    12 OT CG       0.16E-10    7.2     0.00161461     -3443.4508773448  2.10E-09
     - OT LS       0.19E-11    3.8                    -3443.4508773427
    13 OT CG       0.19E-11    7.2     0.00161461     -3443.4508773446  2.61E-10
     - OT LS       0.24E-12    3.8                    -3443.4508773443
    14 OT CG       0.24E-12    7.1     0.00161461     -3443.4508773446  3.18E-11
     - OT LS       0.30E-13    3.8                    -3443.4508773445
    15 OT CG       0.30E-13    7.1     0.00161461     -3443.4508773445  4.55E-12
     - OT LS       0.60E-13    3.8                    -3443.4508773445
    16 OT CG       0.60E-13    7.2     0.00161461     -3443.4508773445  7.28E-12
     - OT LS       0.12E-12    3.8                    -3443.4508773445
    17 OT CG       0.12E-12    7.1     0.00161461     -3443.4508773445  1.64E-11
     - OT LS       0.16E-13    3.8                    -3443.4508773445
    18 OT CG       0.16E-13    7.2     0.00161461     -3443.4508773445  1.82E-12
     - OT LS       0.31E-13    3.8                    -3443.4508773445
    19 OT CG       0.31E-13    7.2     0.00161461     -3443.4508773445  4.55E-12
     - OT LS       0.63E-13    3.8                    -3443.4508773445
    20 OT CG       0.63E-13    7.1     0.00161461     -3443.4508773445  8.64E-12
     - OT LS       0.13E-12    3.8                    -3443.4508773445
    21 OT CG       0.13E-12    7.1     0.00161461     -3443.4508773445  1.59E-11
     - OT LS       0.15E-13    3.8                    -3443.4508773445
    22 OT CG       0.15E-13    7.1     0.00161461     -3443.4508773445  2.27E-12
     - OT LS       0.30E-13    3.8                    -3443.4508773445
    23 OT CG       0.30E-13    7.2     0.00161461     -3443.4508773445  5.00E-12
     - OT LS       0.59E-13    3.8                    -3443.4508773445
    24 OT CG       0.59E-13    7.1     0.00161461     -3443.4508773445  7.73E-12
     - OT LS       0.12E-12    3.8                    -3443.4508773445
    25 OT CG       0.12E-12    7.1     0.00161461     -3443.4508773445  1.50E-11
     - OT LS       0.15E-13    3.8                    -3443.4508773444
    26 OT CG       0.15E-13    7.2     0.00161461     -3443.4508773445  2.27E-12
     - OT LS       0.30E-13    3.8                    -3443.4508773445
    27 OT CG       0.30E-13    7.2     0.00161461     -3443.4508773445  3.64E-12
     - OT LS       0.60E-13    3.8                    -3443.4508773445
    28 OT CG       0.60E-13    7.2     0.00161461     -3443.4508773444  8.64E-12
     - OT LS       0.12E-12    3.8                    -3443.4508773444
    29 OT CG       0.12E-12    7.1     0.00161461     -3443.4508773444  1.59E-11
     - OT LS       0.15E-13    3.8                    -3443.4508773444
    30 OT CG       0.15E-13    7.2     0.00161461     -3443.4508773444  2.27E-12
     - OT LS       0.29E-13    3.8                    -3443.4508773444
    31 OT CG       0.29E-13    7.2     0.00161461     -3443.4508773444  4.09E-12
     - OT LS       0.59E-13    3.8                    -3443.4508773444
    32 OT CG       0.59E-13    7.2     0.00161461     -3443.4508773444  6.82E-12
     - OT LS       0.12E-12    3.8                    -3443.4508773444
    33 OT CG       0.12E-12    7.1     0.00161461     -3443.4508773444  1.68E-11
     - OT LS       0.15E-13    3.8                    -3443.4508773444
    34 OT CG       0.15E-13    7.1     0.00161461     -3443.4508773444  1.82E-12
     - OT LS       0.31E-13    3.8                    -3443.4508773444
    35 OT CG       0.31E-13    7.2     0.00161461     -3443.4508773444  4.55E-12
     - OT LS       0.61E-13    3.8                    -3443.4508773444
    36 OT CG       0.61E-13    7.2     0.00161461     -3443.4508773444  7.73E-12
     - OT LS       0.12E-12    3.8                    -3443.4508773444
    37 OT CG       0.12E-12    7.2     0.00161461     -3443.4508773444  1.64E-11
     - OT LS       0.15E-13    3.8                    -3443.4508773444
    38 OT CG       0.15E-13    7.2     0.00161461     -3443.4508773444  2.27E-12
     - OT LS       0.30E-13    3.8                    -3443.4508773444
    39 OT CG       0.30E-13    7.2     0.00161461     -3443.4508773444  3.64E-12
     - OT LS       0.59E-13    3.8                    -3443.4508773444
    40 OT CG       0.59E-13    7.1     0.00161461     -3443.4508773444  8.19E-12
     - OT LS       0.12E-12    3.8                    -3443.4508773443
    41 OT CG       0.12E-12    7.1     0.00161461     -3443.4508773443  1.55E-11
     - OT LS       0.15E-13    3.8                    -3443.4508773443
    42 OT CG       0.15E-13    7.2     0.00161461     -3443.4508773443  2.27E-12
     - OT LS       0.29E-13    3.8                    -3443.4508773443
    43 OT CG       0.29E-13    7.1     0.00161461     -3443.4508773443  4.09E-12
     - OT LS       0.58E-13    3.8                    -3443.4508773443
    44 OT CG       0.58E-13    7.1     0.00161461     -3443.4508773443  7.28E-12
     - OT LS       0.12E-12    3.8                    -3443.4508773443
    45 OT CG       0.12E-12    7.2     0.00161461     -3443.4508773443  1.59E-11
     - OT LS       0.15E-13    3.8                    -3443.4508773443
    46 OT CG       0.15E-13    7.2     0.00161461     -3443.4508773443  1.36E-12
     - OT LS       0.29E-13    3.8                    -3443.4508773443
    47 OT CG       0.29E-13    7.1     0.00161461     -3443.4508773443  4.55E-12
     - OT LS       0.59E-13    3.8                    -3443.4508773443
    48 OT CG       0.59E-13    7.2     0.00161461     -3443.4508773443  7.28E-12
     - OT LS       0.12E-12    3.8                    -3443.4508773443
    49 OT CG       0.12E-12    7.2     0.00161461     -3443.4508773443  1.68E-11
     - OT LS       0.15E-13    3.8                    -3443.4508773443
    50 OT CG       0.15E-13    7.2     0.00161461     -3443.4508773443  1.36E-12
     - OT LS       0.29E-13    3.8                    -3443.4508773443
    51 OT CG       0.29E-13    7.2     0.00161461     -3443.4508773443  4.09E-12
     - OT LS       0.58E-13    3.8                    -3443.4508773443
    52 OT CG       0.58E-13    7.2     0.00161461     -3443.4508773443  7.73E-12
     - OT LS       0.12E-12    3.8                    -3443.4508773443
    53 OT CG       0.12E-12    7.2     0.00161461     -3443.4508773443  1.46E-11
     - OT LS       0.14E-13    3.8                    -3443.4508773442
    54 OT CG       0.14E-13    7.1     0.00161461     -3443.4508773443  2.27E-12
     - OT LS       0.28E-13    3.8                    -3443.4508773442
    55 OT CG       0.28E-13    7.2     0.00161461     -3443.4508773442  4.09E-12
     - OT LS       0.56E-13    3.8                    -3443.4508773442
    56 OT CG       0.56E-13    7.2     0.00161461     -3443.4508773442  7.73E-12
     - OT LS       0.11E-12    3.8                    -3443.4508773442
    57 OT CG       0.11E-12    7.2     0.00161461     -3443.4508773442  1.50E-11
     - OT LS       0.14E-13    3.8                    -3443.4508773442
    58 OT CG       0.14E-13    7.2     0.00161461     -3443.4508773442  1.82E-12
     - OT LS       0.29E-13    3.8                    -3443.4508773442
    59 OT CG       0.29E-13    7.2     0.00161461     -3443.4508773442  3.64E-12
     - OT LS       0.58E-13    3.8                    -3443.4508773442
    60 OT CG       0.58E-13    7.1     0.00161461     -3443.4508773442  8.19E-12
     - OT LS       0.12E-12    3.8                    -3443.4508773442
    61 OT CG       0.12E-12    7.1     0.00161461     -3443.4508773442  1.50E-11
     - OT LS       0.14E-13    3.8                    -3443.4508773442
    62 OT CG       0.14E-13    7.2     0.00161461     -3443.4508773442  1.36E-12
     - OT LS       0.29E-13    3.8                    -3443.4508773442
    63 OT CG       0.29E-13    7.2     0.00161461     -3443.4508773442  4.09E-12
     - OT LS       0.58E-13    3.8                    -3443.4508773442
    64 OT CG       0.58E-13    7.1     0.00161461     -3443.4508773442  8.19E-12
     - OT LS       0.12E-12    3.8                    -3443.4508773442
    65 OT CG       0.12E-12    7.1     0.00161461     -3443.4508773442  1.50E-11
     - OT LS       0.14E-13    3.8                    -3443.4508773442
    66 OT CG       0.14E-13    7.2     0.00161461     -3443.4508773442  2.27E-12
     - OT LS       0.28E-13    3.8                    -3443.4508773442
    67 OT CG       0.28E-13    7.2     0.00161461     -3443.4508773442  3.64E-12
     - OT LS       0.55E-13    3.8                    -3443.4508773442
    68 OT CG       0.55E-13    7.2     0.00161461     -3443.4508773442  7.28E-12
     - OT LS       0.11E-12    3.8                    -3443.4508773441
    69 OT CG       0.11E-12    7.2     0.00161461     -3443.4508773441  1.41E-11
     - OT LS       0.13E-13    3.8                    -3443.4508773441
    70 OT CG       0.13E-13    7.2     0.00161461     -3443.4508773441  2.27E-12
     - OT LS       0.26E-13    3.8                    -3443.4508773441
    71 OT CG       0.26E-13    7.2     0.00161461     -3443.4508773441  3.64E-12
     - OT LS       0.53E-13    3.8                    -3443.4508773441
    72 OT CG       0.53E-13    7.2     0.00161461     -3443.4508773441  7.28E-12
     - OT LS       0.11E-12    3.8                    -3443.4508773441
    73 OT CG       0.11E-12    7.2     0.00161461     -3443.4508773441  1.36E-11
     - OT LS       0.13E-13    3.8                    -3443.4508773441
    74 OT CG       0.13E-13    7.1     0.00161461     -3443.4508773441  1.36E-12
     - OT LS       0.27E-13    3.8                    -3443.4508773441
    75 OT CG       0.27E-13    7.2     0.00161461     -3443.4508773441  4.55E-12
     - OT LS       0.54E-13    3.8                    -3443.4508773441
    76 OT CG       0.54E-13    7.2     0.00161461     -3443.4508773441  7.28E-12
     - OT LS       0.11E-12    3.8                    -3443.4508773441
    77 OT CG       0.11E-12    7.2     0.00161461     -3443.4508773441  1.36E-11
     - OT LS       0.14E-13    3.8                    -3443.4508773441
    78 OT CG       0.14E-13    7.1     0.00161461     -3443.4508773441  1.82E-12
     - OT LS       0.28E-13    3.8                    -3443.4508773441
    79 OT CG       0.28E-13    7.2     0.00161461     -3443.4508773441  4.09E-12
     - OT LS       0.55E-13    3.8                    -3443.4508773441
    80 OT CG       0.55E-13    7.2     0.00161461     -3443.4508773441  7.73E-12
     - OT LS       0.11E-12    3.8                    -3443.4508773441
    81 OT CG       0.11E-12    7.2     0.00161461     -3443.4508773441  1.50E-11
     - OT LS       0.14E-13    3.8                    -3443.4508773440
    82 OT CG       0.14E-13    7.2     0.00161461     -3443.4508773441  0.00E+00
     - OT LS       0.28E-13    3.8                    -3443.4508773441
    83 OT CG       0.28E-13    7.2     0.00161461     -3443.4508773441  5.00E-12
     - OT LS       0.56E-13    3.8                    -3443.4508773441
    84 OT CG       0.56E-13    7.1     0.00161461     -3443.4508773440  6.82E-12
     - OT LS       0.11E-12    3.8                    -3443.4508773440
    85 OT CG       0.11E-12    7.2     0.00161461     -3443.4508773440  1.55E-11
     - OT LS       0.14E-13    3.8                    -3443.4508773440
    86 OT CG       0.14E-13    7.1     0.00161461     -3443.4508773440  2.27E-12
     - OT LS       0.28E-13    3.8                    -3443.4508773440
    87 OT CG       0.28E-13    7.2     0.00161461     -3443.4508773440  3.64E-12
     - OT LS       0.55E-13    3.8                    -3443.4508773440
    88 OT CG       0.55E-13    7.2     0.00161461     -3443.4508773440  6.37E-12
     - OT LS       0.11E-12    3.9                    -3443.4508773440
    89 OT CG       0.11E-12    7.2     0.00161461     -3443.4508773440  1.59E-11
     - OT LS       0.14E-13    3.8                    -3443.4508773440
    90 OT CG       0.14E-13    7.2     0.00161461     -3443.4508773440  1.36E-12
     - OT LS       0.28E-13    3.8                    -3443.4508773440
    91 OT CG       0.28E-13    7.1     0.00161461     -3443.4508773440  3.64E-12
     - OT LS       0.56E-13    3.8                    -3443.4508773440
    92 OT CG       0.56E-13    7.2     0.00161461     -3443.4508773440  8.19E-12
     - OT LS       0.11E-12    3.8                    -3443.4508773440
    93 OT CG       0.11E-12    7.2     0.00161461     -3443.4508773440  1.46E-11
     - OT LS       0.14E-13    3.8                    -3443.4508773440
    94 OT CG       0.14E-13    7.1     0.00161461     -3443.4508773440  1.82E-12
     - OT LS       0.29E-13    3.8                    -3443.4508773440
    95 OT CG       0.29E-13    7.2     0.00161461     -3443.4508773440  4.55E-12
     - OT LS       0.57E-13    3.8                    -3443.4508773440
    96 OT CG       0.57E-13    7.2     0.00161461     -3443.4508773440  7.28E-12
     - OT LS       0.11E-12    3.8                    -3443.4508773440
    97 OT CG       0.11E-12    7.2     0.00161461     -3443.4508773439  1.59E-11
     - OT LS       0.15E-13    3.8                    -3443.4508773439
    98 OT CG       0.15E-13    7.2     0.00161461     -3443.4508773439  4.55E-13
     - OT LS       0.30E-13    3.8                    -3443.4508773439
    99 OT CG       0.30E-13    7.2     0.00161461     -3443.4508773439  5.00E-12
     - OT LS       0.59E-13    3.8                    -3443.4508773439
   100 OT CG       0.59E-13    7.2     0.00161461     -3443.4508773439  8.19E-12
     - OT LS       0.12E-12    3.8                    -3443.4508773439
   101 OT CG       0.12E-12    7.2     0.00161461     -3443.4508773439  1.64E-11
     - OT LS       0.16E-13    3.8                    -3443.4508773439
   102 OT CG       0.16E-13    7.2     0.00161461     -3443.4508773439  1.82E-12
     - OT LS       0.31E-13    3.8                    -3443.4508773439
   103 OT CG       0.31E-13    7.2     0.00161461     -3443.4508773439  4.09E-12
     - OT LS       0.62E-13    3.8                    -3443.4508773439
   104 OT CG       0.62E-13    7.1     0.00161461     -3443.4508773439  8.19E-12
     - OT LS       0.12E-12    3.8                    -3443.4508773439
   105 OT CG       0.12E-12    7.1     0.00161461     -3443.4508773439  1.59E-11
     - OT LS       0.15E-13    3.8                    -3443.4508773439
   106 OT CG       0.15E-13    7.2     0.00161461     -3443.4508773439  1.82E-12
     - OT LS       0.30E-13    3.8                    -3443.4508773439
   107 OT CG       0.30E-13    7.2     0.00161461     -3443.4508773439  4.55E-12
     - OT LS       0.60E-13    3.8                    -3443.4508773439
   108 OT CG       0.60E-13    7.2     0.00161461     -3443.4508773439  7.73E-12
     - OT LS       0.12E-12    3.8                    -3443.4508773439
   109 OT CG       0.12E-12    7.2     0.00161461     -3443.4508773439  1.68E-11
     - OT LS       0.15E-13    3.8                    -3443.4508773438
   110 OT CG       0.15E-13    7.2     0.00161461     -3443.4508773439  1.82E-12
     - OT LS       0.29E-13    3.8                    -3443.4508773439
   111 OT CG       0.29E-13    7.1     0.00161461     -3443.4508773438  4.55E-12
     - OT LS       0.59E-13    3.8                    -3443.4508773438
   112 OT CG       0.59E-13    7.2     0.00161461     -3443.4508773438  7.28E-12
     - OT LS       0.12E-12    3.8                    -3443.4508773438
   113 OT CG       0.12E-12    7.2     0.00161461     -3443.4508773438  1.50E-11
     - OT LS       0.14E-13    3.8                    -3443.4508773438
   114 OT CG       0.14E-13    7.1     0.00161461     -3443.4508773438  1.82E-12
     - OT LS       0.28E-13    3.8                    -3443.4508773438
   115 OT CG       0.28E-13    7.2     0.00161461     -3443.4508773438  3.64E-12
     - OT LS       0.56E-13    3.8                    -3443.4508773438
   116 OT CG       0.56E-13    7.2     0.00161461     -3443.4508773438  8.64E-12
     - OT LS       0.11E-12    3.8                    -3443.4508773438
   117 OT CG       0.11E-12    7.2     0.00161461     -3443.4508773438  1.50E-11
     - OT LS       0.15E-13    3.8                    -3443.4508773438
   118 OT CG       0.15E-13    7.2     0.00161461     -3443.4508773438  1.36E-12
     - OT LS       0.29E-13    3.8                    -3443.4508773438
   119 OT CG       0.29E-13    7.2     0.00161461     -3443.4508773438  3.64E-12
     - OT LS       0.58E-13    3.8                    -3443.4508773438
   120 OT CG       0.58E-13    7.2     0.00161461     -3443.4508773438  8.19E-12
     - OT LS       0.12E-12    3.8                    -3443.4508773438
   121 OT CG       0.12E-12    7.2     0.00161461     -3443.4508773438  1.50E-11
     - OT LS       0.14E-13    3.8                    -3443.4508773438
   122 OT CG       0.14E-13    7.2     0.00161461     -3443.4508773438  2.27E-12
     - OT LS       0.28E-13    3.8                    -3443.4508773438
   123 OT CG       0.28E-13    7.1     0.00161461     -3443.4508773438  4.09E-12
     - OT LS       0.56E-13    3.8                    -3443.4508773438
   124 OT CG       0.56E-13    7.1     0.00161461     -3443.4508773438  7.73E-12
     - OT LS       0.11E-12    3.8                    -3443.4508773437
   125 OT CG       0.11E-12    7.1     0.00161461     -3443.4508773437  1.41E-11
     - OT LS       0.13E-13    3.8                    -3443.4508773437
   126 OT CG       0.13E-13    7.2     0.00161461     -3443.4508773437  2.27E-12
     - OT LS       0.26E-13    3.8                    -3443.4508773437
   127 OT CG       0.26E-13    7.1     0.00161461     -3443.4508773437  4.09E-12
     - OT LS       0.52E-13    3.8                    -3443.4508773437
   128 OT CG       0.52E-13    7.1     0.00161461     -3443.4508773437  7.28E-12
     - OT LS       0.10E-12    3.8                    -3443.4508773437
   129 OT CG       0.10E-12    7.2     0.00161461     -3443.4508773437  1.32E-11
     - OT LS       0.13E-13    3.8                    -3443.4508773437
   130 OT CG       0.13E-13    7.2     0.00161461     -3443.4508773437  1.82E-12
     - OT LS       0.27E-13    3.8                    -3443.4508773437
   131 OT CG       0.27E-13    7.1     0.00161461     -3443.4508773437  3.18E-12
     - OT LS       0.53E-13    3.8                    -3443.4508773437
   132 OT CG       0.53E-13    7.2     0.00161461     -3443.4508773437  6.82E-12
     - OT LS       0.11E-12    3.8                    -3443.4508773437
   133 OT CG       0.11E-12    7.2     0.00161461     -3443.4508773437  1.50E-11
     - OT LS       0.13E-13    3.8                    -3443.4508773437
   134 OT CG       0.13E-13    7.1     0.00161461     -3443.4508773437  3.18E-12
     - OT LS       0.27E-13    3.8                    -3443.4508773437
   135 OT CG       0.27E-13    7.2     0.00161461     -3443.4508773437  2.27E-12
     - OT LS       0.53E-13    3.8                    -3443.4508773437
   136 OT CG       0.53E-13    7.1     0.00161461     -3443.4508773437  5.46E-12
     - OT LS       0.11E-12    3.8                    -3443.4508773437
   137 OT CG       0.11E-12    7.1     0.00161461     -3443.4508773437  1.50E-11
     - OT LS       0.13E-13    3.8                    -3443.4508773436
   138 OT CG       0.13E-13    7.1     0.00161461     -3443.4508773437  1.82E-12
     - OT LS       0.27E-13    3.8                    -3443.4508773437
   139 OT CG       0.27E-13    7.2     0.00161461     -3443.4508773437  3.64E-12
     - OT LS       0.54E-13    3.8                    -3443.4508773437
   140 OT CG       0.54E-13    7.2     0.00161461     -3443.4508773436  7.28E-12
     - OT LS       0.11E-12    3.8                    -3443.4508773436
   141 OT CG       0.11E-12    7.2     0.00161461     -3443.4508773436  1.50E-11
     - OT LS       0.14E-13    3.8                    -3443.4508773436
   142 OT CG       0.14E-13    7.2     0.00161461     -3443.4508773436  1.36E-12
     - OT LS       0.29E-13    3.8                    -3443.4508773436
   143 OT CG       0.29E-13    7.2     0.00161461     -3443.4508773436  3.64E-12
     - OT LS       0.58E-13    3.8                    -3443.4508773436
   144 OT CG       0.58E-13    7.1     0.00161461     -3443.4508773436  7.73E-12
     - OT LS       0.12E-12    3.8                    -3443.4508773436
   145 OT CG       0.12E-12    7.2     0.00161461     -3443.4508773436  1.59E-11
     - OT LS       0.14E-13    3.8                    -3443.4508773436
   146 OT CG       0.14E-13    7.2     0.00161461     -3443.4508773436  1.82E-12
     - OT LS       0.29E-13    3.8                    -3443.4508773436
   147 OT CG       0.29E-13    7.2     0.00161461     -3443.4508773436  2.73E-12
     - OT LS       0.57E-13    3.8                    -3443.4508773436
   148 OT CG       0.57E-13    7.2     0.00161461     -3443.4508773436  8.19E-12
     - OT LS       0.11E-12    3.8                    -3443.4508773436
   149 OT CG       0.11E-12    7.1     0.00161461     -3443.4508773436  1.59E-11
     - OT LS       0.14E-13    3.8                    -3443.4508773436
   150 OT CG       0.14E-13    7.1     0.00161461     -3443.4508773436  1.36E-12
     - OT LS       0.29E-13    3.8                    -3443.4508773436
   151 OT CG       0.29E-13    7.2     0.00161461     -3443.4508773436  3.64E-12
     - OT LS       0.57E-13    3.8                    -3443.4508773436
   152 OT CG       0.57E-13    7.2     0.00161461     -3443.4508773436  7.73E-12
     - OT LS       0.11E-12    3.8                    -3443.4508773436
   153 OT CG       0.11E-12    7.2     0.00161461     -3443.4508773435  1.59E-11
     - OT LS       0.14E-13    3.8                    -3443.4508773435
   154 OT CG       0.14E-13    7.1     0.00161461     -3443.4508773435  1.36E-12
     - OT LS       0.28E-13    3.8                    -3443.4508773435
   155 OT CG       0.28E-13    7.1     0.00161461     -3443.4508773435  3.18E-12
     - OT LS       0.57E-13    3.8                    -3443.4508773435
   156 OT CG       0.57E-13    7.1     0.00161461     -3443.4508773435  8.19E-12
     - OT LS       0.11E-12    3.8                    -3443.4508773435
   157 OT CG       0.11E-12    7.2     0.00161461     -3443.4508773435  1.64E-11
     - OT LS       0.15E-13    3.8                    -3443.4508773435
   158 OT CG       0.15E-13    7.2     0.00161461     -3443.4508773435  1.36E-12
     - OT LS       0.29E-13    3.8                    -3443.4508773435
   159 OT CG       0.29E-13    7.1     0.00161461     -3443.4508773435  3.18E-12
     - OT LS       0.58E-13    3.8                    -3443.4508773435
   160 OT CG       0.58E-13    7.2     0.00161461     -3443.4508773435  7.28E-12
     - OT LS       0.12E-12    3.8                    -3443.4508773435
   161 OT CG       0.12E-12    7.1     0.00161461     -3443.4508773435  1.68E-11
     - OT LS       0.15E-13    3.8                    -3443.4508773435
   162 OT CG       0.15E-13    7.1     0.00161461     -3443.4508773435  2.27E-12
     - OT LS       0.29E-13    3.8                    -3443.4508773435
   163 OT CG       0.29E-13    7.1     0.00161461     -3443.4508773435  3.18E-12
     - OT LS       0.59E-13    3.8                    -3443.4508773435
   164 OT CG       0.59E-13    7.1     0.00161461     -3443.4508773435  7.73E-12
     - OT LS       0.12E-12    3.8                    -3443.4508773435
   165 OT CG       0.12E-12    7.2     0.00161461     -3443.4508773435  1.55E-11
     - OT LS       0.15E-13    3.8                    -3443.4508773434
   166 OT CG       0.15E-13    7.1     0.00161461     -3443.4508773435  2.27E-12
     - OT LS       0.29E-13    3.8                    -3443.4508773435
   167 OT CG       0.29E-13    7.1     0.00161461     -3443.4508773435  3.64E-12
     - OT LS       0.58E-13    3.8                    -3443.4508773435
   168 OT CG       0.58E-13    7.2     0.00161461     -3443.4508773434  8.19E-12
     - OT LS       0.12E-12    3.8                    -3443.4508773434
   169 OT CG       0.12E-12    7.1     0.00161461     -3443.4508773434  1.55E-11
     - OT LS       0.15E-13    3.8                    -3443.4508773434
   170 OT CG       0.15E-13    7.2     0.00161461     -3443.4508773434  2.27E-12
     - OT LS       0.29E-13    3.8                    -3443.4508773434
   171 OT CG       0.29E-13    7.2     0.00161461     -3443.4508773434  4.09E-12
     - OT LS       0.58E-13    3.8                    -3443.4508773434
   172 OT CG       0.58E-13    7.1     0.00161461     -3443.4508773434  6.82E-12
     - OT LS       0.12E-12    3.8                    -3443.4508773434
   173 OT CG       0.12E-12    7.2     0.00161461     -3443.4508773434  1.64E-11
     - OT LS       0.15E-13    3.8                    -3443.4508773434
   174 OT CG       0.15E-13    7.1     0.00161461     -3443.4508773434  2.73E-12
     - OT LS       0.30E-13    3.8                    -3443.4508773434
   175 OT CG       0.30E-13    7.2     0.00161461     -3443.4508773434  2.73E-12
     - OT LS       0.60E-13    3.8                    -3443.4508773434
   176 OT CG       0.60E-13    7.1     0.00161461     -3443.4508773434  8.19E-12
     - OT LS       0.12E-12    3.8                    -3443.4508773434
   177 OT CG       0.12E-12    7.1     0.00161461     -3443.4508773434  1.59E-11
     - OT LS       0.14E-13    3.8                    -3443.4508773434
   178 OT CG       0.14E-13    7.1     0.00161461     -3443.4508773434  2.27E-12
     - OT LS       0.29E-13    3.8                    -3443.4508773434
   179 OT CG       0.29E-13    7.2     0.00161461     -3443.4508773434  3.18E-12
     - OT LS       0.58E-13    3.8                    -3443.4508773434
   180 OT CG       0.58E-13    7.2     0.00161461     -3443.4508773434  7.73E-12
     - OT LS       0.12E-12    3.8                    -3443.4508773433
   181 OT CG       0.12E-12    7.1     0.00161461     -3443.4508773433  1.59E-11
     - OT LS       0.15E-13    3.8                    -3443.4508773433
   182 OT CG       0.15E-13    7.1     0.00161461     -3443.4508773433  1.36E-12
     - OT LS       0.29E-13    3.8                    -3443.4508773433
   183 OT CG       0.29E-13    7.1     0.00161461     -3443.4508773433  4.09E-12
     - OT LS       0.58E-13    3.8                    -3443.4508773433
   184 OT CG       0.58E-13    7.1     0.00161461     -3443.4508773433  7.28E-12
     - OT LS       0.12E-12    3.8                    -3443.4508773433
   185 OT CG       0.12E-12    7.1     0.00161461     -3443.4508773433  1.59E-11
     - OT LS       0.14E-13    3.8                    -3443.4508773433
   186 OT CG       0.14E-13    7.2     0.00161461     -3443.4508773433  3.18E-12
     - OT LS       0.28E-13    3.8                    -3443.4508773433
   187 OT CG       0.28E-13    7.2     0.00161461     -3443.4508773433  3.18E-12
     - OT LS       0.56E-13    3.8                    -3443.4508773433
   188 OT CG       0.56E-13    7.1     0.00161461     -3443.4508773433  6.82E-12
     - OT LS       0.11E-12    3.8                    -3443.4508773433
   189 OT CG       0.11E-12    7.1     0.00161461     -3443.4508773433  1.59E-11
     - OT LS       0.15E-13    3.8                    -3443.4508773433
   190 OT CG       0.15E-13    7.1     0.00161461     -3443.4508773433  1.82E-12
     - OT LS       0.29E-13    3.8                    -3443.4508773433
   191 OT CG       0.29E-13    7.2     0.00161461     -3443.4508773433  4.09E-12
     - OT LS       0.59E-13    3.8                    -3443.4508773433
   192 OT CG       0.59E-13    7.1     0.00161461     -3443.4508773433  7.73E-12
     - OT LS       0.12E-12    3.8                    -3443.4508773433
   193 OT CG       0.12E-12    7.1     0.00161461     -3443.4508773433  1.50E-11
     - OT LS       0.15E-13    3.8                    -3443.4508773432
   194 OT CG       0.15E-13    7.1     0.00161461     -3443.4508773433  1.82E-12
     - OT LS       0.30E-13    3.8                    -3443.4508773433
   195 OT CG       0.30E-13    7.1     0.00161461     -3443.4508773433  4.09E-12
     - OT LS       0.59E-13    3.8                    -3443.4508773432
   196 OT CG       0.59E-13    7.1     0.00161461     -3443.4508773432  8.19E-12
     - OT LS       0.12E-12    3.8                    -3443.4508773432
   197 OT CG       0.12E-12    7.1     0.00161461     -3443.4508773432  1.59E-11
     - OT LS       0.15E-13    3.8                    -3443.4508773432
   198 OT CG       0.15E-13    7.2     0.00161461     -3443.4508773432  1.36E-12
     - OT LS       0.31E-13    3.8                    -3443.4508773432
   199 OT CG       0.31E-13    7.2     0.00161461     -3443.4508773432  4.09E-12
     - OT LS       0.62E-13    3.8                    -3443.4508773432
   200 OT CG       0.62E-13    7.2     0.00161461     -3443.4508773432  8.64E-12
     - OT LS       0.12E-12    3.8                    -3443.4508773432
   201 OT CG       0.12E-12    7.1     0.00161461     -3443.4508773432  1.64E-11
     - OT LS       0.16E-13    3.8                    -3443.4508773432
   202 OT CG       0.16E-13    7.1     0.00161461     -3443.4508773432  2.27E-12
     - OT LS       0.32E-13    3.8                    -3443.4508773432
   203 OT CG       0.32E-13    7.1     0.00161461     -3443.4508773432  4.55E-12
     - OT LS       0.64E-13    3.8                    -3443.4508773432
   204 OT CG       0.64E-13    7.5     0.00161461     -3443.4508773432  8.19E-12
     - OT LS       0.13E-12    3.8                    -3443.4508773432
   205 OT CG       0.13E-12    7.2     0.00161461     -3443.4508773432  1.64E-11
     - OT LS       0.15E-13    3.8                    -3443.4508773431
   206 OT CG       0.15E-13    7.2     0.00161461     -3443.4508773432  2.73E-12
     - OT LS       0.30E-13    3.8                    -3443.4508773432
   207 OT CG       0.30E-13    7.2     0.00161461     -3443.4508773432  4.09E-12
     - OT LS       0.61E-13    3.8                    -3443.4508773432
   208 OT CG       0.61E-13    7.1     0.00161461     -3443.4508773432  7.28E-12
     - OT LS       0.12E-12    3.8                    -3443.4508773431
   209 OT CG       0.12E-12    7.2     0.00161461     -3443.4508773431  1.68E-11
     - OT LS       0.15E-13    3.8                    -3443.4508773431
   210 OT CG       0.15E-13    7.2     0.00161461     -3443.4508773431  1.82E-12
     - OT LS       0.30E-13    3.8                    -3443.4508773431
   211 OT CG       0.30E-13    7.2     0.00161461     -3443.4508773431  3.18E-12
     - OT LS       0.60E-13    3.8                    -3443.4508773431
   212 OT CG       0.60E-13    7.2     0.00161461     -3443.4508773431  9.09E-12
     - OT LS       0.12E-12    3.8                    -3443.4508773431
   213 OT CG       0.12E-12    7.2     0.00161461     -3443.4508773431  1.59E-11
     - OT LS       0.15E-13    3.8                    -3443.4508773431
   214 OT CG       0.15E-13    7.2     0.00161461     -3443.4508773431  2.27E-12
     - OT LS       0.30E-13    3.8                    -3443.4508773431
   215 OT CG       0.30E-13    7.2     0.00161461     -3443.4508773431  3.64E-12
     - OT LS       0.60E-13    3.8                    -3443.4508773431
   216 OT CG       0.60E-13    7.2     0.00161461     -3443.4508773431  8.19E-12
     - OT LS       0.12E-12    3.8                    -3443.4508773431
   217 OT CG       0.12E-12    7.2     0.00161461     -3443.4508773431  1.64E-11
     - OT LS       0.15E-13    3.8                    -3443.4508773431
   218 OT CG       0.15E-13    7.2     0.00161461     -3443.4508773431  1.82E-12
     - OT LS       0.30E-13    3.8                    -3443.4508773431
   219 OT CG       0.30E-13    7.1     0.00161461     -3443.4508773431  3.18E-12
     - OT LS       0.60E-13    3.8                    -3443.4508773431
   220 OT CG       0.60E-13    7.2     0.00161461     -3443.4508773431  8.64E-12
     - OT LS       0.12E-12    3.8                    -3443.4508773431
   221 OT CG       0.12E-12    7.2     0.00161461     -3443.4508773430  1.59E-11
     - OT LS       0.14E-13    3.8                    -3443.4508773430
   222 OT CG       0.14E-13    7.2     0.00161461     -3443.4508773430  4.55E-13
     - OT LS       0.29E-13    3.8                    -3443.4508773430
   223 OT CG       0.29E-13    7.2     0.00161461     -3443.4508773430  5.91E-12
     - OT LS       0.58E-13    3.8                    -3443.4508773430
   224 OT CG       0.58E-13    7.1     0.00161461     -3443.4508773430  6.82E-12
     - OT LS       0.12E-12    3.8                    -3443.4508773430
   225 OT CG       0.12E-12    7.2     0.00161461     -3443.4508773430  1.55E-11
     - OT LS       0.15E-13    3.8                    -3443.4508773430
   226 OT CG       0.15E-13    7.2     0.00161461     -3443.4508773430  1.82E-12
     - OT LS       0.30E-13    3.8                    -3443.4508773430
   227 OT CG       0.30E-13    7.1     0.00161461     -3443.4508773430  4.55E-12
     - OT LS       0.60E-13    3.8                    -3443.4508773430
   228 OT CG       0.60E-13    7.2     0.00161461     -3443.4508773430  7.73E-12
     - OT LS       0.12E-12    3.8                    -3443.4508773430
   229 OT CG       0.12E-12    7.2     0.00161461     -3443.4508773430  1.50E-11
     - OT LS       0.14E-13    3.8                    -3443.4508773430
   230 OT CG       0.14E-13    7.2     0.00161461     -3443.4508773430  2.27E-12
     - OT LS       0.28E-13    3.8                    -3443.4508773430
   231 OT CG       0.28E-13    7.2     0.00161461     -3443.4508773430  4.55E-12
     - OT LS       0.57E-13    3.8                    -3443.4508773430
   232 OT CG       0.57E-13    7.2     0.00161461     -3443.4508773430  8.19E-12
     - OT LS       0.11E-12    3.8                    -3443.4508773430
   233 OT CG       0.11E-12    7.2     0.00161461     -3443.4508773430  1.50E-11
     - OT LS       0.15E-13    3.8                    -3443.4508773429
   234 OT CG       0.15E-13    7.1     0.00161461     -3443.4508773430  9.09E-13
     - OT LS       0.29E-13    3.8                    -3443.4508773430
   235 OT CG       0.29E-13    7.1     0.00161461     -3443.4508773430  4.09E-12
     - OT LS       0.58E-13    3.8                    -3443.4508773429
   236 OT CG       0.58E-13    7.2     0.00161461     -3443.4508773429  8.64E-12
     - OT LS       0.12E-12    3.8                    -3443.4508773429
   237 OT CG       0.12E-12    7.1     0.00161461     -3443.4508773429  1.50E-11
     - OT LS       0.14E-13    3.8                    -3443.4508773429
   238 OT CG       0.14E-13    7.2     0.00161461     -3443.4508773429  2.73E-12
     - OT LS       0.29E-13    3.8                    -3443.4508773429
   239 OT CG       0.29E-13    7.2     0.00161461     -3443.4508773429  3.18E-12
     - OT LS       0.58E-13    3.8                    -3443.4508773429
   240 OT CG       0.58E-13    7.2     0.00161461     -3443.4508773429  7.73E-12
     - OT LS       0.12E-12    3.8                    -3443.4508773429
   241 OT CG       0.12E-12    7.2     0.00161461     -3443.4508773429  1.59E-11
     - OT LS       0.14E-13    3.8                    -3443.4508773429
   242 OT CG       0.14E-13    7.2     0.00161461     -3443.4508773429  9.09E-13
     - OT LS       0.28E-13    3.8                    -3443.4508773429
   243 OT CG       0.28E-13    7.2     0.00161461     -3443.4508773429  4.09E-12
     - OT LS       0.56E-13    3.8                    -3443.4508773429
   244 OT CG       0.56E-13    7.1     0.00161461     -3443.4508773429  7.73E-12
     - OT LS       0.11E-12    3.8                    -3443.4508773429
   245 OT CG       0.11E-12    7.2     0.00161461     -3443.4508773429  1.46E-11
     - OT LS       0.13E-13    3.8                    -3443.4508773429
   246 OT CG       0.13E-13    7.2     0.00161461     -3443.4508773429  2.27E-12
     - OT LS       0.26E-13    3.8                    -3443.4508773429
   247 OT CG       0.26E-13    7.2     0.00161461     -3443.4508773429  2.73E-12
     - OT LS       0.53E-13    3.8                    -3443.4508773429
   248 OT CG       0.53E-13    7.2     0.00161461     -3443.4508773429  6.82E-12
     - OT LS       0.11E-12    3.8                    -3443.4508773429
   249 OT CG       0.11E-12    7.2     0.00161461     -3443.4508773428  1.41E-11
     - OT LS       0.13E-13    3.8                    -3443.4508773428
   250 OT CG       0.13E-13    7.1     0.00161461     -3443.4508773428  2.27E-12

  Leaving inner SCF loop after reaching   250 steps.


  Electronic density on regular grids:      -2030.0440092746        3.9559907254
  Core density on regular grids:             2033.9999999986       -0.0000000014
  Total charge density on r-space grids:        3.9559907240
  Total charge density g-space grids:           3.9559907240

  Overlap energy of the core charge distribution:               0.00011754517808
  Self energy of the core charge distribution:              -8859.91288883521156
  Core Hamiltonian energy:                                   2556.11613724094150
  Hartree energy:                                            3801.80917223285405
  Exchange-correlation energy:                               -944.78080406772676
  Dispersion energy:                                            2.58692750594197
  Electric field interaction energy:                            0.73046103518011

  Total energy:                                             -3443.45087734284243

  outer SCF iter =    7 RMS gradient =   0.16E-02 energy =      -3443.4508773428

  ----------------------------------- OT ---------------------------------------
  Minimizer      : CG                  : conjugate gradient
  Preconditioner : FULL_ALL            : diagonalization, state selective
  Precond_solver : DEFAULT
  Line search    : 2PNT                : 2 energies, one gradient
  stepsize       :    0.15000000                  energy_gap     :    0.00100000
  eps_taylor     :   0.10000E-15                  max_taylor     :             4
  ----------------------------------- OT ---------------------------------------

  Step     Update method      Time    Convergence         Total energy    Change
  ------------------------------------------------------------------------------
     1 OT CG       0.15E+00   22.5     0.00220943     -3443.4508773428  2.27E-12
     - OT LS       0.16E-01    3.8                    -3396.8142539580
     2 OT CG       0.16E-01    7.3     0.00338823     -3438.6158655524  4.84E+00
     - OT LS       0.20E-02    3.8                    -3425.2502470177
     3 OT CG       0.20E-02    7.2     0.00345370     -3436.8102476282  1.81E+00
     - OT LS       0.35E-03    3.8                    -3435.9819440614
     4 OT CG       0.35E-03    7.2     0.00339364     -3436.6799939565  1.30E-01
     - OT LS       0.59E-04    3.8                    -3436.5466728241
     5 OT CG       0.59E-04    7.2     0.00338448     -3436.6576186128  2.24E-02
     - OT LS       0.98E-05    3.8                    -3436.6351851982
     6 OT CG       0.98E-05    7.2     0.00338295     -3436.6538545469  3.76E-03
     - OT LS       0.16E-05    3.8                    -3436.6500888525
     7 OT CG       0.16E-05    7.2     0.00338270     -3436.6532227400  6.32E-04
     - OT LS       0.28E-06    3.8                    -3436.6525908872
     8 OT CG       0.28E-06    7.2     0.00338265     -3436.6531167289  1.06E-04
     - OT LS       0.46E-07    3.8                    -3436.6530107165
     9 OT CG       0.46E-07    7.2     0.00338265     -3436.6530989423  1.78E-05
     - OT LS       0.78E-08    3.8                    -3436.6530811558
    10 OT CG       0.78E-08    7.2     0.00338264     -3436.6530959581  2.98E-06
     - OT LS       0.13E-08    3.8                    -3436.6530929739
    11 OT CG       0.13E-08    7.2     0.00338264     -3436.6530954575  5.01E-07
     - OT LS       0.22E-09    3.8                    -3436.6530949568
    12 OT CG       0.22E-09    7.2     0.00338264     -3436.6530953735  8.40E-08
     - OT LS       0.37E-10    3.8                    -3436.6530952894
    13 OT CG       0.37E-10    7.2     0.00338264     -3436.6530953594  1.41E-08
     - OT LS       0.62E-11    3.8                    -3436.6530953453
    14 OT CG       0.62E-11    7.2     0.00338264     -3436.6530953570  2.37E-09
     - OT LS       0.10E-11    3.8                    -3436.6530953546
    15 OT CG       0.10E-11    7.2     0.00338264     -3436.6530953566  3.97E-10
     - OT LS       0.17E-12    3.8                    -3436.6530953562
    16 OT CG       0.17E-12    7.2     0.00338264     -3436.6530953565  6.73E-11
     - OT LS       0.29E-13    3.8                    -3436.6530953565
    17 OT CG       0.29E-13    7.2     0.00338264     -3436.6530953565  1.05E-11
     - OT LS       0.49E-14    3.8                    -3436.6530953565
    18 OT CG       0.49E-14    7.2     0.00338264     -3436.6530953565  2.27E-12
     - OT LS       0.99E-14    3.8                    -3436.6530953565
    19 OT CG       0.99E-14    7.2     0.00338264     -3436.6530953565  3.18E-12
     - OT LS       0.20E-13    3.8                    -3436.6530953565
    20 OT CG       0.20E-13    7.2     0.00338264     -3436.6530953565  8.19E-12
     - OT LS       0.36E-14    3.8                    -3436.6530953565
    21 OT CG       0.36E-14    7.2     0.00338264     -3436.6530953565  9.09E-13
     - OT LS       0.72E-14    3.8                    -3436.6530953565
    22 OT CG       0.72E-14    7.2     0.00338264     -3436.6530953565  2.27E-12
     - OT LS       0.14E-13    3.8                    -3436.6530953565
    23 OT CG       0.14E-13    7.2     0.00338264     -3436.6530953565  6.82E-12
     - OT LS       0.26E-14    3.8                    -3436.6530953565
    24 OT CG       0.26E-14    7.2     0.00338264     -3436.6530953565  0.00E+00
     - OT LS       0.52E-14    3.8                    -3436.6530953565
    25 OT CG       0.52E-14    7.2     0.00338264     -3436.6530953565  2.27E-12
     - OT LS       0.10E-13    3.8                    -3436.6530953565
    26 OT CG       0.10E-13    7.2     0.00338264     -3436.6530953565  3.64E-12
     - OT LS       0.21E-13    3.8                    -3436.6530953565
    27 OT CG       0.21E-13    7.2     0.00338264     -3436.6530953565  8.64E-12
     - OT LS       0.34E-14    3.8                    -3436.6530953565
    28 OT CG       0.34E-14    7.2     0.00338264     -3436.6530953565  1.36E-12
     - OT LS       0.68E-14    3.8                    -3436.6530953565
    29 OT CG       0.68E-14    7.2     0.00338264     -3436.6530953565  2.27E-12
     - OT LS       0.14E-13    3.8                    -3436.6530953565
    30 OT CG       0.14E-13    7.2     0.00338264     -3436.6530953565  4.55E-12
     - OT LS       0.27E-13    3.8                    -3436.6530953565
    31 OT CG       0.27E-13    7.2     0.00338264     -3436.6530953565  1.18E-11
     - OT LS       0.48E-14    3.8                    -3436.6530953565
    32 OT CG       0.48E-14    7.2     0.00338264     -3436.6530953565  4.55E-13
     - OT LS       0.96E-14    3.8                    -3436.6530953565
    33 OT CG       0.96E-14    7.2     0.00338264     -3436.6530953565  3.64E-12
     - OT LS       0.19E-13    3.8                    -3436.6530953565
    34 OT CG       0.19E-13    7.2     0.00338264     -3436.6530953564  8.19E-12
     - OT LS       0.32E-14    3.8                    -3436.6530953564
    35 OT CG       0.32E-14    7.2     0.00338264     -3436.6530953564  1.36E-12
     - OT LS       0.65E-14    3.8                    -3436.6530953564
    36 OT CG       0.65E-14    7.2     0.00338264     -3436.6530953564  2.73E-12
     - OT LS       0.13E-13    3.8                    -3436.6530953564
    37 OT CG       0.13E-13    7.2     0.00338264     -3436.6530953564  4.09E-12
     - OT LS       0.26E-13    3.8                    -3436.6530953564
    38 OT CG       0.26E-13    7.2     0.00338264     -3436.6530953564  1.14E-11
     - OT LS       0.45E-14    3.8                    -3436.6530953564
    39 OT CG       0.45E-14    7.2     0.00338264     -3436.6530953564  4.55E-13
     - OT LS       0.90E-14    3.8                    -3436.6530953564
    40 OT CG       0.90E-14    7.2     0.00338264     -3436.6530953564  3.18E-12
     - OT LS       0.18E-13    3.8                    -3436.6530953564
    41 OT CG       0.18E-13    7.2     0.00338264     -3436.6530953564  7.73E-12
     - OT LS       0.34E-14    3.8                    -3436.6530953564
    42 OT CG       0.34E-14    7.2     0.00338264     -3436.6530953564  1.36E-12
     - OT LS       0.68E-14    3.8                    -3436.6530953564
    43 OT CG       0.68E-14    7.2     0.00338264     -3436.6530953564  2.73E-12
     - OT LS       0.14E-13    3.8                    -3436.6530953564
    44 OT CG       0.14E-13    7.2     0.00338264     -3436.6530953564  5.46E-12
     - OT LS       0.27E-13    3.8                    -3436.6530953564
    45 OT CG       0.27E-13    7.2     0.00338264     -3436.6530953564  9.55E-12
     - OT LS       0.46E-14    3.8                    -3436.6530953564
    46 OT CG       0.46E-14    7.2     0.00338264     -3436.6530953564  2.27E-12
     - OT LS       0.91E-14    3.8                    -3436.6530953564
    47 OT CG       0.91E-14    7.2     0.00338264     -3436.6530953564  2.73E-12
     - OT LS       0.18E-13    3.8                    -3436.6530953564
    48 OT CG       0.18E-13    7.2     0.00338264     -3436.6530953564  8.64E-12
     - OT LS       0.34E-14    3.8                    -3436.6530953564
    49 OT CG       0.34E-14    7.2     0.00338264     -3436.6530953564  0.00E+00
     - OT LS       0.67E-14    3.8                    -3436.6530953564
    50 OT CG       0.67E-14    7.2     0.00338264     -3436.6530953564  3.18E-12
     - OT LS       0.13E-13    3.8                    -3436.6530953564
    51 OT CG       0.13E-13    7.2     0.00338264     -3436.6530953564  5.00E-12
     - OT LS       0.26E-14    3.8                    -3436.6530953564
    52 OT CG       0.26E-14    7.2     0.00338264     -3436.6530953564  9.09E-13
     - OT LS       0.52E-14    3.8                    -3436.6530953564
    53 OT CG       0.52E-14    7.2     0.00338264     -3436.6530953564  2.27E-12
     - OT LS       0.10E-13    3.8                    -3436.6530953564
    54 OT CG       0.10E-13    7.2     0.00338264     -3436.6530953564  4.09E-12
     - OT LS       0.21E-13    3.8                    -3436.6530953564
    55 OT CG       0.21E-13    7.2     0.00338264     -3436.6530953564  7.28E-12
     - OT LS       0.32E-14    3.8                    -3436.6530953564
    56 OT CG       0.32E-14    7.2     0.00338264     -3436.6530953564  1.82E-12
     - OT LS       0.65E-14    3.8                    -3436.6530953564
    57 OT CG       0.65E-14    7.2     0.00338264     -3436.6530953564  1.82E-12
     - OT LS       0.13E-13    3.8                    -3436.6530953564
    58 OT CG       0.13E-13    7.2     0.00338264     -3436.6530953564  4.55E-12
     - OT LS       0.26E-13    3.8                    -3436.6530953563
    59 OT CG       0.26E-13    7.2     0.00338264     -3436.6530953563  1.00E-11
     - OT LS       0.42E-14    3.8                    -3436.6530953563
    60 OT CG       0.42E-14    7.2     0.00338264     -3436.6530953563  1.82E-12
     - OT LS       0.83E-14    3.8                    -3436.6530953563
    61 OT CG       0.83E-14    7.2     0.00338264     -3436.6530953563  3.64E-12
     - OT LS       0.17E-13    3.8                    -3436.6530953563
    62 OT CG       0.17E-13    7.2     0.00338264     -3436.6530953563  5.91E-12
     - OT LS       0.27E-14    3.8                    -3436.6530953563
    63 OT CG       0.27E-14    7.2     0.00338264     -3436.6530953563  1.36E-12
     - OT LS       0.54E-14    3.8                    -3436.6530953563
    64 OT CG       0.54E-14    7.2     0.00338264     -3436.6530953563  1.82E-12
     - OT LS       0.11E-13    3.8                    -3436.6530953563
    65 OT CG       0.11E-13    7.2     0.00338264     -3436.6530953563  4.55E-12
     - OT LS       0.22E-13    3.8                    -3436.6530953563
    66 OT CG       0.22E-13    7.2     0.00338264     -3436.6530953563  8.19E-12
     - OT LS       0.35E-14    3.8                    -3436.6530953563
    67 OT CG       0.35E-14    7.2     0.00338264     -3436.6530953563  1.36E-12
     - OT LS       0.70E-14    3.8                    -3436.6530953563
    68 OT CG       0.70E-14    7.2     0.00338264     -3436.6530953563  2.27E-12
     - OT LS       0.14E-13    3.8                    -3436.6530953563
    69 OT CG       0.14E-13    7.2     0.00338264     -3436.6530953563  6.37E-12
     - OT LS       0.28E-13    3.8                    -3436.6530953563
    70 OT CG       0.28E-13    7.2     0.00338264     -3436.6530953563  9.55E-12
     - OT LS       0.46E-14    3.8                    -3436.6530953563
    71 OT CG       0.46E-14    7.2     0.00338264     -3436.6530953563  2.73E-12
     - OT LS       0.91E-14    3.8                    -3436.6530953563
    72 OT CG       0.91E-14    7.2     0.00338264     -3436.6530953563  3.64E-12
     - OT LS       0.25E-14    3.8                    -3436.6530953563
    73 OT CG       0.25E-14    7.2     0.00338264     -3436.6530953563  0.00E+00
     - OT LS       0.51E-14    3.8                    -3436.6530953563
    74 OT CG       0.51E-14    7.2     0.00338264     -3436.6530953563  3.18E-12
     - OT LS       0.10E-13    3.8                    -3436.6530953563
    75 OT CG       0.10E-13    7.2     0.00338264     -3436.6530953563  3.64E-12
     - OT LS       0.20E-13    3.8                    -3436.6530953563
    76 OT CG       0.20E-13    7.2     0.00338264     -3436.6530953563  7.73E-12
     - OT LS       0.34E-14    3.8                    -3436.6530953563
    77 OT CG       0.34E-14    7.2     0.00338264     -3436.6530953563  1.82E-12
     - OT LS       0.24E-14    3.8                    -3436.6530953563
    78 OT CG       0.24E-14    7.2     0.00338264     -3436.6530953563 -4.55E-13
     - OT LS       0.49E-14    3.8                    -3436.6530953563
    79 OT CG       0.49E-14    7.2     0.00338264     -3436.6530953563  2.27E-12
     - OT LS       0.97E-14    3.8                    -3436.6530953563
    80 OT CG       0.97E-14    7.2     0.00338264     -3436.6530953563  4.09E-12
     - OT LS       0.19E-13    3.8                    -3436.6530953563
    81 OT CG       0.19E-13    7.2     0.00338264     -3436.6530953563  8.19E-12
     - OT LS       0.37E-14    3.8                    -3436.6530953563
    82 OT CG       0.37E-14    7.2     0.00338264     -3436.6530953563  0.00E+00
     - OT LS       0.73E-14    3.8                    -3436.6530953563
    83 OT CG       0.73E-14    7.2     0.00338264     -3436.6530953563  2.73E-12
     - OT LS       0.15E-13    3.8                    -3436.6530953563
    84 OT CG       0.15E-13    7.2     0.00338264     -3436.6530953563  5.46E-12
     - OT LS       0.25E-14    3.7                    -3436.6530953562
    85 OT CG       0.25E-14    7.2     0.00338264     -3436.6530953563  9.09E-13
     - OT LS       0.51E-14    3.8                    -3436.6530953562
    86 OT CG       0.51E-14    7.2     0.00338264     -3436.6530953562  2.27E-12
     - OT LS       0.10E-13    3.8                    -3436.6530953562
    87 OT CG       0.10E-13    7.2     0.00338264     -3436.6530953562  4.09E-12
     - OT LS       0.20E-13    3.8                    -3436.6530953562
    88 OT CG       0.20E-13    7.2     0.00338264     -3436.6530953562  7.73E-12
     - OT LS       0.35E-14    3.8                    -3436.6530953562
    89 OT CG       0.35E-14    7.2     0.00338264     -3436.6530953562  1.36E-12
     - OT LS       0.70E-14    3.8                    -3436.6530953562
    90 OT CG       0.70E-14    7.2     0.00338264     -3436.6530953562  2.27E-12
     - OT LS       0.14E-13    3.8                    -3436.6530953562
    91 OT CG       0.14E-13    7.2     0.00338264     -3436.6530953562  5.46E-12
     - OT LS       0.24E-14    3.8                    -3436.6530953562
    92 OT CG       0.24E-14    7.2     0.00338264     -3436.6530953562  9.09E-13
     - OT LS       0.49E-14    3.8                    -3436.6530953562
    93 OT CG       0.49E-14    7.2     0.00338264     -3436.6530953562  1.82E-12
     - OT LS       0.98E-14    3.8                    -3436.6530953562
    94 OT CG       0.98E-14    7.2     0.00338264     -3436.6530953562  4.09E-12
     - OT LS       0.20E-13    3.8                    -3436.6530953562
    95 OT CG       0.20E-13    7.2     0.00338264     -3436.6530953562  6.82E-12
     - OT LS       0.31E-14    3.8                    -3436.6530953562
    96 OT CG       0.31E-14    7.2     0.00338264     -3436.6530953562  9.09E-13
     - OT LS       0.63E-14    3.8                    -3436.6530953562
    97 OT CG       0.63E-14    7.2     0.00338264     -3436.6530953562  3.64E-12
     - OT LS       0.13E-13    3.8                    -3436.6530953562
    98 OT CG       0.13E-13    7.2     0.00338264     -3436.6530953562  4.55E-12
     - OT LS       0.25E-13    3.8                    -3436.6530953562
    99 OT CG       0.25E-13    7.2     0.00338264     -3436.6530953562  9.55E-12
     - OT LS       0.45E-14    3.8                    -3436.6530953562
   100 OT CG       0.45E-14    7.2     0.00338264     -3436.6530953562  1.36E-12
     - OT LS       0.89E-14    3.8                    -3436.6530953562
   101 OT CG       0.89E-14    7.3     0.00338264     -3436.6530953562  3.64E-12
     - OT LS       0.18E-13    3.8                    -3436.6530953562
   102 OT CG       0.18E-13    7.2     0.00338264     -3436.6530953562  6.82E-12
     - OT LS       0.28E-14    3.8                    -3436.6530953562
   103 OT CG       0.28E-14    7.1     0.00338264     -3436.6530953562  1.36E-12
     - OT LS       0.57E-14    3.8                    -3436.6530953562
   104 OT CG       0.57E-14    7.1     0.00338264     -3436.6530953562  9.09E-13
     - OT LS       0.11E-13    3.8                    -3436.6530953562
   105 OT CG       0.11E-13    7.2     0.00338264     -3436.6530953562  5.46E-12
     - OT LS       0.23E-13    3.8                    -3436.6530953562
   106 OT CG       0.23E-13    7.2     0.00338264     -3436.6530953562  8.64E-12
     - OT LS       0.38E-14    3.8                    -3436.6530953562
   107 OT CG       0.38E-14    7.1     0.00338264     -3436.6530953562  1.82E-12
     - OT LS       0.75E-14    3.8                    -3436.6530953562
   108 OT CG       0.75E-14    7.2     0.00338264     -3436.6530953562  2.27E-12
     - OT LS       0.15E-13    3.8                    -3436.6530953562
   109 OT CG       0.15E-13    7.2     0.00338264     -3436.6530953562  5.46E-12
     - OT LS       0.25E-14    3.8                    -3436.6530953562
   110 OT CG       0.25E-14    7.2     0.00338264     -3436.6530953562  1.36E-12
     - OT LS       0.51E-14    3.8                    -3436.6530953562
   111 OT CG       0.51E-14    7.2     0.00338264     -3436.6530953562  2.27E-12
     - OT LS       0.10E-13    3.8                    -3436.6530953562
   112 OT CG       0.10E-13    7.1     0.00338264     -3436.6530953562  3.64E-12
     - OT LS       0.20E-13    3.8                    -3436.6530953561
   113 OT CG       0.20E-13    7.2     0.00338264     -3436.6530953561  8.19E-12
     - OT LS       0.35E-14    3.8                    -3436.6530953561
   114 OT CG       0.35E-14    7.1     0.00338264     -3436.6530953561  1.82E-12
     - OT LS       0.70E-14    3.8                    -3436.6530953561
   115 OT CG       0.70E-14    7.2     0.00338264     -3436.6530953561  1.36E-12
     - OT LS       0.14E-13    3.8                    -3436.6530953561
   116 OT CG       0.14E-13    7.2     0.00338264     -3436.6530953561  5.91E-12
     - OT LS       0.26E-14    3.8                    -3436.6530953561
   117 OT CG       0.26E-14    7.1     0.00338264     -3436.6530953561  4.55E-13
     - OT LS       0.52E-14    3.8                    -3436.6530953561
   118 OT CG       0.52E-14    7.2     0.00338264     -3436.6530953561  2.27E-12
     - OT LS       0.10E-13    3.8                    -3436.6530953561
   119 OT CG       0.10E-13    7.2     0.00338264     -3436.6530953561  4.55E-12
     - OT LS       0.21E-13    3.8                    -3436.6530953561
   120 OT CG       0.21E-13    7.2     0.00338264     -3436.6530953561  7.73E-12
     - OT LS       0.35E-14    3.8                    -3436.6530953561
   121 OT CG       0.35E-14    7.2     0.00338264     -3436.6530953561  1.36E-12
     - OT LS       0.70E-14    3.8                    -3436.6530953561
   122 OT CG       0.70E-14    7.2     0.00338264     -3436.6530953561  1.82E-12
     - OT LS       0.14E-13    3.8                    -3436.6530953561
   123 OT CG       0.14E-13    7.2     0.00338264     -3436.6530953561  5.91E-12
     - OT LS       0.28E-13    3.8                    -3436.6530953561
   124 OT CG       0.28E-13    7.1     0.00338264     -3436.6530953561  1.05E-11
     - OT LS       0.44E-14    3.7                    -3436.6530953561
   125 OT CG       0.44E-14    7.1     0.00338264     -3436.6530953561  1.82E-12
     - OT LS       0.89E-14    3.8                    -3436.6530953561
   126 OT CG       0.89E-14    7.2     0.00338264     -3436.6530953561  3.18E-12
     - OT LS       0.18E-13    3.8                    -3436.6530953561
   127 OT CG       0.18E-13    7.2     0.00338264     -3436.6530953561  6.82E-12
     - OT LS       0.30E-14    3.8                    -3436.6530953561
   128 OT CG       0.30E-14    7.2     0.00338264     -3436.6530953561  1.82E-12
     - OT LS       0.61E-14    3.8                    -3436.6530953561
   129 OT CG       0.61E-14    7.2     0.00338264     -3436.6530953561  2.73E-12
     - OT LS       0.12E-13    3.8                    -3436.6530953561
   130 OT CG       0.12E-13    7.2     0.00338264     -3436.6530953561  4.09E-12
     - OT LS       0.24E-13    3.8                    -3436.6530953561
   131 OT CG       0.24E-13    7.1     0.00338264     -3436.6530953561  9.09E-12
     - OT LS       0.42E-14    3.8                    -3436.6530953561
   132 OT CG       0.42E-14    7.1     0.00338264     -3436.6530953561  1.82E-12
     - OT LS       0.84E-14    3.7                    -3436.6530953561
   133 OT CG       0.84E-14    7.1     0.00338264     -3436.6530953561  3.18E-12
     - OT LS       0.17E-13    3.8                    -3436.6530953561
   134 OT CG       0.17E-13    7.2     0.00338264     -3436.6530953561  6.82E-12
     - OT LS       0.30E-14    3.7                    -3436.6530953561
   135 OT CG       0.30E-14    7.2     0.00338264     -3436.6530953561  4.55E-13
     - OT LS       0.60E-14    3.8                    -3436.6530953561
   136 OT CG       0.60E-14    7.2     0.00338264     -3436.6530953561  2.73E-12
     - OT LS       0.12E-13    3.8                    -3436.6530953561
   137 OT CG       0.12E-13    7.1     0.00338264     -3436.6530953561  4.09E-12
     - OT LS       0.24E-13    3.8                    -3436.6530953560
   138 OT CG       0.24E-13    7.2     0.00338264     -3436.6530953560  8.64E-12
     - OT LS       0.37E-14    3.8                    -3436.6530953560
   139 OT CG       0.37E-14    7.2     0.00338264     -3436.6530953560  2.73E-12
     - OT LS       0.74E-14    3.8                    -3436.6530953560
   140 OT CG       0.74E-14    7.2     0.00338264     -3436.6530953560  2.73E-12
     - OT LS       0.15E-13    3.8                    -3436.6530953560
   141 OT CG       0.15E-13    7.2     0.00338264     -3436.6530953560  5.00E-12
     - OT LS       0.30E-13    3.8                    -3436.6530953560
   142 OT CG       0.30E-13    7.2     0.00338264     -3436.6530953560  1.23E-11
     - OT LS       0.53E-14    3.8                    -3436.6530953560
   143 OT CG       0.53E-14    7.2     0.00338264     -3436.6530953560  9.09E-13
     - OT LS       0.11E-13    3.8                    -3436.6530953560
   144 OT CG       0.11E-13    7.1     0.00338264     -3436.6530953560  5.46E-12
     - OT LS       0.21E-13    3.8                    -3436.6530953560
   145 OT CG       0.21E-13    7.2     0.00338264     -3436.6530953560  6.82E-12
     - OT LS       0.35E-14    3.8                    -3436.6530953560
   146 OT CG       0.35E-14    7.2     0.00338264     -3436.6530953560  1.82E-12
     - OT LS       0.69E-14    3.8                    -3436.6530953560
   147 OT CG       0.69E-14    7.2     0.00338264     -3436.6530953560  2.27E-12
     - OT LS       0.14E-13    3.8                    -3436.6530953560
   148 OT CG       0.14E-13    7.1     0.00338264     -3436.6530953560  5.91E-12
     - OT LS       0.28E-13    3.8                    -3436.6530953560
   149 OT CG       0.28E-13    7.2     0.00338264     -3436.6530953560  1.05E-11
     - OT LS       0.46E-14    3.8                    -3436.6530953560
   150 OT CG       0.46E-14    7.2     0.00338264     -3436.6530953560  1.82E-12
     - OT LS       0.93E-14    3.8                    -3436.6530953560
   151 OT CG       0.93E-14    7.2     0.00338264     -3436.6530953560  4.09E-12
     - OT LS       0.19E-13    3.8                    -3436.6530953560
   152 OT CG       0.19E-13    7.2     0.00338264     -3436.6530953560  6.37E-12
     - OT LS       0.32E-14    3.8                    -3436.6530953560
   153 OT CG       0.32E-14    7.2     0.00338264     -3436.6530953560  1.82E-12
     - OT LS       0.64E-14    3.8                    -3436.6530953560
   154 OT CG       0.64E-14    7.2     0.00338264     -3436.6530953560  1.82E-12
     - OT LS       0.13E-13    3.8                    -3436.6530953560
   155 OT CG       0.13E-13    7.2     0.00338264     -3436.6530953560  5.91E-12
     - OT LS       0.25E-14    3.8                    -3436.6530953560
   156 OT CG       0.25E-14    7.2     0.00338264     -3436.6530953560  4.55E-13
     - OT LS       0.50E-14    3.8                    -3436.6530953560
   157 OT CG       0.50E-14    7.2     0.00338264     -3436.6530953560  1.82E-12
     - OT LS       0.99E-14    3.8                    -3436.6530953560
   158 OT CG       0.99E-14    7.2     0.00338264     -3436.6530953560  4.55E-12
     - OT LS       0.20E-13    3.8                    -3436.6530953560
   159 OT CG       0.20E-13    7.1     0.00338264     -3436.6530953559  7.28E-12
     - OT LS       0.35E-14    3.8                    -3436.6530953559
   160 OT CG       0.35E-14    7.2     0.00338264     -3436.6530953559  1.36E-12
     - OT LS       0.70E-14    3.8                    -3436.6530953559
   161 OT CG       0.70E-14    7.1     0.00338264     -3436.6530953559  1.82E-12
     - OT LS       0.14E-13    3.8                    -3436.6530953559
   162 OT CG       0.14E-13    7.1     0.00338264     -3436.6530953559  6.37E-12
     - OT LS       0.24E-14    3.8                    -3436.6530953559
   163 OT CG       0.24E-14    7.1     0.00338264     -3436.6530953559  4.55E-13
     - OT LS       0.49E-14    3.8                    -3436.6530953559
   164 OT CG       0.49E-14    7.2     0.00338264     -3436.6530953559  1.82E-12
     - OT LS       0.98E-14    3.8                    -3436.6530953559
   165 OT CG       0.98E-14    7.2     0.00338264     -3436.6530953559  3.64E-12
     - OT LS       0.20E-13    3.8                    -3436.6530953559
   166 OT CG       0.20E-13    7.2     0.00338264     -3436.6530953559  7.28E-12
     - OT LS       0.31E-14    3.8                    -3436.6530953559
   167 OT CG       0.31E-14    7.1     0.00338264     -3436.6530953559  1.82E-12
     - OT LS       0.63E-14    3.8                    -3436.6530953559
   168 OT CG       0.63E-14    7.2     0.00338264     -3436.6530953559  2.27E-12
     - OT LS       0.13E-13    3.8                    -3436.6530953559
   169 OT CG       0.13E-13    7.2     0.00338264     -3436.6530953559  4.55E-12
     - OT LS       0.25E-13    3.8                    -3436.6530953559
   170 OT CG       0.25E-13    7.2     0.00338264     -3436.6530953559  9.09E-12
     - OT LS       0.41E-14    3.8                    -3436.6530953559
   171 OT CG       0.41E-14    7.2     0.00338264     -3436.6530953559  1.82E-12
     - OT LS       0.82E-14    3.8                    -3436.6530953559
   172 OT CG       0.82E-14    7.2     0.00338264     -3436.6530953559  3.18E-12
     - OT LS       0.16E-13    3.8                    -3436.6530953559
   173 OT CG       0.16E-13    7.2     0.00338264     -3436.6530953559  5.91E-12
     - OT LS       0.28E-14    3.8                    -3436.6530953559
   174 OT CG       0.28E-14    7.2     0.00338264     -3436.6530953559  2.27E-12
     - OT LS       0.57E-14    3.7                    -3436.6530953559
   175 OT CG       0.57E-14    7.2     0.00338264     -3436.6530953559  1.82E-12
     - OT LS       0.11E-13    3.8                    -3436.6530953559
   176 OT CG       0.11E-13    7.2     0.00338264     -3436.6530953559  4.09E-12
     - OT LS       0.23E-13    3.8                    -3436.6530953559
   177 OT CG       0.23E-13    7.2     0.00338264     -3436.6530953559  8.64E-12
     - OT LS       0.39E-14    3.8                    -3436.6530953559
   178 OT CG       0.39E-14    7.2     0.00338264     -3436.6530953559  2.27E-12
     - OT LS       0.78E-14    3.8                    -3436.6530953559
   179 OT CG       0.78E-14    7.1     0.00338264     -3436.6530953559  2.73E-12
     - OT LS       0.16E-13    3.8                    -3436.6530953559
   180 OT CG       0.16E-13    7.1     0.00338264     -3436.6530953559  5.46E-12
     - OT LS       0.31E-13    3.8                    -3436.6530953559
   181 OT CG       0.31E-13    7.2     0.00338264     -3436.6530953559  1.18E-11
     - OT LS       0.51E-14    3.8                    -3436.6530953558
   182 OT CG       0.51E-14    7.1     0.00338264     -3436.6530953559  2.27E-12
     - OT LS       0.10E-13    3.8                    -3436.6530953559
   183 OT CG       0.10E-13    7.2     0.00338264     -3436.6530953559  4.09E-12
     - OT LS       0.21E-13    3.8                    -3436.6530953558
   184 OT CG       0.21E-13    7.2     0.00338264     -3436.6530953558  7.73E-12
     - OT LS       0.32E-14    3.8                    -3436.6530953558
   185 OT CG       0.32E-14    7.1     0.00338264     -3436.6530953558  1.36E-12
     - OT LS       0.64E-14    3.8                    -3436.6530953558
   186 OT CG       0.64E-14    7.2     0.00338264     -3436.6530953558  2.27E-12
     - OT LS       0.13E-13    3.8                    -3436.6530953558
   187 OT CG       0.13E-13    7.2     0.00338264     -3436.6530953558  5.46E-12
     - OT LS       0.24E-14    3.8                    -3436.6530953558
   188 OT CG       0.24E-14    7.2     0.00338264     -3436.6530953558  0.00E+00
     - OT LS       0.47E-14    3.8                    -3436.6530953558
   189 OT CG       0.47E-14    7.1     0.00338264     -3436.6530953558  1.82E-12
     - OT LS       0.94E-14    3.8                    -3436.6530953558
   190 OT CG       0.94E-14    7.2     0.00338264     -3436.6530953558  4.09E-12
     - OT LS       0.19E-13    3.8                    -3436.6530953558
   191 OT CG       0.19E-13    7.2     0.00338264     -3436.6530953558  6.37E-12
     - OT LS       0.29E-14    3.8                    -3436.6530953558
   192 OT CG       0.29E-14    7.2     0.00338264     -3436.6530953558  2.27E-12
     - OT LS       0.58E-14    3.8                    -3436.6530953558
   193 OT CG       0.58E-14    7.2     0.00338264     -3436.6530953558  4.55E-13
     - OT LS       0.12E-13    3.8                    -3436.6530953558
   194 OT CG       0.12E-13    7.2     0.00338264     -3436.6530953558  5.91E-12
     - OT LS       0.23E-13    3.8                    -3436.6530953558
   195 OT CG       0.23E-13    7.2     0.00338264     -3436.6530953558  8.64E-12
     - OT LS       0.39E-14    3.8                    -3436.6530953558
   196 OT CG       0.39E-14    7.2     0.00338264     -3436.6530953558  1.82E-12
     - OT LS       0.77E-14    3.8                    -3436.6530953558
   197 OT CG       0.77E-14    7.1     0.00338264     -3436.6530953558  2.73E-12
     - OT LS       0.15E-13    3.8                    -3436.6530953558
   198 OT CG       0.15E-13    7.2     0.00338264     -3436.6530953558  6.37E-12
     - OT LS       0.25E-14    3.8                    -3436.6530953558
   199 OT CG       0.25E-14    7.1     0.00338264     -3436.6530953558  4.55E-13
     - OT LS       0.51E-14    3.8                    -3436.6530953558
   200 OT CG       0.51E-14    7.1     0.00338264     -3436.6530953558  2.27E-12
     - OT LS       0.10E-13    3.8                    -3436.6530953558
   201 OT CG       0.10E-13    7.2     0.00338264     -3436.6530953558  4.09E-12
     - OT LS       0.20E-13    3.8                    -3436.6530953558
   202 OT CG       0.20E-13    7.2     0.00338264     -3436.6530953558  7.73E-12
     - OT LS       0.35E-14    3.8                    -3436.6530953558
   203 OT CG       0.35E-14    7.2     0.00338264     -3436.6530953558  4.55E-13
     - OT LS       0.69E-14    3.8                    -3436.6530953558
   204 OT CG       0.69E-14    7.2     0.00338264     -3436.6530953558  2.27E-12
     - OT LS       0.14E-13    3.8                    -3436.6530953558
   205 OT CG       0.14E-13    7.2     0.00338264     -3436.6530953558  7.28E-12
     - OT LS       0.27E-14    3.8                    -3436.6530953558
   206 OT CG       0.27E-14    7.2     0.00338264     -3436.6530953558 -9.09E-13
     - OT LS       0.55E-14    3.8                    -3436.6530953558
   207 OT CG       0.55E-14    7.2     0.00338264     -3436.6530953558  2.27E-12
     - OT LS       0.11E-13    3.8                    -3436.6530953558
   208 OT CG       0.11E-13    7.1     0.00338264     -3436.6530953558  5.00E-12
     - OT LS       0.22E-13    3.8                    -3436.6530953558
   209 OT CG       0.22E-13    7.2     0.00338264     -3436.6530953558  8.64E-12
     - OT LS       0.39E-14    3.8                    -3436.6530953557
   210 OT CG       0.39E-14    7.2     0.00338264     -3436.6530953558  0.00E+00
     - OT LS       0.79E-14    3.8                    -3436.6530953558
   211 OT CG       0.79E-14    7.2     0.00338264     -3436.6530953558  3.64E-12
     - OT LS       0.16E-13    3.8                    -3436.6530953557
   212 OT CG       0.16E-13    7.2     0.00338264     -3436.6530953557  6.37E-12
     - OT LS       0.26E-14    3.8                    -3436.6530953557
   213 OT CG       0.26E-14    7.1     0.00338264     -3436.6530953557  4.55E-13
     - OT LS       0.52E-14    3.8                    -3436.6530953557
   214 OT CG       0.52E-14    7.2     0.00338264     -3436.6530953557  2.27E-12
     - OT LS       0.10E-13    3.7                    -3436.6530953557
   215 OT CG       0.10E-13    7.2     0.00338264     -3436.6530953557  3.64E-12
     - OT LS       0.21E-13    3.8                    -3436.6530953557
   216 OT CG       0.21E-13    7.2     0.00338264     -3436.6530953557  8.64E-12
     - OT LS       0.33E-14    3.8                    -3436.6530953557
   217 OT CG       0.33E-14    7.2     0.00338264     -3436.6530953557  9.09E-13
     - OT LS       0.67E-14    3.8                    -3436.6530953557
   218 OT CG       0.67E-14    7.1     0.00338264     -3436.6530953557  3.18E-12
     - OT LS       0.13E-13    3.8                    -3436.6530953557
   219 OT CG       0.13E-13    7.2     0.00338264     -3436.6530953557  5.00E-12
     - OT LS       0.27E-13    3.8                    -3436.6530953557
   220 OT CG       0.27E-13    7.2     0.00338264     -3436.6530953557  1.00E-11
     - OT LS       0.48E-14    3.8                    -3436.6530953557
   221 OT CG       0.48E-14    7.2     0.00338264     -3436.6530953557  1.36E-12
     - OT LS       0.95E-14    3.8                    -3436.6530953557
   222 OT CG       0.95E-14    7.1     0.00338264     -3436.6530953557  4.09E-12
     - OT LS       0.19E-13    3.8                    -3436.6530953557
   223 OT CG       0.19E-13    7.2     0.00338264     -3436.6530953557  7.28E-12
     - OT LS       0.30E-14    3.8                    -3436.6530953557
   224 OT CG       0.30E-14    7.2     0.00338264     -3436.6530953557  1.36E-12
     - OT LS       0.60E-14    3.8                    -3436.6530953557
   225 OT CG       0.60E-14    7.2     0.00338264     -3436.6530953557  2.27E-12
     - OT LS       0.12E-13    3.8                    -3436.6530953557
   226 OT CG       0.12E-13    7.2     0.00338264     -3436.6530953557  4.55E-12
     - OT LS       0.24E-13    3.8                    -3436.6530953557
   227 OT CG       0.24E-13    7.2     0.00338264     -3436.6530953557  1.00E-11
     - OT LS       0.42E-14    3.8                    -3436.6530953557
   228 OT CG       0.42E-14    7.2     0.00338264     -3436.6530953557  4.55E-13
     - OT LS       0.84E-14    3.8                    -3436.6530953557
   229 OT CG       0.84E-14    7.2     0.00338264     -3436.6530953557  2.73E-12
     - OT LS       0.17E-13    3.8                    -3436.6530953557
   230 OT CG       0.17E-13    7.2     0.00338264     -3436.6530953557  6.82E-12
     - OT LS       0.28E-14    3.8                    -3436.6530953557
   231 OT CG       0.28E-14    7.1     0.00338264     -3436.6530953557  1.36E-12
     - OT LS       0.57E-14    3.8                    -3436.6530953557
   232 OT CG       0.57E-14    7.2     0.00338264     -3436.6530953557  1.82E-12
     - OT LS       0.11E-13    3.8                    -3436.6530953557
   233 OT CG       0.11E-13    7.2     0.00338264     -3436.6530953557  5.00E-12
     - OT LS       0.23E-13    3.8                    -3436.6530953557
   234 OT CG       0.23E-13    7.2     0.00338264     -3436.6530953557  8.19E-12
     - OT LS       0.36E-14    3.8                    -3436.6530953556
   235 OT CG       0.36E-14    7.2     0.00338264     -3436.6530953557  2.73E-12
     - OT LS       0.73E-14    3.8                    -3436.6530953557
   236 OT CG       0.73E-14    7.2     0.00338264     -3436.6530953556  2.27E-12
     - OT LS       0.15E-13    3.8                    -3436.6530953556
   237 OT CG       0.15E-13    7.2     0.00338264     -3436.6530953556  5.00E-12
     - OT LS       0.25E-14    3.8                    -3436.6530953556
   238 OT CG       0.25E-14    7.2     0.00338264     -3436.6530953556  1.36E-12
     - OT LS       0.50E-14    3.8                    -3436.6530953556
   239 OT CG       0.50E-14    7.2     0.00338264     -3436.6530953556  1.36E-12
     - OT LS       0.10E-13    3.8                    -3436.6530953556
   240 OT CG       0.10E-13    7.2     0.00338264     -3436.6530953556  4.09E-12
     - OT LS       0.20E-13    3.8                    -3436.6530953556
   241 OT CG       0.20E-13    7.2     0.00338264     -3436.6530953556  8.19E-12
     - OT LS       0.34E-14    3.8                    -3436.6530953556
   242 OT CG       0.34E-14    7.1     0.00338264     -3436.6530953556  9.09E-13
     - OT LS       0.69E-14    3.8                    -3436.6530953556
   243 OT CG       0.69E-14    7.2     0.00338264     -3436.6530953556  2.73E-12
     - OT LS       0.14E-13    3.8                    -3436.6530953556
   244 OT CG       0.14E-13    7.2     0.00338264     -3436.6530953556  5.46E-12
     - OT LS       0.25E-14    3.7                    -3436.6530953556
   245 OT CG       0.25E-14    7.2     0.00338264     -3436.6530953556  2.27E-12
     - OT LS       0.10E-13    3.8                    -3436.6530953556
   246 OT CG       0.10E-13    7.2     0.00338264     -3436.6530953556  1.82E-12
     - OT LS       0.20E-13    3.8                    -3436.6530953556
   247 OT CG       0.20E-13    7.2     0.00338264     -3436.6530953556  8.19E-12
     - OT LS       0.35E-14    3.8                    -3436.6530953556
   248 OT CG       0.35E-14    7.2     0.00338264     -3436.6530953556  9.09E-13
     - OT LS       0.69E-14    3.8                    -3436.6530953556
   249 OT CG       0.69E-14    7.2     0.00338264     -3436.6530953556  3.64E-12
     - OT LS       0.14E-13    3.8                    -3436.6530953556
   250 OT CG       0.14E-13    7.2     0.00338264     -3436.6530953556  4.55E-12

  Leaving inner SCF loop after reaching   250 steps.


  Electronic density on regular grids:      -2025.6937801241        8.3062198759
  Core density on regular grids:             2033.9999999986       -0.0000000014
  Total charge density on r-space grids:        8.3062198745
  Total charge density g-space grids:           8.3062198745

  Overlap energy of the core charge distribution:               0.00011754517808
  Self energy of the core charge distribution:              -8859.91288883521156
  Core Hamiltonian energy:                                   2551.14864302241585
  Hartree energy:                                            3810.29389849295740
  Exchange-correlation energy:                               -941.33271560871083
  Dispersion energy:                                            2.58097564493942
  Electric field interaction energy:                            0.56887438283298

  Total energy:                                             -3436.65309535559845

  outer SCF iter =    8 RMS gradient =   0.34E-02 energy =      -3436.6530953556

  ----------------------------------- OT ---------------------------------------
  Minimizer      : CG                  : conjugate gradient
  Preconditioner : FULL_ALL            : diagonalization, state selective
  Precond_solver : DEFAULT
  Line search    : 2PNT                : 2 energies, one gradient
  stepsize       :    0.15000000                  energy_gap     :    0.00100000
  eps_taylor     :   0.10000E-15                  max_taylor     :             4
  ----------------------------------- OT ---------------------------------------

  Step     Update method      Time    Convergence         Total energy    Change
  ------------------------------------------------------------------------------
     1 OT CG       0.15E+00   22.4     0.00305801     -3436.6530953556  5.91E-12
     - OT LS       0.23E-01    3.9                    -3382.3443869625
     2 OT CG       0.23E-01    7.2     0.00303124     -3429.1065196117  7.55E+00
     - OT LS       0.30E-02    3.9                    -3418.5969792264
     3 OT CG       0.30E-02    7.2     0.00304134     -3427.6029919961  1.50E+00
     - OT LS       0.38E-03    3.9                    -3426.1208797260
     4 OT CG       0.38E-03    7.2     0.00305303     -3427.4106942351  1.92E-01
     - OT LS       0.47E-04    3.9                    -3427.2328445675
     5 OT CG       0.47E-04    7.2     0.00302560     -3427.3950068596  1.57E-02
     - OT LS       0.58E-05    3.9                    -3427.3726828812
     6 OT CG       0.58E-05    7.2     0.00302566     -3427.3922571511  2.75E-03
     - OT LS       0.71E-06    3.9                    -3427.3895129428
     7 OT CG       0.71E-06    7.2     0.00302567     -3427.3919190907  3.38E-04
     - OT LS       0.88E-07    3.9                    -3427.3915810333
     8 OT CG       0.88E-07    7.2     0.00302567     -3427.3918774446  4.16E-05
     - OT LS       0.11E-07    3.9                    -3427.3918357984
     9 OT CG       0.11E-07    7.2     0.00302567     -3427.3918723141  5.13E-06
     - OT LS       0.13E-08    3.8                    -3427.3918671836
    10 OT CG       0.13E-08    7.2     0.00302567     -3427.3918716820  6.32E-07
     - OT LS       0.16E-09    3.9                    -3427.3918710500
    11 OT CG       0.16E-09    7.2     0.00302567     -3427.3918716042  7.79E-08
     - OT LS       0.20E-10    3.9                    -3427.3918715263
    12 OT CG       0.20E-10    7.2     0.00302567     -3427.3918715946  9.59E-09
     - OT LS       0.25E-11    3.9                    -3427.3918715850
    13 OT CG       0.25E-11    7.3     0.00302567     -3427.3918715934  1.18E-09
     - OT LS       0.31E-12    3.9                    -3427.3918715922
    14 OT CG       0.31E-12    7.2     0.00302567     -3427.3918715932  1.45E-10
     - OT LS       0.38E-13    3.9                    -3427.3918715931
    15 OT CG       0.38E-13    7.2     0.00302567     -3427.3918715932  1.86E-11
     - OT LS       0.50E-14    3.9                    -3427.3918715932
    16 OT CG       0.50E-14    7.2     0.00302567     -3427.3918715932  9.09E-13
     - OT LS       0.99E-14    3.9                    -3427.3918715932
    17 OT CG       0.99E-14    7.2     0.00302567     -3427.3918715932  5.46E-12
     - OT LS       0.20E-13    3.9                    -3427.3918715932
    18 OT CG       0.20E-13    7.2     0.00302567     -3427.3918715932  9.55E-12
     - OT LS       0.40E-13    3.9                    -3427.3918715932
    19 OT CG       0.40E-13    7.2     0.00302567     -3427.3918715932  1.82E-11
     - OT LS       0.47E-14    3.9                    -3427.3918715932
    20 OT CG       0.47E-14    7.2     0.00302567     -3427.3918715932  2.73E-12
     - OT LS       0.94E-14    3.9                    -3427.3918715932
    21 OT CG       0.94E-14    7.2     0.00302567     -3427.3918715932  3.18E-12
     - OT LS       0.19E-13    3.8                    -3427.3918715932
    22 OT CG       0.19E-13    7.2     0.00302567     -3427.3918715932  1.05E-11
     - OT LS       0.38E-13    3.9                    -3427.3918715932
    23 OT CG       0.38E-13    7.3     0.00302567     -3427.3918715931  1.82E-11
     - OT LS       0.48E-14    3.9                    -3427.3918715931
    24 OT CG       0.48E-14    7.2     0.00302567     -3427.3918715931  1.36E-12
     - OT LS       0.95E-14    3.8                    -3427.3918715931
    25 OT CG       0.95E-14    7.2     0.00302567     -3427.3918715931  5.00E-12
     - OT LS       0.19E-13    3.9                    -3427.3918715931
    26 OT CG       0.19E-13    7.2     0.00302567     -3427.3918715931  8.64E-12
     - OT LS       0.38E-13    3.9                    -3427.3918715931
    27 OT CG       0.38E-13    7.2     0.00302567     -3427.3918715931  1.82E-11
     - OT LS       0.45E-14    3.8                    -3427.3918715931
    28 OT CG       0.45E-14    7.2     0.00302567     -3427.3918715931  2.27E-12
     - OT LS       0.90E-14    3.9                    -3427.3918715931
    29 OT CG       0.90E-14    7.2     0.00302567     -3427.3918715931  3.64E-12
     - OT LS       0.18E-13    3.9                    -3427.3918715931
    30 OT CG       0.18E-13    7.2     0.00302567     -3427.3918715931  9.55E-12
     - OT LS       0.36E-13    3.9                    -3427.3918715931
    31 OT CG       0.36E-13    7.3     0.00302567     -3427.3918715931  1.77E-11
     - OT LS       0.48E-14    3.9                    -3427.3918715931
    32 OT CG       0.48E-14    7.2     0.00302567     -3427.3918715931  0.00E+00
     - OT LS       0.96E-14    3.9                    -3427.3918715931
    33 OT CG       0.96E-14    7.3     0.00302567     -3427.3918715931  5.00E-12
     - OT LS       0.19E-13    3.9                    -3427.3918715931
    34 OT CG       0.19E-13    7.2     0.00302567     -3427.3918715931  9.55E-12
     - OT LS       0.38E-13    3.9                    -3427.3918715931
    35 OT CG       0.38E-13    7.2     0.00302567     -3427.3918715930  1.86E-11
     - OT LS       0.47E-14    3.9                    -3427.3918715930
    36 OT CG       0.47E-14    7.2     0.00302567     -3427.3918715930  2.27E-12
     - OT LS       0.95E-14    3.9                    -3427.3918715930
    37 OT CG       0.95E-14    7.3     0.00302567     -3427.3918715930  4.55E-12
     - OT LS       0.19E-13    3.9                    -3427.3918715930
    38 OT CG       0.19E-13    7.2     0.00302567     -3427.3918715930  9.09E-12
     - OT LS       0.38E-13    3.9                    -3427.3918715930
    39 OT CG       0.38E-13    7.2     0.00302567     -3427.3918715930  1.68E-11
     - OT LS       0.46E-14    3.9                    -3427.3918715930
    40 OT CG       0.46E-14    7.2     0.00302567     -3427.3918715930  3.18E-12
     - OT LS       0.92E-14    3.9                    -3427.3918715930
    41 OT CG       0.92E-14    7.2     0.00302567     -3427.3918715930  4.09E-12
     - OT LS       0.18E-13    3.9                    -3427.3918715930
    42 OT CG       0.18E-13    7.2     0.00302567     -3427.3918715930  9.55E-12
     - OT LS       0.37E-13    3.9                    -3427.3918715930
    43 OT CG       0.37E-13    7.2     0.00302567     -3427.3918715930  1.64E-11
     - OT LS       0.46E-14    3.9                    -3427.3918715930
    44 OT CG       0.46E-14    7.2     0.00302567     -3427.3918715930  1.82E-12
     - OT LS       0.92E-14    3.9                    -3427.3918715930
    45 OT CG       0.92E-14    7.2     0.00302567     -3427.3918715930  5.46E-12
     - OT LS       0.18E-13    3.8                    -3427.3918715930
    46 OT CG       0.18E-13    7.2     0.00302567     -3427.3918715930  8.64E-12
     - OT LS       0.37E-13    3.9                    -3427.3918715930
    47 OT CG       0.37E-13    7.3     0.00302567     -3427.3918715930  1.68E-11
     - OT LS       0.44E-14    3.9                    -3427.3918715929
    48 OT CG       0.44E-14    7.2     0.00302567     -3427.3918715929  1.82E-12
     - OT LS       0.89E-14    3.8                    -3427.3918715929
    49 OT CG       0.89E-14    7.2     0.00302567     -3427.3918715929  5.00E-12
     - OT LS       0.18E-13    3.9                    -3427.3918715929
    50 OT CG       0.18E-13    7.2     0.00302567     -3427.3918715929  8.19E-12
     - OT LS       0.36E-13    4.3                    -3427.3918715929
    51 OT CG       0.36E-13    7.3     0.00302567     -3427.3918715929  1.73E-11
     - OT LS       0.46E-14    3.9                    -3427.3918715929
    52 OT CG       0.46E-14    7.2     0.00302567     -3427.3918715929  9.09E-13
     - OT LS       0.92E-14    3.8                    -3427.3918715929
    53 OT CG       0.92E-14    7.2     0.00302567     -3427.3918715929  5.00E-12
     - OT LS       0.18E-13    3.9                    -3427.3918715929
    54 OT CG       0.18E-13    7.2     0.00302567     -3427.3918715929  9.09E-12
     - OT LS       0.37E-13    3.8                    -3427.3918715929
    55 OT CG       0.37E-13    7.2     0.00302567     -3427.3918715929  1.73E-11
     - OT LS       0.47E-14    3.8                    -3427.3918715929
    56 OT CG       0.47E-14    7.2     0.00302567     -3427.3918715929  1.82E-12
     - OT LS       0.93E-14    3.8                    -3427.3918715929
    57 OT CG       0.93E-14    7.2     0.00302567     -3427.3918715929  4.55E-12
     - OT LS       0.19E-13    3.8                    -3427.3918715929
    58 OT CG       0.19E-13    7.2     0.00302567     -3427.3918715929  9.55E-12
     - OT LS       0.37E-13    3.9                    -3427.3918715929
    59 OT CG       0.37E-13    7.2     0.00302567     -3427.3918715929  1.73E-11
     - OT LS       0.47E-14    3.8                    -3427.3918715928
    60 OT CG       0.47E-14    7.2     0.00302567     -3427.3918715929  1.82E-12
     - OT LS       0.95E-14    3.9                    -3427.3918715928
    61 OT CG       0.95E-14    7.2     0.00302567     -3427.3918715928  5.00E-12
     - OT LS       0.19E-13    3.9                    -3427.3918715928
    62 OT CG       0.19E-13    7.2     0.00302567     -3427.3918715928  9.09E-12
     - OT LS       0.38E-13    3.9                    -3427.3918715928
    63 OT CG       0.38E-13    7.2     0.00302567     -3427.3918715928  1.68E-11
     - OT LS       0.44E-14    3.9                    -3427.3918715928
    64 OT CG       0.44E-14    7.2     0.00302567     -3427.3918715928  3.18E-12
     - OT LS       0.89E-14    3.8                    -3427.3918715928
    65 OT CG       0.89E-14    7.2     0.00302567     -3427.3918715928  4.09E-12
     - OT LS       0.18E-13    3.9                    -3427.3918715928
    66 OT CG       0.18E-13    7.2     0.00302567     -3427.3918715928  8.19E-12
     - OT LS       0.36E-13    3.8                    -3427.3918715928
    67 OT CG       0.36E-13    7.2     0.00302567     -3427.3918715928  1.68E-11
     - OT LS       0.43E-14    3.8                    -3427.3918715928
    68 OT CG       0.43E-14    7.2     0.00302567     -3427.3918715928  2.73E-12
     - OT LS       0.86E-14    3.9                    -3427.3918715928
    69 OT CG       0.86E-14    7.2     0.00302567     -3427.3918715928  3.18E-12
     - OT LS       0.17E-13    3.9                    -3427.3918715928
    70 OT CG       0.17E-13    7.2     0.00302567     -3427.3918715928  8.19E-12
     - OT LS       0.35E-13    3.9                    -3427.3918715928
    71 OT CG       0.35E-13    7.3     0.00302567     -3427.3918715928  1.73E-11
     - OT LS       0.44E-14    3.9                    -3427.3918715927
    72 OT CG       0.44E-14    7.2     0.00302567     -3427.3918715928  9.09E-13
     - OT LS       0.88E-14    3.9                    -3427.3918715928
    73 OT CG       0.88E-14    7.2     0.00302567     -3427.3918715928  4.55E-12
     - OT LS       0.18E-13    3.8                    -3427.3918715927
    74 OT CG       0.18E-13    7.2     0.00302567     -3427.3918715927  8.19E-12
     - OT LS       0.35E-13    3.9                    -3427.3918715927
    75 OT CG       0.35E-13    7.2     0.00302567     -3427.3918715927  1.77E-11
     - OT LS       0.45E-14    3.8                    -3427.3918715927
    76 OT CG       0.45E-14    7.2     0.00302567     -3427.3918715927  1.36E-12
     - OT LS       0.90E-14    3.9                    -3427.3918715927
    77 OT CG       0.90E-14    7.2     0.00302567     -3427.3918715927  4.55E-12
     - OT LS       0.18E-13    3.9                    -3427.3918715927
    78 OT CG       0.18E-13    7.2     0.00302567     -3427.3918715927  8.64E-12
     - OT LS       0.36E-13    3.9                    -3427.3918715927
    79 OT CG       0.36E-13    7.2     0.00302567     -3427.3918715927  1.64E-11
     - OT LS       0.45E-14    3.9                    -3427.3918715927
    80 OT CG       0.45E-14    7.2     0.00302567     -3427.3918715927  2.73E-12
     - OT LS       0.90E-14    3.9                    -3427.3918715927
    81 OT CG       0.90E-14    7.2     0.00302567     -3427.3918715927  4.09E-12
     - OT LS       0.18E-13    3.8                    -3427.3918715927
    82 OT CG       0.18E-13    7.2     0.00302567     -3427.3918715927  8.19E-12
     - OT LS       0.36E-13    3.9                    -3427.3918715927
    83 OT CG       0.36E-13    7.2     0.00302567     -3427.3918715927  1.64E-11
     - OT LS       0.43E-14    3.9                    -3427.3918715926
    84 OT CG       0.43E-14    7.2     0.00302567     -3427.3918715927  3.18E-12
     - OT LS       0.85E-14    3.8                    -3427.3918715927
    85 OT CG       0.85E-14    7.1     0.00302567     -3427.3918715927  4.55E-12
     - OT LS       0.17E-13    3.8                    -3427.3918715927
    86 OT CG       0.17E-13    7.2     0.00302567     -3427.3918715926  7.28E-12
     - OT LS       0.34E-13    3.8                    -3427.3918715926
    87 OT CG       0.34E-13    7.2     0.00302567     -3427.3918715926  1.50E-11
     - OT LS       0.39E-14    3.8                    -3427.3918715926
    88 OT CG       0.39E-14    7.2     0.00302567     -3427.3918715926  3.18E-12
     - OT LS       0.79E-14    3.9                    -3427.3918715926
    89 OT CG       0.79E-14    7.2     0.00302567     -3427.3918715926  3.64E-12
     - OT LS       0.16E-13    3.8                    -3427.3918715926
    90 OT CG       0.16E-13    7.2     0.00302567     -3427.3918715926  6.37E-12
     - OT LS       0.32E-13    3.8                    -3427.3918715926
    91 OT CG       0.32E-13    7.2     0.00302567     -3427.3918715926  1.55E-11
     - OT LS       0.39E-14    3.9                    -3427.3918715926
    92 OT CG       0.39E-14    7.3     0.00302567     -3427.3918715926  2.27E-12
     - OT LS       0.77E-14    3.9                    -3427.3918715926
    93 OT CG       0.77E-14    7.2     0.00302567     -3427.3918715926  3.18E-12
     - OT LS       0.15E-13    3.8                    -3427.3918715926
    94 OT CG       0.15E-13    7.2     0.00302567     -3427.3918715926  7.73E-12
     - OT LS       0.31E-13    3.9                    -3427.3918715926
    95 OT CG       0.31E-13    7.2     0.00302567     -3427.3918715926  1.46E-11
     - OT LS       0.38E-14    3.9                    -3427.3918715926
    96 OT CG       0.38E-14    7.2     0.00302567     -3427.3918715926  2.27E-12
     - OT LS       0.76E-14    3.9                    -3427.3918715926
    97 OT CG       0.76E-14    7.2     0.00302567     -3427.3918715926  3.18E-12
     - OT LS       0.15E-13    3.9                    -3427.3918715926
    98 OT CG       0.15E-13    7.2     0.00302567     -3427.3918715926  7.28E-12
     - OT LS       0.30E-13    3.9                    -3427.3918715926
    99 OT CG       0.30E-13    7.2     0.00302567     -3427.3918715925  1.50E-11
     - OT LS       0.40E-14    3.8                    -3427.3918715925
   100 OT CG       0.40E-14    7.2     0.00302567     -3427.3918715925  9.09E-13
     - OT LS       0.80E-14    3.8                    -3427.3918715925
   101 OT CG       0.80E-14    7.2     0.00302567     -3427.3918715925  4.09E-12
     - OT LS       0.16E-13    3.9                    -3427.3918715925
   102 OT CG       0.16E-13    7.2     0.00302567     -3427.3918715925  7.28E-12
     - OT LS       0.32E-13    3.8                    -3427.3918715925
   103 OT CG       0.32E-13    7.2     0.00302567     -3427.3918715925  1.59E-11
     - OT LS       0.40E-14    3.8                    -3427.3918715925
   104 OT CG       0.40E-14    7.2     0.00302567     -3427.3918715925  9.09E-13
     - OT LS       0.80E-14    3.9                    -3427.3918715925
   105 OT CG       0.80E-14    7.1     0.00302567     -3427.3918715925  4.55E-12
     - OT LS       0.16E-13    3.9                    -3427.3918715925
   106 OT CG       0.16E-13    7.2     0.00302567     -3427.3918715925  6.82E-12
     - OT LS       0.32E-13    3.9                    -3427.3918715925
   107 OT CG       0.32E-13    7.2     0.00302567     -3427.3918715925  1.64E-11
     - OT LS       0.42E-14    3.9                    -3427.3918715925
   108 OT CG       0.42E-14    7.2     0.00302567     -3427.3918715925  9.09E-13
     - OT LS       0.84E-14    3.9                    -3427.3918715925
   109 OT CG       0.84E-14    7.2     0.00302567     -3427.3918715925  4.55E-12
     - OT LS       0.17E-13    3.8                    -3427.3918715925
   110 OT CG       0.17E-13    7.2     0.00302567     -3427.3918715925  7.73E-12
     - OT LS       0.34E-13    3.9                    -3427.3918715925
   111 OT CG       0.34E-13    7.2     0.00302567     -3427.3918715925  1.59E-11
     - OT LS       0.42E-14    3.8                    -3427.3918715924
   112 OT CG       0.42E-14    7.2     0.00302567     -3427.3918715925  1.82E-12
     - OT LS       0.84E-14    3.8                    -3427.3918715925
   113 OT CG       0.84E-14    7.2     0.00302567     -3427.3918715925  4.09E-12
     - OT LS       0.17E-13    3.8                    -3427.3918715925
   114 OT CG       0.17E-13    7.3     0.00302567     -3427.3918715924  8.64E-12
     - OT LS       0.33E-13    3.8                    -3427.3918715924
   115 OT CG       0.33E-13    7.2     0.00302567     -3427.3918715924  1.41E-11
     - OT LS       0.41E-14    3.8                    -3427.3918715924
   116 OT CG       0.41E-14    7.2     0.00302567     -3427.3918715924  3.18E-12
     - OT LS       0.81E-14    3.9                    -3427.3918715924
   117 OT CG       0.81E-14    7.2     0.00302567     -3427.3918715924  3.18E-12
     - OT LS       0.16E-13    3.8                    -3427.3918715924
   118 OT CG       0.16E-13    7.2     0.00302567     -3427.3918715924  9.09E-12
     - OT LS       0.32E-13    3.9                    -3427.3918715924
   119 OT CG       0.32E-13    7.3     0.00302567     -3427.3918715924  1.36E-11
     - OT LS       0.40E-14    3.8                    -3427.3918715924
   120 OT CG       0.40E-14    7.2     0.00302567     -3427.3918715924  2.73E-12
     - OT LS       0.80E-14    3.9                    -3427.3918715924
   121 OT CG       0.80E-14    7.2     0.00302567     -3427.3918715924  3.64E-12
     - OT LS       0.16E-13    3.9                    -3427.3918715924
   122 OT CG       0.16E-13    7.2     0.00302567     -3427.3918715924  6.37E-12
     - OT LS       0.32E-13    3.8                    -3427.3918715924
   123 OT CG       0.32E-13    7.2     0.00302567     -3427.3918715924  1.64E-11
     - OT LS       0.40E-14    3.8                    -3427.3918715924
   124 OT CG       0.40E-14    7.2     0.00302567     -3427.3918715924  2.27E-12
     - OT LS       0.80E-14    3.9                    -3427.3918715924
   125 OT CG       0.80E-14    7.2     0.00302567     -3427.3918715924  3.64E-12
     - OT LS       0.16E-13    3.8                    -3427.3918715924
   126 OT CG       0.16E-13    7.2     0.00302567     -3427.3918715924  7.28E-12
     - OT LS       0.32E-13    3.8                    -3427.3918715924
   127 OT CG       0.32E-13    7.2     0.00302567     -3427.3918715923  1.50E-11
     - OT LS       0.39E-14    3.9                    -3427.3918715923
   128 OT CG       0.39E-14    7.2     0.00302567     -3427.3918715923  1.36E-12
     - OT LS       0.78E-14    3.8                    -3427.3918715923
   129 OT CG       0.78E-14    7.2     0.00302567     -3427.3918715923  4.55E-12
     - OT LS       0.16E-13    3.8                    -3427.3918715923
   130 OT CG       0.16E-13    7.2     0.00302567     -3427.3918715923  7.73E-12
     - OT LS       0.31E-13    3.8                    -3427.3918715923
   131 OT CG       0.31E-13    7.2     0.00302567     -3427.3918715923  1.46E-11
     - OT LS       0.38E-14    3.9                    -3427.3918715923
   132 OT CG       0.38E-14    7.2     0.00302567     -3427.3918715923  1.36E-12
     - OT LS       0.76E-14    3.9                    -3427.3918715923
   133 OT CG       0.76E-14    7.2     0.00302567     -3427.3918715923  3.18E-12
     - OT LS       0.15E-13    3.9                    -3427.3918715923
   134 OT CG       0.15E-13    7.2     0.00302567     -3427.3918715923  7.28E-12
     - OT LS       0.30E-13    3.8                    -3427.3918715923
   135 OT CG       0.30E-13    7.2     0.00302567     -3427.3918715923  1.50E-11
     - OT LS       0.39E-14    3.8                    -3427.3918715923
   136 OT CG       0.39E-14    7.2     0.00302567     -3427.3918715923  1.82E-12
     - OT LS       0.78E-14    3.8                    -3427.3918715923
   137 OT CG       0.78E-14    7.2     0.00302567     -3427.3918715923  3.64E-12
     - OT LS       0.16E-13    3.9                    -3427.3918715923
   138 OT CG       0.16E-13    7.2     0.00302567     -3427.3918715923  7.73E-12
     - OT LS       0.31E-13    3.9                    -3427.3918715923
   139 OT CG       0.31E-13    7.2     0.00302567     -3427.3918715923  1.46E-11
     - OT LS       0.38E-14    3.8                    -3427.3918715923
   140 OT CG       0.38E-14    7.2     0.00302567     -3427.3918715923  2.27E-12
     - OT LS       0.77E-14    3.8                    -3427.3918715923
   141 OT CG       0.77E-14    7.2     0.00302567     -3427.3918715923  2.73E-12
     - OT LS       0.15E-13    3.9                    -3427.3918715923
   142 OT CG       0.15E-13    7.3     0.00302567     -3427.3918715923  6.82E-12
     - OT LS       0.31E-13    3.9                    -3427.3918715922
   143 OT CG       0.31E-13    7.2     0.00302567     -3427.3918715922  1.59E-11
     - OT LS       0.40E-14    3.9                    -3427.3918715922
   144 OT CG       0.40E-14    7.2     0.00302567     -3427.3918715922  1.82E-12
     - OT LS       0.80E-14    3.8                    -3427.3918715922
   145 OT CG       0.80E-14    7.2     0.00302567     -3427.3918715922  3.18E-12
     - OT LS       0.16E-13    3.9                    -3427.3918715922
   146 OT CG       0.16E-13    7.2     0.00302567     -3427.3918715922  6.82E-12
     - OT LS       0.32E-13    3.8                    -3427.3918715922
   147 OT CG       0.32E-13    7.2     0.00302567     -3427.3918715922  1.55E-11
     - OT LS       0.39E-14    3.9                    -3427.3918715922
   148 OT CG       0.39E-14    7.2     0.00302567     -3427.3918715922  2.27E-12
     - OT LS       0.77E-14    3.9                    -3427.3918715922
   149 OT CG       0.77E-14    7.2     0.00302567     -3427.3918715922  4.09E-12
     - OT LS       0.15E-13    3.8                    -3427.3918715922
   150 OT CG       0.15E-13    7.2     0.00302567     -3427.3918715922  6.82E-12
     - OT LS       0.31E-13    3.8                    -3427.3918715922
   151 OT CG       0.31E-13    7.2     0.00302567     -3427.3918715922  1.55E-11
     - OT LS       0.41E-14    3.9                    -3427.3918715922
   152 OT CG       0.41E-14    7.2     0.00302567     -3427.3918715922  9.09E-13
     - OT LS       0.81E-14    3.9                    -3427.3918715922
   153 OT CG       0.81E-14    7.2     0.00302567     -3427.3918715922  4.09E-12
     - OT LS       0.16E-13    3.8                    -3427.3918715922
   154 OT CG       0.16E-13    7.2     0.00302567     -3427.3918715922  7.28E-12
     - OT LS       0.33E-13    3.9                    -3427.3918715922
   155 OT CG       0.33E-13    7.2     0.00302567     -3427.3918715922  1.55E-11
     - OT LS       0.40E-14    3.9                    -3427.3918715921
   156 OT CG       0.40E-14    7.2     0.00302567     -3427.3918715922  1.82E-12
     - OT LS       0.80E-14    3.8                    -3427.3918715921
   157 OT CG       0.80E-14    7.2     0.00302567     -3427.3918715921  4.09E-12
     - OT LS       0.16E-13    3.9                    -3427.3918715921
   158 OT CG       0.16E-13    7.2     0.00302567     -3427.3918715921  7.73E-12
     - OT LS       0.32E-13    3.9                    -3427.3918715921
   159 OT CG       0.32E-13    7.2     0.00302567     -3427.3918715921  1.50E-11
     - OT LS       0.39E-14    3.9                    -3427.3918715921
   160 OT CG       0.39E-14    7.2     0.00302567     -3427.3918715921  2.73E-12
     - OT LS       0.78E-14    3.8                    -3427.3918715921
   161 OT CG       0.78E-14    7.2     0.00302567     -3427.3918715921  3.64E-12
     - OT LS       0.16E-13    3.9                    -3427.3918715921
   162 OT CG       0.16E-13    7.2     0.00302567     -3427.3918715921  6.82E-12
     - OT LS       0.31E-13    3.8                    -3427.3918715921
   163 OT CG       0.31E-13    7.2     0.00302567     -3427.3918715921  1.46E-11
     - OT LS       0.39E-14    3.9                    -3427.3918715921
   164 OT CG       0.39E-14    7.2     0.00302567     -3427.3918715921  1.36E-12
     - OT LS       0.78E-14    3.8                    -3427.3918715921
   165 OT CG       0.78E-14    7.2     0.00302567     -3427.3918715921  4.55E-12
     - OT LS       0.16E-13    3.9                    -3427.3918715921
   166 OT CG       0.16E-13    7.2     0.00302567     -3427.3918715921  6.37E-12
     - OT LS       0.31E-13    3.9                    -3427.3918715921
   167 OT CG       0.31E-13    7.2     0.00302567     -3427.3918715921  1.50E-11
     - OT LS       0.38E-14    3.9                    -3427.3918715921
   168 OT CG       0.38E-14    7.3     0.00302567     -3427.3918715921  2.27E-12
     - OT LS       0.76E-14    3.9                    -3427.3918715921
   169 OT CG       0.76E-14    7.2     0.00302567     -3427.3918715921  3.18E-12
     - OT LS       0.15E-13    3.8                    -3427.3918715921
   170 OT CG       0.15E-13    7.2     0.00302567     -3427.3918715921  7.28E-12
     - OT LS       0.30E-13    3.9                    -3427.3918715920
   171 OT CG       0.30E-13    7.2     0.00302567     -3427.3918715920  1.36E-11
     - OT LS       0.37E-14    3.8                    -3427.3918715920
   172 OT CG       0.37E-14    7.2     0.00302567     -3427.3918715920  3.18E-12
     - OT LS       0.75E-14    3.8                    -3427.3918715920
   173 OT CG       0.75E-14    7.2     0.00302567     -3427.3918715920  3.18E-12
     - OT LS       0.15E-13    3.8                    -3427.3918715920
   174 OT CG       0.15E-13    7.2     0.00302567     -3427.3918715920  6.82E-12
     - OT LS       0.30E-13    3.9                    -3427.3918715920
   175 OT CG       0.30E-13    7.2     0.00302567     -3427.3918715920  1.50E-11
     - OT LS       0.41E-14    3.8                    -3427.3918715920
   176 OT CG       0.41E-14    7.2     0.00302567     -3427.3918715920  9.09E-13
     - OT LS       0.83E-14    3.8                    -3427.3918715920
   177 OT CG       0.83E-14    7.2     0.00302567     -3427.3918715920  4.09E-12
     - OT LS       0.17E-13    3.9                    -3427.3918715920
   178 OT CG       0.17E-13    7.2     0.00302567     -3427.3918715920  7.28E-12
     - OT LS       0.33E-13    3.8                    -3427.3918715920
   179 OT CG       0.33E-13    7.2     0.00302567     -3427.3918715920  1.73E-11
     - OT LS       0.41E-14    3.9                    -3427.3918715920
   180 OT CG       0.41E-14    7.2     0.00302567     -3427.3918715920  9.09E-13
     - OT LS       0.83E-14    3.9                    -3427.3918715920
   181 OT CG       0.83E-14    7.2     0.00302567     -3427.3918715920  3.64E-12
     - OT LS       0.17E-13    3.9                    -3427.3918715920
   182 OT CG       0.17E-13    7.2     0.00302567     -3427.3918715920  8.64E-12
     - OT LS       0.33E-13    3.9                    -3427.3918715920
   183 OT CG       0.33E-13    7.2     0.00302567     -3427.3918715920  1.50E-11
     - OT LS       0.40E-14    3.9                    -3427.3918715919
   184 OT CG       0.40E-14    7.2     0.00302567     -3427.3918715920  1.82E-12
     - OT LS       0.80E-14    3.9                    -3427.3918715920
   185 OT CG       0.80E-14    7.2     0.00302567     -3427.3918715920  4.09E-12
     - OT LS       0.16E-13    3.9                    -3427.3918715919
   186 OT CG       0.16E-13    7.2     0.00302567     -3427.3918715919  7.73E-12
     - OT LS       0.32E-13    3.9                    -3427.3918715919
   187 OT CG       0.32E-13    7.2     0.00302567     -3427.3918715919  1.50E-11
     - OT LS       0.39E-14    3.9                    -3427.3918715919
   188 OT CG       0.39E-14    7.2     0.00302567     -3427.3918715919  1.82E-12
     - OT LS       0.79E-14    3.8                    -3427.3918715919
   189 OT CG       0.79E-14    7.2     0.00302567     -3427.3918715919  3.64E-12
     - OT LS       0.16E-13    3.8                    -3427.3918715919
   190 OT CG       0.16E-13    7.2     0.00302567     -3427.3918715919  7.73E-12
     - OT LS       0.31E-13    3.9                    -3427.3918715919
   191 OT CG       0.31E-13    7.3     0.00302567     -3427.3918715919  1.50E-11
     - OT LS       0.40E-14    3.8                    -3427.3918715919
   192 OT CG       0.40E-14    7.2     0.00302567     -3427.3918715919  1.36E-12
     - OT LS       0.80E-14    3.9                    -3427.3918715919
   193 OT CG       0.80E-14    7.2     0.00302567     -3427.3918715919  4.09E-12
     - OT LS       0.16E-13    3.9                    -3427.3918715919
   194 OT CG       0.16E-13    7.2     0.00302567     -3427.3918715919  6.82E-12
     - OT LS       0.32E-13    3.9                    -3427.3918715919
   195 OT CG       0.32E-13    7.2     0.00302567     -3427.3918715919  1.68E-11
     - OT LS       0.43E-14    3.8                    -3427.3918715919
   196 OT CG       0.43E-14    7.2     0.00302567     -3427.3918715919  9.09E-13
     - OT LS       0.85E-14    3.9                    -3427.3918715919
   197 OT CG       0.85E-14    7.2     0.00302567     -3427.3918715919  4.09E-12
     - OT LS       0.17E-13    3.9                    -3427.3918715919
   198 OT CG       0.17E-13    7.2     0.00302567     -3427.3918715919  8.64E-12
     - OT LS       0.34E-13    3.9                    -3427.3918715919
   199 OT CG       0.34E-13    7.2     0.00302567     -3427.3918715918  1.50E-11
     - OT LS       0.40E-14    3.9                    -3427.3918715918
   200 OT CG       0.40E-14    7.2     0.00302567     -3427.3918715918  1.82E-12
     - OT LS       0.81E-14    3.9                    -3427.3918715918
   201 OT CG       0.81E-14    7.2     0.00302567     -3427.3918715918  5.46E-12
     - OT LS       0.16E-13    3.9                    -3427.3918715918
   202 OT CG       0.16E-13    7.2     0.00302567     -3427.3918715918  7.73E-12
     - OT LS       0.32E-13    3.9                    -3427.3918715918
   203 OT CG       0.32E-13    7.2     0.00302567     -3427.3918715918  1.46E-11
     - OT LS       0.40E-14    3.9                    -3427.3918715918
   204 OT CG       0.40E-14    7.2     0.00302567     -3427.3918715918  2.73E-12
     - OT LS       0.80E-14    3.8                    -3427.3918715918
   205 OT CG       0.80E-14    7.2     0.00302567     -3427.3918715918  3.64E-12
     - OT LS       0.16E-13    3.9                    -3427.3918715918
   206 OT CG       0.16E-13    7.2     0.00302567     -3427.3918715918  7.28E-12
     - OT LS       0.32E-13    3.8                    -3427.3918715918
   207 OT CG       0.32E-13    7.2     0.00302567     -3427.3918715918  1.50E-11
     - OT LS       0.42E-14    3.9                    -3427.3918715918
   208 OT CG       0.42E-14    7.2     0.00302567     -3427.3918715918  2.27E-12
     - OT LS       0.84E-14    3.8                    -3427.3918715918
   209 OT CG       0.84E-14    7.2     0.00302567     -3427.3918715918  4.09E-12
     - OT LS       0.17E-13    3.9                    -3427.3918715918
   210 OT CG       0.17E-13    7.2     0.00302567     -3427.3918715918  7.73E-12
     - OT LS       0.34E-13    3.9                    -3427.3918715918
   211 OT CG       0.34E-13    7.2     0.00302567     -3427.3918715918  1.50E-11
     - OT LS       0.40E-14    3.9                    -3427.3918715917
   212 OT CG       0.40E-14    7.4     0.00302567     -3427.3918715918  1.82E-12
     - OT LS       0.80E-14    3.8                    -3427.3918715918
   213 OT CG       0.80E-14    7.2     0.00302567     -3427.3918715917  4.55E-12
     - OT LS       0.16E-13    3.9                    -3427.3918715917
   214 OT CG       0.16E-13    7.2     0.00302567     -3427.3918715917  7.73E-12
     - OT LS       0.32E-13    3.8                    -3427.3918715917
   215 OT CG       0.32E-13    7.2     0.00302567     -3427.3918715917  1.46E-11
     - OT LS       0.40E-14    3.9                    -3427.3918715917
   216 OT CG       0.40E-14    7.2     0.00302567     -3427.3918715917  2.27E-12
     - OT LS       0.79E-14    3.9                    -3427.3918715917
   217 OT CG       0.79E-14    7.2     0.00302567     -3427.3918715917  3.64E-12
     - OT LS       0.16E-13    3.8                    -3427.3918715917
   218 OT CG       0.16E-13    7.2     0.00302567     -3427.3918715917  6.82E-12
     - OT LS       0.32E-13    3.8                    -3427.3918715917
   219 OT CG       0.32E-13    7.2     0.00302567     -3427.3918715917  1.55E-11
     - OT LS       0.37E-14    3.8                    -3427.3918715917
   220 OT CG       0.37E-14    7.2     0.00302567     -3427.3918715917  2.73E-12
     - OT LS       0.74E-14    3.8                    -3427.3918715917
   221 OT CG       0.74E-14    7.2     0.00302567     -3427.3918715917  2.73E-12
     - OT LS       0.15E-13    3.9                    -3427.3918715917
   222 OT CG       0.15E-13    7.2     0.00302567     -3427.3918715917  7.73E-12
     - OT LS       0.30E-13    3.9                    -3427.3918715917
   223 OT CG       0.30E-13    7.2     0.00302567     -3427.3918715917  1.36E-11
     - OT LS       0.37E-14    3.8                    -3427.3918715917
   224 OT CG       0.37E-14    7.2     0.00302567     -3427.3918715917  9.09E-13
     - OT LS       0.75E-14    3.9                    -3427.3918715917
   225 OT CG       0.75E-14    7.1     0.00302567     -3427.3918715917  4.09E-12
     - OT LS       0.15E-13    3.9                    -3427.3918715917
   226 OT CG       0.15E-13    7.2     0.00302567     -3427.3918715917  7.73E-12
     - OT LS       0.30E-13    3.8                    -3427.3918715917
   227 OT CG       0.30E-13    7.2     0.00302567     -3427.3918715916  1.36E-11
     - OT LS       0.36E-14    3.8                    -3427.3918715916
   228 OT CG       0.36E-14    7.2     0.00302567     -3427.3918715916  2.27E-12
     - OT LS       0.73E-14    3.9                    -3427.3918715916
   229 OT CG       0.73E-14    7.2     0.00302567     -3427.3918715916  2.27E-12
     - OT LS       0.15E-13    3.8                    -3427.3918715916
   230 OT CG       0.15E-13    7.2     0.00302567     -3427.3918715916  7.28E-12
     - OT LS       0.29E-13    3.9                    -3427.3918715916
   231 OT CG       0.29E-13    7.2     0.00302567     -3427.3918715916  1.41E-11
     - OT LS       0.36E-14    3.9                    -3427.3918715916
   232 OT CG       0.36E-14    7.2     0.00302567     -3427.3918715916  1.36E-12
     - OT LS       0.72E-14    3.9                    -3427.3918715916
   233 OT CG       0.72E-14    7.2     0.00302567     -3427.3918715916  4.55E-12
     - OT LS       0.14E-13    3.9                    -3427.3918715916
   234 OT CG       0.14E-13    7.2     0.00302567     -3427.3918715916  5.91E-12
     - OT LS       0.29E-13    3.8                    -3427.3918715916
   235 OT CG       0.29E-13    7.2     0.00302567     -3427.3918715916  1.36E-11
     - OT LS       0.36E-14    3.8                    -3427.3918715916
   236 OT CG       0.36E-14    7.2     0.00302567     -3427.3918715916  1.36E-12
     - OT LS       0.71E-14    3.8                    -3427.3918715916
   237 OT CG       0.71E-14    7.2     0.00302567     -3427.3918715916  3.64E-12
     - OT LS       0.14E-13    3.9                    -3427.3918715916
   238 OT CG       0.14E-13    7.2     0.00302567     -3427.3918715916  7.28E-12
     - OT LS       0.28E-13    3.9                    -3427.3918715916
   239 OT CG       0.28E-13    7.2     0.00302567     -3427.3918715916  1.27E-11
     - OT LS       0.34E-14    3.8                    -3427.3918715916
   240 OT CG       0.34E-14    7.2     0.00302567     -3427.3918715916  1.82E-12
     - OT LS       0.67E-14    3.8                    -3427.3918715916
   241 OT CG       0.67E-14    7.2     0.00302567     -3427.3918715916  3.64E-12
     - OT LS       0.13E-13    3.9                    -3427.3918715916
   242 OT CG       0.13E-13    7.2     0.00302567     -3427.3918715916  5.91E-12
     - OT LS       0.27E-13    3.9                    -3427.3918715916
   243 OT CG       0.27E-13    7.2     0.00302567     -3427.3918715915  1.36E-11
     - OT LS       0.35E-14    3.8                    -3427.3918715915
   244 OT CG       0.35E-14    7.2     0.00302567     -3427.3918715915  1.36E-12
     - OT LS       0.70E-14    3.9                    -3427.3918715915
   245 OT CG       0.70E-14    7.2     0.00302567     -3427.3918715915  2.73E-12
     - OT LS       0.14E-13    3.8                    -3427.3918715915
   246 OT CG       0.14E-13    7.2     0.00302567     -3427.3918715915  6.82E-12
     - OT LS       0.28E-13    3.9                    -3427.3918715915
   247 OT CG       0.28E-13    7.2     0.00302567     -3427.3918715915  1.32E-11
     - OT LS       0.35E-14    3.8                    -3427.3918715915
   248 OT CG       0.35E-14    7.2     0.00302567     -3427.3918715915  1.82E-12
     - OT LS       0.70E-14    3.9                    -3427.3918715915
   249 OT CG       0.70E-14    7.2     0.00302567     -3427.3918715915  2.27E-12
     - OT LS       0.14E-13    3.9                    -3427.3918715915
   250 OT CG       0.14E-13    7.2     0.00302567     -3427.3918715915  6.82E-12

  Leaving inner SCF loop after reaching   250 steps.


  Electronic density on regular grids:      -2018.8498040342       15.1501959658
  Core density on regular grids:             2033.9999999986       -0.0000000014
  Total charge density on r-space grids:       15.1501959644
  Total charge density g-space grids:          15.1501959644

  Overlap energy of the core charge distribution:               0.00011754517808
  Self energy of the core charge distribution:              -8859.91288883521156
  Core Hamiltonian energy:                                   2545.50000093815879
  Hartree energy:                                            3820.33488537656513
  Exchange-correlation energy:                               -936.40637795956036
  Dispersion energy:                                            2.57188076947636
  Electric field interaction energy:                            0.52051057388466

  Total energy:                                             -3427.39187159150970

  outer SCF iter =    9 RMS gradient =   0.30E-02 energy =      -3427.3918715915

  ----------------------------------- OT ---------------------------------------
  Minimizer      : CG                  : conjugate gradient
  Preconditioner : FULL_ALL            : diagonalization, state selective
  Precond_solver : DEFAULT
  Line search    : 2PNT                : 2 energies, one gradient
  stepsize       :    0.15000000                  energy_gap     :    0.00100000
  eps_taylor     :   0.10000E-15                  max_taylor     :             4
  ----------------------------------- OT ---------------------------------------

  Step     Update method      Time    Convergence         Total energy    Change
  ------------------------------------------------------------------------------
     1 OT CG       0.15E+00   22.5     0.00368856     -3427.3918715915  7.28E-12
     - OT LS       0.18E-01    3.8                    -3316.3943157297
     2 OT CG       0.18E-01    7.2     0.00618944     -3413.7006433664  1.37E+01
     - OT LS       0.31E-02    3.9                    -3376.7330603766
     3 OT CG       0.31E-02    7.2     0.00485333     -3406.8088664686  6.89E+00
     - OT LS       0.49E-03    3.9                    -3404.1987364182
     4 OT CG       0.49E-03    7.2     0.00483596     -3406.2411293758  5.68E-01
     - OT LS       0.62E-04    3.8                    -3405.6596640010
     5 OT CG       0.62E-04    7.2     0.00483621     -3406.1640792637  7.71E-02
     - OT LS       0.79E-05    3.8                    -3406.0919731764
     6 OT CG       0.79E-05    7.2     0.00483605     -3406.1549333590  9.15E-03
     - OT LS       0.10E-05    3.9                    -3406.1457984646
     7 OT CG       0.10E-05    7.2     0.00483603     -3406.1537743915  1.16E-03
     - OT LS       0.13E-06    3.9                    -3406.1526153988
     8 OT CG       0.13E-06    7.2     0.00483603     -3406.1536273422  1.47E-04
     - OT LS       0.16E-07    3.9                    -3406.1534802926
     9 OT CG       0.16E-07    7.2     0.00483603     -3406.1536086850  1.87E-05
     - OT LS       0.20E-08    3.9                    -3406.1535900277
    10 OT CG       0.20E-08    7.2     0.00483603     -3406.1536063178  2.37E-06
     - OT LS       0.26E-09    3.9                    -3406.1536039506
    11 OT CG       0.26E-09    7.2     0.00483603     -3406.1536060175  3.00E-07
     - OT LS       0.33E-10    3.9                    -3406.1536057171
    12 OT CG       0.33E-10    7.2     0.00483603     -3406.1536059794  3.81E-08
     - OT LS       0.42E-11    3.8                    -3406.1536059413
    13 OT CG       0.42E-11    7.2     0.00483603     -3406.1536059745  4.84E-09
     - OT LS       0.53E-12    3.9                    -3406.1536059697
    14 OT CG       0.53E-12    7.2     0.00483603     -3406.1536059739  6.13E-10
     - OT LS       0.67E-13    3.9                    -3406.1536059733
    15 OT CG       0.67E-13    7.2     0.00483603     -3406.1536059738  7.78E-11
     - OT LS       0.85E-14    3.8                    -3406.1536059738
    16 OT CG       0.85E-14    7.2     0.00483603     -3406.1536059738  1.09E-11
     - OT LS       0.12E-14    3.9                    -3406.1536059738
    17 OT CG       0.12E-14    7.3     0.00483603     -3406.1536059738  0.00E+00
     - OT LS       0.24E-14    3.9                    -3406.1536059738
    18 OT CG       0.24E-14    7.2     0.00483603     -3406.1536059738  2.27E-12
     - OT LS       0.49E-14    3.9                    -3406.1536059738
    19 OT CG       0.49E-14    7.2     0.00483603     -3406.1536059738  6.37E-12
     - OT LS       0.97E-14    3.9                    -3406.1536059738
    20 OT CG       0.97E-14    7.2     0.00483603     -3406.1536059738  1.18E-11
     - OT LS       0.13E-14    3.8                    -3406.1536059738
    21 OT CG       0.13E-14    7.2     0.00483603     -3406.1536059738  9.09E-13
     - OT LS       0.25E-14    3.9                    -3406.1536059738
    22 OT CG       0.25E-14    7.2     0.00483603     -3406.1536059738  2.73E-12
     - OT LS       0.50E-14    3.9                    -3406.1536059738
    23 OT CG       0.50E-14    7.2     0.00483603     -3406.1536059738  7.28E-12
     - OT LS       0.10E-13    3.9                    -3406.1536059738
    24 OT CG       0.10E-13    7.2     0.00483603     -3406.1536059738  1.05E-11
     - OT LS       0.13E-14    3.8                    -3406.1536059738
    25 OT CG       0.13E-14    7.2     0.00483603     -3406.1536059738  1.36E-12
     - OT LS       0.26E-14    3.8                    -3406.1536059738
    26 OT CG       0.26E-14    7.2     0.00483603     -3406.1536059738  3.64E-12
     - OT LS       0.51E-14    3.9                    -3406.1536059738
    27 OT CG       0.51E-14    7.2     0.00483603     -3406.1536059738  5.46E-12
     - OT LS       0.10E-13    3.9                    -3406.1536059738
    28 OT CG       0.10E-13    7.2     0.00483603     -3406.1536059738  1.18E-11
     - OT LS       0.13E-14    3.9                    -3406.1536059737
    29 OT CG       0.13E-14    7.2     0.00483603     -3406.1536059738  1.82E-12
     - OT LS       0.26E-14    3.9                    -3406.1536059738
    30 OT CG       0.26E-14    7.2     0.00483603     -3406.1536059738  2.73E-12
     - OT LS       0.52E-14    3.8                    -3406.1536059738
    31 OT CG       0.52E-14    7.2     0.00483603     -3406.1536059737  7.28E-12
     - OT LS       0.10E-13    3.9                    -3406.1536059737
    32 OT CG       0.10E-13    7.2     0.00483603     -3406.1536059737  1.09E-11
     - OT LS       0.13E-14    3.8                    -3406.1536059737
    33 OT CG       0.13E-14    7.2     0.00483603     -3406.1536059737  1.36E-12
     - OT LS       0.26E-14    3.9                    -3406.1536059737
    34 OT CG       0.26E-14    7.2     0.00483603     -3406.1536059737  2.73E-12
     - OT LS       0.52E-14    3.8                    -3406.1536059737
    35 OT CG       0.52E-14    7.2     0.00483603     -3406.1536059737  6.82E-12
     - OT LS       0.10E-13    3.8                    -3406.1536059737
    36 OT CG       0.10E-13    7.2     0.00483603     -3406.1536059737  1.27E-11
     - OT LS       0.14E-14    3.9                    -3406.1536059737
    37 OT CG       0.14E-14    7.2     0.00483603     -3406.1536059737  0.00E+00
     - OT LS       0.28E-14    3.8                    -3406.1536059737
    38 OT CG       0.28E-14    7.2     0.00483603     -3406.1536059737  4.09E-12
     - OT LS       0.56E-14    3.8                    -3406.1536059737
    39 OT CG       0.56E-14    7.2     0.00483603     -3406.1536059737  5.91E-12
     - OT LS       0.11E-13    3.9                    -3406.1536059737
    40 OT CG       0.11E-13    7.2     0.00483603     -3406.1536059737  1.36E-11
     - OT LS       0.15E-14    3.8                    -3406.1536059737
    41 OT CG       0.15E-14    7.2     0.00483603     -3406.1536059737  1.82E-12
     - OT LS       0.30E-14    3.9                    -3406.1536059737
    42 OT CG       0.30E-14    7.2     0.00483603     -3406.1536059737  2.73E-12
     - OT LS       0.59E-14    3.9                    -3406.1536059737
    43 OT CG       0.59E-14    7.2     0.00483603     -3406.1536059737  7.73E-12
     - OT LS       0.12E-13    3.9                    -3406.1536059737
    44 OT CG       0.12E-13    7.2     0.00483603     -3406.1536059737  1.32E-11
     - OT LS       0.15E-14    3.9                    -3406.1536059736
    45 OT CG       0.15E-14    7.2     0.00483603     -3406.1536059737  1.36E-12
     - OT LS       0.30E-14    3.8                    -3406.1536059737
    46 OT CG       0.30E-14    7.2     0.00483603     -3406.1536059737  5.00E-12
     - OT LS       0.59E-14    3.8                    -3406.1536059737
    47 OT CG       0.59E-14    7.2     0.00483603     -3406.1536059737  5.00E-12
     - OT LS       0.12E-13    3.9                    -3406.1536059736
    48 OT CG       0.12E-13    7.2     0.00483603     -3406.1536059736  1.50E-11
     - OT LS       0.15E-14    3.8                    -3406.1536059736
    49 OT CG       0.15E-14    7.2     0.00483603     -3406.1536059736  1.82E-12
     - OT LS       0.31E-14    3.9                    -3406.1536059736
    50 OT CG       0.31E-14    7.2     0.00483603     -3406.1536059736  3.64E-12
     - OT LS       0.61E-14    3.9                    -3406.1536059736
    51 OT CG       0.61E-14    7.2     0.00483603     -3406.1536059736  5.91E-12
     - OT LS       0.12E-13    3.9                    -3406.1536059736
    52 OT CG       0.12E-13    7.2     0.00483603     -3406.1536059736  1.46E-11
     - OT LS       0.15E-14    3.8                    -3406.1536059736
    53 OT CG       0.15E-14    7.2     0.00483603     -3406.1536059736  2.73E-12
     - OT LS       0.30E-14    3.8                    -3406.1536059736
    54 OT CG       0.30E-14    7.2     0.00483603     -3406.1536059736  4.09E-12
     - OT LS       0.59E-14    3.9                    -3406.1536059736
    55 OT CG       0.59E-14    7.2     0.00483603     -3406.1536059736  6.37E-12
     - OT LS       0.12E-13    3.8                    -3406.1536059736
    56 OT CG       0.12E-13    7.2     0.00483603     -3406.1536059736  1.32E-11
     - OT LS       0.15E-14    3.9                    -3406.1536059736
    57 OT CG       0.15E-14    7.2     0.00483603     -3406.1536059736  1.82E-12
     - OT LS       0.30E-14    3.9                    -3406.1536059736
    58 OT CG       0.30E-14    7.2     0.00483603     -3406.1536059736  3.18E-12
     - OT LS       0.60E-14    3.8                    -3406.1536059736
    59 OT CG       0.60E-14    7.2     0.00483603     -3406.1536059736  7.28E-12
     - OT LS       0.12E-13    3.9                    -3406.1536059736
    60 OT CG       0.12E-13    7.2     0.00483603     -3406.1536059736  1.36E-11
     - OT LS       0.15E-14    3.9                    -3406.1536059735
    61 OT CG       0.15E-14    7.2     0.00483603     -3406.1536059736  2.27E-12
     - OT LS       0.30E-14    3.9                    -3406.1536059736
    62 OT CG       0.30E-14    7.2     0.00483603     -3406.1536059736  2.73E-12
     - OT LS       0.60E-14    3.9                    -3406.1536059735
    63 OT CG       0.60E-14    7.3     0.00483603     -3406.1536059735  8.64E-12
     - OT LS       0.12E-13    3.9                    -3406.1536059735
    64 OT CG       0.12E-13    7.2     0.00483603     -3406.1536059735  1.32E-11
     - OT LS       0.16E-14    3.9                    -3406.1536059735
    65 OT CG       0.16E-14    7.3     0.00483603     -3406.1536059735  9.09E-13
     - OT LS       0.32E-14    3.8                    -3406.1536059735
    66 OT CG       0.32E-14    7.2     0.00483603     -3406.1536059735  4.09E-12
     - OT LS       0.63E-14    3.9                    -3406.1536059735
    67 OT CG       0.63E-14    7.2     0.00483603     -3406.1536059735  7.73E-12
     - OT LS       0.13E-13    3.9                    -3406.1536059735
    68 OT CG       0.13E-13    7.2     0.00483603     -3406.1536059735  1.59E-11
     - OT LS       0.17E-14    3.8                    -3406.1536059735
    69 OT CG       0.17E-14    7.2     0.00483603     -3406.1536059735  1.36E-12
     - OT LS       0.33E-14    3.8                    -3406.1536059735
    70 OT CG       0.33E-14    7.2     0.00483603     -3406.1536059735  2.73E-12
     - OT LS       0.67E-14    3.9                    -3406.1536059735
    71 OT CG       0.67E-14    7.2     0.00483603     -3406.1536059735  9.09E-12
     - OT LS       0.13E-13    3.9                    -3406.1536059735
    72 OT CG       0.13E-13    7.2     0.00483603     -3406.1536059735  1.50E-11
     - OT LS       0.17E-14    3.8                    -3406.1536059735
    73 OT CG       0.17E-14    7.2     0.00483603     -3406.1536059735  1.82E-12
     - OT LS       0.34E-14    3.9                    -3406.1536059735
    74 OT CG       0.34E-14    7.2     0.00483603     -3406.1536059735  5.00E-12
     - OT LS       0.67E-14    3.9                    -3406.1536059735
    75 OT CG       0.67E-14    7.2     0.00483603     -3406.1536059735  6.82E-12
     - OT LS       0.13E-13    3.8                    -3406.1536059735
    76 OT CG       0.13E-13    7.2     0.00483603     -3406.1536059734  1.50E-11
     - OT LS       0.17E-14    3.9                    -3406.1536059734
    77 OT CG       0.17E-14    7.2     0.00483603     -3406.1536059734  2.73E-12
     - OT LS       0.33E-14    3.9                    -3406.1536059734
    78 OT CG       0.33E-14    7.2     0.00483603     -3406.1536059734  3.18E-12
     - OT LS       0.67E-14    3.9                    -3406.1536059734
    79 OT CG       0.67E-14    7.2     0.00483603     -3406.1536059734  7.73E-12
     - OT LS       0.13E-13    3.9                    -3406.1536059734
    80 OT CG       0.13E-13    7.2     0.00483603     -3406.1536059734  1.68E-11
     - OT LS       0.17E-14    3.8                    -3406.1536059734
    81 OT CG       0.17E-14    7.2     0.00483603     -3406.1536059734  1.36E-12
     - OT LS       0.35E-14    3.9                    -3406.1536059734
    82 OT CG       0.35E-14    7.2     0.00483603     -3406.1536059734  3.18E-12
     - OT LS       0.69E-14    3.9                    -3406.1536059734
    83 OT CG       0.69E-14    7.2     0.00483603     -3406.1536059734  9.55E-12
     - OT LS       0.14E-13    3.8                    -3406.1536059734
    84 OT CG       0.14E-13    7.2     0.00483603     -3406.1536059734  1.50E-11
     - OT LS       0.17E-14    3.8                    -3406.1536059734
    85 OT CG       0.17E-14    7.2     0.00483603     -3406.1536059734  3.64E-12
     - OT LS       0.34E-14    3.8                    -3406.1536059734
    86 OT CG       0.34E-14    7.2     0.00483603     -3406.1536059734  2.27E-12
     - OT LS       0.67E-14    3.9                    -3406.1536059734
    87 OT CG       0.67E-14    7.2     0.00483603     -3406.1536059734  9.09E-12
     - OT LS       0.13E-13    3.9                    -3406.1536059734
    88 OT CG       0.13E-13    7.2     0.00483603     -3406.1536059734  1.46E-11
     - OT LS       0.17E-14    3.8                    -3406.1536059733
    89 OT CG       0.17E-14    7.2     0.00483603     -3406.1536059734  2.73E-12
     - OT LS       0.35E-14    3.8                    -3406.1536059734
    90 OT CG       0.35E-14    7.2     0.00483603     -3406.1536059734  2.73E-12
     - OT LS       0.69E-14    3.9                    -3406.1536059733
    91 OT CG       0.69E-14    7.2     0.00483603     -3406.1536059733  9.09E-12
     - OT LS       0.14E-13    3.8                    -3406.1536059733
    92 OT CG       0.14E-13    7.2     0.00483603     -3406.1536059733  1.59E-11
     - OT LS       0.17E-14    3.9                    -3406.1536059733
    93 OT CG       0.17E-14    7.2     0.00483603     -3406.1536059733  1.82E-12
     - OT LS       0.34E-14    3.8                    -3406.1536059733
    94 OT CG       0.34E-14    7.2     0.00483603     -3406.1536059733  4.09E-12
     - OT LS       0.69E-14    3.9                    -3406.1536059733
    95 OT CG       0.69E-14    7.2     0.00483603     -3406.1536059733  8.19E-12
     - OT LS       0.14E-13    3.8                    -3406.1536059733
    96 OT CG       0.14E-13    7.2     0.00483603     -3406.1536059733  1.59E-11
     - OT LS       0.18E-14    3.9                    -3406.1536059733
    97 OT CG       0.18E-14    7.2     0.00483603     -3406.1536059733  1.36E-12
     - OT LS       0.36E-14    3.9                    -3406.1536059733
    98 OT CG       0.36E-14    7.2     0.00483603     -3406.1536059733  4.55E-12
     - OT LS       0.71E-14    3.9                    -3406.1536059733
    99 OT CG       0.71E-14    7.2     0.00483603     -3406.1536059733  9.55E-12
     - OT LS       0.14E-13    3.8                    -3406.1536059733
   100 OT CG       0.14E-13    7.2     0.00483603     -3406.1536059733  1.59E-11
     - OT LS       0.18E-14    3.9                    -3406.1536059732
   101 OT CG       0.18E-14    7.2     0.00483603     -3406.1536059733  1.36E-12
     - OT LS       0.36E-14    3.8                    -3406.1536059733
   102 OT CG       0.36E-14    7.2     0.00483603     -3406.1536059733  3.18E-12
     - OT LS       0.72E-14    3.9                    -3406.1536059733
   103 OT CG       0.72E-14    7.2     0.00483603     -3406.1536059733  9.09E-12
     - OT LS       0.14E-13    3.9                    -3406.1536059732
   104 OT CG       0.14E-13    7.2     0.00483603     -3406.1536059732  1.82E-11
     - OT LS       0.19E-14    3.8                    -3406.1536059732
   105 OT CG       0.19E-14    7.2     0.00483603     -3406.1536059732  1.36E-12
     - OT LS       0.38E-14    3.8                    -3406.1536059732
   106 OT CG       0.38E-14    7.2     0.00483603     -3406.1536059732  3.64E-12
     - OT LS       0.76E-14    3.8                    -3406.1536059732
   107 OT CG       0.76E-14    7.2     0.00483603     -3406.1536059732  1.00E-11
     - OT LS       0.15E-13    3.9                    -3406.1536059732
   108 OT CG       0.15E-13    7.2     0.00483603     -3406.1536059732  1.77E-11
     - OT LS       0.20E-14    3.9                    -3406.1536059732
   109 OT CG       0.20E-14    7.2     0.00483603     -3406.1536059732  1.36E-12
     - OT LS       0.39E-14    3.9                    -3406.1536059732
   110 OT CG       0.39E-14    7.2     0.00483603     -3406.1536059732  4.55E-12
     - OT LS       0.79E-14    3.9                    -3406.1536059732
   111 OT CG       0.79E-14    7.2     0.00483603     -3406.1536059732  9.55E-12
     - OT LS       0.16E-13    3.9                    -3406.1536059732
   112 OT CG       0.16E-13    7.2     0.00483603     -3406.1536059732  1.86E-11
     - OT LS       0.22E-14    3.9                    -3406.1536059732
   113 OT CG       0.22E-14    7.2     0.00483603     -3406.1536059732  3.18E-12
     - OT LS       0.43E-14    3.9                    -3406.1536059732
   114 OT CG       0.43E-14    7.3     0.00483603     -3406.1536059732  4.09E-12
